14
Coordinates from ORCA-job ./orca E -398.979966991714
  O       1.633174     -0.230169     -0.724169
  N      -2.020943     -0.136982     -0.077118
  C      -0.757186     -0.115975     -0.806854
  C       0.455677     -0.248052      0.098029
  H      -0.695924      0.819482     -1.366471
  H      -0.762497     -0.933806     -1.530259
  H       0.399128     -1.186098      0.659529
  H       0.478847      0.581360      0.811678
  H      -2.117006     -0.994064      0.458386
  H      -2.076289      0.635143      0.579468
  H       2.402509     -0.301291     -0.145491
  O      -4.660999     -0.037725     -0.470286
  C      -3.841053     -0.005814     -1.312809
  O      -3.384419      0.052678     -2.394312
14
Coordinates from ORCA-job ./orca E -398.979984144342
  O       1.632775     -0.227589     -0.724123
  N      -2.021226     -0.133441     -0.076926
  C      -0.757367     -0.108420     -0.806493
  C       0.454908     -0.250332      0.097449
  H      -0.694449      0.831738     -1.358494
  H      -0.764216     -0.920356     -1.536844
  H       0.396347     -1.193366      0.650885
  H       0.479572      0.572759      0.818466
  H      -2.115907     -0.993320      0.454892
  H      -2.076932      0.635617      0.583468
  H       2.401943     -0.302232     -0.145771
  O      -4.659517     -0.014482     -0.469278
  C      -3.839648     -0.011795     -1.312479
  O      -3.383265      0.013903     -2.395433
14
Coordinates from ORCA-job ./orca E -398.979984172048
  O       1.633606     -0.226215     -0.723467
  N      -2.020795     -0.134199     -0.077445
  C      -0.756577     -0.106633     -0.806504
  C       0.455405     -0.250629      0.097643
  H      -0.694066      0.834992     -1.355655
  H      -0.762595     -0.916523     -1.538884
  H       0.396466     -1.194771      0.648783
  H       0.479863      0.570837      0.820384
  H      -2.114557     -0.994746      0.453108
  H      -2.077751      0.634055      0.583545
  H       2.402497     -0.302564     -0.144850
  O      -4.660050     -0.003785     -0.468072
  C      -3.842119     -0.012483     -1.312978
  O      -3.386307      0.001349     -2.396291
14
Coordinates from ORCA-job ./orca E -398.979985427323
  O       1.633610     -0.224068     -0.723290
  N      -2.020742     -0.133540     -0.077355
  C      -0.756516     -0.103538     -0.806294
  C       0.455255     -0.251660      0.097411
  H      -0.693624      0.840315     -1.351644
  H      -0.762825     -0.910428     -1.542039
  H       0.395847     -1.198161      0.644546
  H       0.479726      0.566693      0.823690
  H      -2.113277     -0.994828      0.452354
  H      -2.078751      0.633883      0.584558
  H       2.402378     -0.303018     -0.144898
  O      -4.659304      0.008806     -0.467894
  C      -3.841931     -0.014795     -1.313047
  O      -3.386825     -0.016974     -2.396779
14
Coordinates from ORCA-job ./orca E -398.979985167359
  O       1.633647     -0.222609     -0.723102
  N      -2.020710     -0.132825     -0.077454
  C      -0.756348     -0.100947     -0.806147
  C       0.455171     -0.252278      0.097365
  H      -0.693098      0.844562     -1.348548
  H      -0.762753     -0.905583     -1.544307
  H       0.395334     -1.200465      0.641480
  H       0.479842      0.563812      0.826158
  H      -2.112439     -0.994802      0.451208
  H      -2.079528      0.633777      0.585271
  H       2.402317     -0.304168     -0.144937
  O      -4.658860      0.017768     -0.467704
  C      -3.841991     -0.016748     -1.313017
  O      -3.387565     -0.030807     -2.396946
14
Coordinates from ORCA-job ./orca E -398.979987282217
  O       1.633535     -0.222093     -0.723269
  N      -2.020736     -0.132293     -0.077255
  C      -0.756356     -0.098204     -0.805797
  C       0.455102     -0.252683      0.097213
  H      -0.692897      0.848897     -1.345322
  H      -0.762816     -0.900673     -1.546303
  H       0.394328     -1.202184      0.638964
  H       0.480663      0.561530      0.828073
  H      -2.111599     -0.995313      0.449869
  H      -2.080405      0.633091      0.586799
  H       2.402159     -0.305135     -0.145297
  O      -4.658379      0.026674     -0.468075
  C      -3.841800     -0.018639     -1.313205
  O      -3.387782     -0.044287     -2.397075
14
Coordinates from ORCA-job ./orca E -398.979987247853
  O       1.633532     -0.220712     -0.723228
  N      -2.020737     -0.132500     -0.077163
  C      -0.756340     -0.096526     -0.805586
  C       0.455069     -0.252986      0.097166
  H      -0.692987      0.851849     -1.342883
  H      -0.762666     -0.897265     -1.547968
  H       0.394256     -1.203593      0.636905
  H       0.480609      0.559707      0.829681
  H      -2.110724     -0.996194      0.448955
  H      -2.081172      0.632070      0.587708
  H       2.402159     -0.305643     -0.145498
  O      -4.657941      0.035267     -0.468318
  C      -3.841840     -0.019571     -1.313355
  O      -3.388200     -0.055217     -2.397097
14
Coordinates from ORCA-job ./orca E -398.979985953493
  O       1.633572     -0.219670     -0.723186
  N      -2.020732     -0.132597     -0.077110
  C      -0.756302     -0.095222     -0.805437
  C       0.455068     -0.253082      0.097120
  H      -0.693063      0.854058     -1.341098
  H      -0.762447     -0.894736     -1.549105
  H       0.394155     -1.204493      0.635395
  H       0.480668      0.558516      0.830844
  H      -2.110224     -0.996917      0.448037
  H      -2.081599      0.631213      0.588574
  H       2.402127     -0.306313     -0.145617
  O      -4.657629      0.041552     -0.468530
  C      -3.841932     -0.020284     -1.313480
  O      -3.388645     -0.063338     -2.397088
14
Coordinates from ORCA-job ./orca E -398.979988288541
  O       1.633483     -0.219314     -0.723308
  N      -2.020767     -0.132261     -0.076931
  C      -0.756340     -0.094273     -0.805253
  C       0.455062     -0.253136      0.097092
  H      -0.693039      0.855492     -1.340006
  H      -0.762589     -0.893089     -1.549636
  H       0.393975     -1.204958      0.634565
  H       0.480929      0.557860      0.831460
  H      -2.110039     -0.996849      0.447799
  H      -2.081979      0.631264      0.589035
  H       2.402045     -0.307368     -0.145970
  O      -4.657492      0.043661     -0.468882
  C      -3.841758     -0.021023     -1.313587
  O      -3.388472     -0.067316     -2.397059
14
Coordinates from ORCA-job ./orca E -398.979987156342
  O       1.633555     -0.218897     -0.723175
  N      -2.020739     -0.132046     -0.077062
  C      -0.756243     -0.093347     -0.805242
  C       0.455035     -0.253358      0.097070
  H      -0.692811      0.857001     -1.338957
  H      -0.762469     -0.891359     -1.550497
  H       0.393696     -1.205752      0.633518
  H       0.480993      0.556841      0.832312
  H      -2.109671     -0.996872      0.447336
  H      -2.082281      0.631181      0.589211
  H       2.402050     -0.307680     -0.145852
  O      -4.657240      0.046873     -0.468792
  C      -3.841848     -0.021699     -1.313542
  O      -3.389009     -0.072200     -2.397008
14
Coordinates from ORCA-job ./orca E -398.979986913242
  O       1.633463     -0.218415     -0.723316
  N      -2.020774     -0.132046     -0.076812
  C      -0.756343     -0.093071     -0.805081
  C       0.455038     -0.253456      0.097023
  H      -0.692959      0.857492     -1.338369
  H      -0.762657     -0.890754     -1.550662
  H       0.393851     -1.206136      0.632942
  H       0.480978      0.556352      0.832691
  H      -2.109588     -0.996947      0.447462
  H      -2.082414      0.631116      0.589512
  H       2.402008     -0.307757     -0.146160
  O      -4.657199      0.048532     -0.469202
  C      -3.841716     -0.021900     -1.313711
  O      -3.388669     -0.074324     -2.396997
14
Coordinates from ORCA-job ./orca E -398.979986625592
  O       1.633460     -0.218257     -0.723319
  N      -2.020774     -0.131964     -0.076784
  C      -0.756341     -0.092805     -0.805051
  C       0.455031     -0.253468      0.097017
  H      -0.692942      0.857903     -1.338070
  H      -0.762666     -0.890282     -1.550843
  H       0.393812     -1.206279      0.632681
  H       0.481004      0.556153      0.832887
  H      -2.109499     -0.996926      0.447391
  H      -2.082499      0.631128      0.589605
  H       2.401991     -0.308095     -0.146213
  O      -4.657164      0.049186     -0.469267
  C      -3.841708     -0.022108     -1.313732
  O      -3.388688     -0.075501     -2.396981
