14
Coordinates from ORCA-job ./orca E -398.979986625592
  O           1.63346038708936     -0.21825678377025     -0.72331889148904
  N          -2.02077371404221     -0.13196354204642     -0.07678441275291
  C          -0.75634116112462     -0.09280465421921     -0.80505064369236
  C           0.45503134179438     -0.25346802396863      0.09701666456404
  H          -0.69294179235468      0.85790310823941     -1.33807040457443
  H          -0.76266619979232     -0.89028193658526     -1.55084287990047
  H           0.39381201200046     -1.20627873850444      0.63268131789227
  H           0.48100355281636      0.55615305883596      0.83288748810788
  H          -2.10949903972239     -0.99692571478665      0.44739062413097
  H          -2.08249887773646      0.63112795541148      0.58960462679101
  H           2.40199109146387     -0.30809481511313     -0.14621327103793
  O          -4.65716379789339      0.04918630028277     -0.46926728428705
  C          -3.84170784850431     -0.02210826524609     -1.31373228173972
  O          -3.38868800429376     -0.07550127602953     -2.39698099291215
