14
Coordinates from ORCA-job ./backwardopt E -399.101111219747
  O           1.86523327054497     -0.28553623235327     -0.70527769044220
  N          -1.71570093796059     -0.03191427048501      0.24346104268275
  C          -0.51127513588444     -0.06505008841457     -0.58566511416402
  C           0.76611208592954     -0.25699991165570      0.20872825108814
  H          -0.45192115479571      0.86728055125437     -1.14958408635833
  H          -0.60890243593113     -0.87757646308498     -1.30767090488412
  H           0.71648030624485     -1.19574341473167      0.76714113867311
  H           0.89023167825859      0.56335405607239      0.92101758118760
  H          -1.76599182066201     -0.88247036247389      0.79261374634732
  H          -1.64164825742247      0.72459211960360      0.91386333999446
  H           2.67005348628958     -0.43958657706209     -0.20235697776254
  O          -5.92089664056329     -0.06818465970532     -1.24115282152226
  C          -5.11608766808308     -0.06982187380161     -2.06981521975863
  O          -4.31275491962041     -0.07165653803054     -2.89994183021100
