14
Coordinates from ORCA-job ./orca E -398.986738117000
  O           1.53709340468280     -0.42209798988119     -0.92699957506696
  N          -1.88517359408400      0.20092742073412      0.40715340326639
  C          -0.79310101813680      0.01862453934249     -0.55499475505316
  C           0.54598734118802     -0.26351332598270      0.10180239246464
  H          -0.71336188238724      0.92010766639221     -1.16738952452570
  H          -1.04973325280182     -0.80648243052295     -1.22344058446569
  H           0.47745423157427     -1.17566097374789      0.70366011147248
  H           0.81682870682179      0.56615974079824      0.76311725060215
  H          -1.96438024481276     -0.63263635693618      0.98280223543230
  H          -1.64304092091832      0.95432681391914      1.04474761253961
  H           2.38363136800114     -0.60357154074295     -0.50012795329811
  O          -4.95237743284768     -0.76248278978889     -1.18815234137197
  C          -4.21760505653049     -0.28524368266406     -1.94801061448169
  O          -3.48920370004885      0.19022958158060     -2.71484799841426
