14
Coordinates from ORCA-job ./orca E -398.985543012375
  O       1.640815     -0.383271     -0.776457
  N      -1.920679      0.065695      0.145171
  C      -0.720032     -0.085126     -0.669155
  C       0.556929     -0.244992      0.134808
  H      -0.627561      0.787484     -1.316477
  H      -0.845669     -0.953990     -1.315801
  H       0.480047     -1.127330      0.777229
  H       0.701945      0.630502      0.774526
  H      -2.025354     -0.736245      0.754383
  H      -1.824821      0.869879      0.752943
  H       2.451883     -0.478106     -0.271390
  O      -4.922236     -0.612815     -0.902831
  C      -4.256841     -0.146982     -1.724887
  O      -3.635406      0.313983     -2.582742
14
Coordinates from ORCA-job ./orca E -398.985878565999
  O       1.654377     -0.383007     -0.776953
  N      -1.922754      0.066811      0.147714
  C      -0.720760     -0.084911     -0.671256
  C       0.558504     -0.245425      0.133419
  H      -0.628544      0.789724     -1.320306
  H      -0.847523     -0.955704     -1.319402
  H       0.480334     -1.129853      0.775585
  H       0.701377      0.630001      0.776467
  H      -2.027492     -0.737855      0.758578
  H      -1.825949      0.873706      0.756347
  H       2.467250     -0.478585     -0.265182
  O      -4.929962     -0.612788     -0.899284
  C      -4.267999     -0.147963     -1.730093
  O      -3.637841      0.314536     -2.586315
14
Coordinates from ORCA-job ./orca E -398.985986618024
  O       1.660796     -0.382395     -0.777304
  N      -1.920469      0.067902      0.151429
  C      -0.719815     -0.084420     -0.671844
  C       0.559218     -0.245743      0.133622
  H      -0.628655      0.790884     -1.320956
  H      -0.848194     -0.955502     -1.319980
  H       0.481811     -1.131647      0.773741
  H       0.702603      0.628834      0.777560
  H      -2.023976     -0.737379      0.762164
  H      -1.821798      0.875226      0.759587
  H       2.471392     -0.478518     -0.260838
  O      -4.937971     -0.612687     -0.901078
  C      -4.279246     -0.148881     -1.736606
  O      -3.642678      0.313013     -2.590177
14
Coordinates from ORCA-job ./orca E -398.986118402894
  O       1.670250     -0.380367     -0.778331
  N      -1.913185      0.070261      0.161228
  C      -0.716709     -0.083556     -0.670980
  C       0.561538     -0.246428      0.134648
  H      -0.628153      0.792491     -1.319611
  H      -0.849218     -0.954618     -1.318367
  H       0.487590     -1.135617      0.769652
  H       0.707656      0.626304      0.779512
  H      -2.013836     -0.735743      0.771476
  H      -1.809688      0.877958      0.767989
  H       2.476085     -0.477563     -0.253992
  O      -4.959078     -0.611158     -0.911126
  C      -4.304069     -0.151174     -1.752544
  O      -3.656165      0.307898     -2.600232
14
Coordinates from ORCA-job ./orca E -398.986218692492
  O       1.674185     -0.378329     -0.779533
  N      -1.906748      0.072133      0.169945
  C      -0.713842     -0.083082     -0.668145
  C       0.564449     -0.246975      0.135695
  H      -0.627127      0.793092     -1.316248
  H      -0.849943     -0.953810     -1.314619
  H       0.494021     -1.138602      0.766887
  H       0.713233      0.624453      0.780961
  H      -2.005051     -0.733929      0.779993
  H      -1.798885      0.879680      0.775717
  H       2.477661     -0.476363     -0.252323
  O      -4.978606     -0.609229     -0.923883
  C      -4.322261     -0.152919     -1.765524
  O      -3.668067      0.302567     -2.609604
14
Coordinates from ORCA-job ./orca E -398.986310968056
  O       1.673954     -0.376001     -0.781370
  N      -1.900861      0.073766      0.179018
  C      -0.711104     -0.082995     -0.662887
  C       0.568585     -0.247464      0.136826
  H      -0.625547      0.792869     -1.310597
  H      -0.850783     -0.953220     -1.308338
  H       0.501868     -1.140854      0.765422
  H       0.719704      0.623064      0.782332
  H      -1.996748     -0.731852      0.789398
  H      -1.788075      0.880617      0.784381
  H       2.477834     -0.474740     -0.256255
  O      -4.999839     -0.606462     -0.940776
  C      -4.336756     -0.154382     -1.777808
  O      -3.679214      0.296342     -2.620027
14
Coordinates from ORCA-job ./orca E -398.986406129043
  O       1.672587     -0.373746     -0.783786
  N      -1.896193      0.075216      0.188324
  C      -0.708906     -0.083114     -0.656237
  C       0.573898     -0.247854      0.137843
  H      -0.623899      0.792453     -1.304089
  H      -0.851925     -0.953045     -1.301015
  H       0.510012     -1.142121      0.765661
  H       0.725962      0.622120      0.784102
  H      -1.989442     -0.729927      0.799708
  H      -1.778036      0.881034      0.794153
  H       2.479752     -0.473368     -0.264546
  O      -5.022178     -0.603351     -0.959100
  C      -4.349747     -0.155681     -1.790230
  O      -3.688867      0.290071     -2.631468
14
Coordinates from ORCA-job ./orca E -398.986507592089
  O       1.673712     -0.370922     -0.787307
  N      -1.889493      0.077443      0.202234
  C      -0.705961     -0.082851     -0.647598
  C       0.581489     -0.248286      0.139189
  H      -0.622092      0.792677     -1.295870
  H      -0.853639     -0.952512     -1.291843
  H       0.520589     -1.143494      0.766404
  H       0.734103      0.620707      0.787125
  H      -1.978287     -0.727464      0.815071
  H      -1.763421      0.881775      0.809107
  H       2.485247     -0.472544     -0.275163
  O      -5.054545     -0.599284     -0.983817
  C      -4.371744     -0.157917     -1.809918
  O      -3.702940      0.281358     -2.648294
14
Coordinates from ORCA-job ./orca E -398.986580621832
  O       1.677340     -0.367830     -0.792227
  N      -1.879407      0.080527      0.222390
  C      -0.701889     -0.081716     -0.636603
  C       0.591500     -0.248471      0.141027
  H      -0.620405      0.794064     -1.285261
  H      -0.855809     -0.950865     -1.280413
  H       0.534033     -1.144519      0.767767
  H       0.745246      0.619142      0.791027
  H      -1.961065     -0.724485      0.836751
  H      -1.742273      0.882485      0.830905
  H       2.493569     -0.473274     -0.287873
  O      -5.099215     -0.594270     -1.017278
  C      -4.405369     -0.161468     -1.839174
  O      -3.723238      0.269367     -2.671718
14
Coordinates from ORCA-job ./orca E -398.986600537055
  O       1.679957     -0.367041     -0.795745
  N      -1.872118      0.082466      0.236635
  C      -0.699252     -0.079919     -0.629466
  C       0.597892     -0.247951      0.142121
  H      -0.620194      0.796282     -1.278002
  H      -0.856838     -0.948548     -1.273227
  H       0.542137     -1.143871      0.769283
  H       0.753607      0.619039      0.792664
  H      -1.948237     -0.723067      0.851390
  H      -1.727859      0.882459      0.846473
  H       2.498420     -0.476364     -0.295642
  O      -5.128590     -0.592061     -1.039979
  C      -4.428725     -0.164320     -1.859745
  O      -3.737183      0.261583     -2.687441
14
Coordinates from ORCA-job ./orca E -398.986599784975
  O       1.680614     -0.367984     -0.797851
  N      -1.868658      0.083242      0.243909
  C      -0.698208     -0.078112     -0.625849
  C       0.600798     -0.247114      0.142472
  H      -0.620950      0.798526     -1.273963
  H      -0.856921     -0.946382     -1.269822
  H       0.545335     -1.142332      0.770636
  H       0.758813      0.619978      0.792378
  H      -1.941775     -0.722919      0.858326
  H      -1.721580      0.882147      0.854578
  H       2.499834     -0.480270     -0.299631
  O      -5.141667     -0.592238     -1.051272
  C      -4.439133     -0.166132     -1.869722
  O      -3.743484      0.258275     -2.694869
14
Coordinates from ORCA-job ./orca E -398.986604300551
  O       1.680246     -0.370011     -0.799690
  N      -1.866890      0.083583      0.248647
  C      -0.697923     -0.076071     -0.623383
  C       0.602374     -0.246060      0.142504
  H      -0.622342      0.801111     -1.270878
  H      -0.856681     -0.944024     -1.267788
  H       0.546497     -1.140233      0.772087
  H       0.763251      0.621517      0.791101
  H      -1.938034     -0.723298      0.862362
  H      -1.718944      0.881819      0.859966
  H       2.499798     -0.485040     -0.302660
  O      -5.147936     -0.593784     -1.058302
  C      -4.443972     -0.167670     -1.875565
  O      -3.746423      0.256847     -2.699082
14
Coordinates from ORCA-job ./orca E -398.986607677459
  O       1.678625     -0.373990     -0.802340
  N      -1.865926      0.083774      0.253463
  C      -0.698302     -0.072933     -0.620652
  C       0.603489     -0.244427      0.142289
  H      -0.625021      0.805159     -1.267064
  H      -0.856345     -0.940394     -1.265942
  H       0.546418     -1.136806      0.774263
  H       0.769102      0.624148      0.788397
  H      -1.935183     -0.724170      0.865928
  H      -1.718510      0.881506      0.865498
  H       2.498503     -0.492558     -0.306702
  O      -5.150700     -0.597305     -1.064843
  C      -4.445786     -0.169743     -1.880540
  O      -3.747344      0.256425     -2.702436
14
Coordinates from ORCA-job ./orca E -398.986621472888
  O       1.676255     -0.377993     -0.804706
  N      -1.866467      0.083850      0.256000
  C      -0.699376     -0.070357     -0.618911
  C       0.603457     -0.243219      0.141905
  H      -0.627759      0.808559     -1.264321
  H      -0.856565     -0.937313     -1.265159
  H       0.545057     -1.134036      0.775934
  H       0.773351      0.626280      0.785667
  H      -1.935029     -0.724836      0.867449
  H      -1.720855      0.881637      0.868303
  H       2.496532     -0.498641     -0.310239
  O      -5.147644     -0.601175     -1.067431
  C      -4.442886     -0.171340     -1.882033
  O      -3.745051      0.257270     -2.703137
14
Coordinates from ORCA-job ./orca E -398.986614418882
  O       1.673245     -0.381806     -0.807088
  N      -1.867934      0.084075      0.257432
  C      -0.701033     -0.068357     -0.617633
  C       0.602663     -0.242573      0.141406
  H      -0.630475      0.811288     -1.262149
  H      -0.857826     -0.934699     -1.264880
  H       0.543071     -1.132183      0.777016
  H       0.776347      0.627630      0.783190
  H      -1.936553     -0.724958      0.868298
  H      -1.724686      0.882359      0.869551
  H       2.494252     -0.502989     -0.313956
  O      -5.140781     -0.605140     -1.067779
  C      -4.436893     -0.172666     -1.881675
  O      -3.740380      0.258705     -2.702415
14
Coordinates from ORCA-job ./orca E -398.986620206220
  O       1.670493     -0.384119     -0.809111
  N      -1.869477      0.084661      0.258358
  C      -0.702829     -0.067490     -0.616772
  C       0.601536     -0.242882      0.140888
  H      -0.632476      0.812574     -1.260769
  H      -0.860294     -0.933227     -1.264734
  H       0.541466     -1.132158      0.776948
  H       0.777461      0.627414      0.781896
  H      -1.938542     -0.724122      0.869418
  H      -1.727897      0.883724      0.869781
  H       2.492497     -0.503977     -0.317292
  O      -5.133368     -0.607856     -1.067053
  C      -4.430456     -0.173580     -1.880785
  O      -3.735096      0.259724     -2.701452
14
Coordinates from ORCA-job ./orca E -398.986621613639
  O       1.664671     -0.388007     -0.813833
  N      -1.871876      0.086719      0.262205
  C      -0.706826     -0.066118     -0.614387
  C       0.599273     -0.244383      0.139657
  H      -0.636523      0.814700     -1.257446
  H      -0.867416     -0.930385     -1.263666
  H       0.538957     -1.133697      0.775719
  H       0.779197      0.625440      0.780136
  H      -1.941182     -0.721061      0.874463
  H      -1.732119      0.887494      0.871710
  H       2.489192     -0.503837     -0.325230
  O      -5.119700     -0.612993     -1.067670
  C      -4.418315     -0.175744     -1.881070
  O      -3.724315      0.260560     -2.701268
14
Coordinates from ORCA-job ./orca E -398.986623603373
  O       1.659117     -0.390526     -0.819036
  N      -1.872934      0.089744      0.268723
  C      -0.710960     -0.065102     -0.611280
  C       0.597283     -0.246720      0.138211
  H      -0.640492      0.816348     -1.253526
  H      -0.876505     -0.927744     -1.261566
  H       0.537624     -1.136948      0.773143
  H       0.780418      0.621819      0.779478
  H      -1.941268     -0.716584      0.882965
  H      -1.732516      0.892154      0.875884
  H       2.486358     -0.501641     -0.333895
  O      -5.109670     -0.617223     -1.071532
  C      -4.408734     -0.178423     -1.884475
  O      -3.714702      0.259533     -2.703774
14
Coordinates from ORCA-job ./orca E -398.986634261609
  O       1.654144     -0.391069     -0.824289
  N      -1.872762      0.093786      0.277298
  C      -0.715290     -0.064542     -0.608044
  C       0.595219     -0.249910      0.136416
  H      -0.644240      0.817322     -1.249686
  H      -0.887345     -0.925615     -1.258736
  H       0.537121     -1.142154      0.768731
  H       0.780225      0.616382      0.780167
  H      -1.938734     -0.710691      0.894282
  H      -1.728649      0.897606      0.881717
  H       2.483793     -0.497273     -0.342160
  O      -5.102859     -0.620444     -1.077750
  C      -4.401391     -0.181374     -1.890144
  O      -3.706213      0.256661     -2.708482
14
Coordinates from ORCA-job ./orca E -398.986639731586
  O       1.650093     -0.390175     -0.828806
  N      -1.872097      0.097971      0.285780
  C      -0.719439     -0.063866     -0.605525
  C       0.592980     -0.252849      0.134439
  H      -0.647809      0.818274     -1.246669
  H      -0.897428     -0.923855     -1.256002
  H       0.536539     -1.147504      0.763521
  H       0.778937      0.610856      0.781403
  H      -1.934655     -0.704927      0.905277
  H      -1.722365      0.902591      0.887784
  H       2.481090     -0.493604     -0.348419
  O      -5.098112     -0.623038     -1.084114
  C      -4.395568     -0.184335     -1.895854
  O      -3.699149      0.253149     -2.713496
14
Coordinates from ORCA-job ./orca E -398.986644427227
  O       1.645749     -0.389644     -0.833315
  N      -1.871788      0.101951      0.294005
  C      -0.723757     -0.062146     -0.603274
  C       0.590479     -0.254728      0.132394
  H      -0.652194      0.820459     -1.243667
  H      -0.906241     -0.921372     -1.253461
  H       0.535061     -1.151319      0.758793
  H       0.778246      0.606724      0.781884
  H      -1.930228     -0.700057      0.915146
  H      -1.716061      0.906755      0.894325
  H       2.477425     -0.493639     -0.354239
  O      -5.092689     -0.626661     -1.090313
  C      -4.389079     -0.187630     -1.901000
  O      -3.691905      0.249996     -2.717960
14
Coordinates from ORCA-job ./orca E -398.986649950655
  O       1.637507     -0.390993     -0.840963
  N      -1.872516      0.107466      0.306073
  C      -0.730850     -0.058132     -0.599542
  C       0.586331     -0.256139      0.129374
  H      -0.660427      0.825619     -1.238298
  H      -0.918658     -0.916050     -1.249915
  H       0.531372     -1.154425      0.753350
  H       0.779173      0.602882      0.780649
  H      -1.924955     -0.693976      0.928578
  H      -1.709299      0.912170      0.904731
  H       2.470362     -0.498793     -0.364773
  O      -5.080487     -0.634443     -1.098990
  C      -4.375978     -0.193145     -1.907673
  O      -3.678556      0.246645     -2.723280
14
Coordinates from ORCA-job ./orca E -398.986653409048
  O       1.629706     -0.393109     -0.847564
  N      -1.874359      0.111440      0.314861
  C      -0.736946     -0.054108     -0.596457
  C       0.582660     -0.256063      0.127058
  H      -0.668049      0.830720     -1.233754
  H      -0.927844     -0.911017     -1.247240
  H       0.527459     -1.154814      0.750291
  H       0.780868      0.601794      0.778255
  H      -1.922511     -0.690232      0.937455
  H      -1.706149      0.915501      0.913091
  H       2.463560     -0.506814     -0.374488
  O      -5.067210     -0.642066     -1.104720
  C      -4.362589     -0.197695     -1.911589
  O      -3.665579      0.245150     -2.725879
14
Coordinates from ORCA-job ./orca E -398.986657561826
  O       1.621356     -0.395361     -0.854194
  N      -1.877298      0.114767      0.322246
  C      -0.742971     -0.049929     -0.593371
  C       0.579035     -0.254751      0.125065
  H      -0.676002      0.835861     -1.229463
  H      -0.935929     -0.906038     -1.244584
  H       0.523526     -1.153140      0.748722
  H       0.783037      0.602837      0.774800
  H      -1.922314     -0.687904      0.943808
  H      -1.704876      0.917392      0.921268
  H       2.456190     -0.517888     -0.385047
  O      -5.052006     -0.649936     -1.109115
  C      -4.347621     -0.201909     -1.914100
  O      -3.651109      0.244686     -2.726715
14
Coordinates from ORCA-job ./orca E -398.986663715891
  O       1.607425     -0.398431     -0.865218
  N      -1.881964      0.120378      0.334373
  C      -0.752935     -0.044339     -0.588171
  C       0.573043     -0.253221      0.121770
  H      -0.688694      0.842648     -1.222853
  H      -0.950852     -0.898823     -1.240066
  H       0.518110     -1.151143      0.746064
  H       0.785569      0.604007      0.769217
  H      -1.923404     -0.683657      0.954525
  H      -1.702804      0.920709      0.934820
  H       2.444283     -0.533239     -0.403090
  O      -5.026380     -0.661790     -1.116034
  C      -4.322382     -0.208284     -1.918203
  O      -3.625998      0.243873     -2.727811
14
Coordinates from ORCA-job ./orca E -398.986669197649
  O       1.592889     -0.400818     -0.876971
  N      -1.886108      0.126583      0.347917
  C      -0.763419     -0.039492     -0.582437
  C       0.566860     -0.252020      0.118149
  H      -0.701869      0.848276     -1.216352
  H      -0.968184     -0.892142     -1.234629
  H       0.513738     -1.149507      0.743152
  H       0.787284      0.604922      0.763317
  H      -1.925089     -0.678914      0.966447
  H      -1.699190      0.924017      0.950158
  H       2.431966     -0.547092     -0.422429
  O      -5.000575     -0.673027     -1.124278
  C      -4.296308     -0.214605     -1.923363
  O      -3.598975      0.242507     -2.729362
14
Coordinates from ORCA-job ./orca E -398.986675968421
  O       1.580225     -0.401752     -0.887666
  N      -1.889246      0.132159      0.360423
  C      -0.772546     -0.036044     -0.576857
  C       0.561847     -0.250359      0.114902
  H      -0.713654      0.851594     -1.211343
  H      -0.984421     -0.887483     -1.228293
  H       0.511890     -1.146941      0.741374
  H       0.788299      0.607061      0.757357
  H      -1.928503     -0.675650      0.975954
  H      -1.694438      0.925479      0.965559
  H       2.421046     -0.559270     -0.440226
  O      -4.979650     -0.681496     -1.132869
  C      -4.273819     -0.219600     -1.928571
  O      -3.574012      0.240989     -2.730425
14
Coordinates from ORCA-job ./orca E -398.986688330515
  O       1.573905     -0.399647     -0.894331
  N      -1.890135      0.135483      0.368297
  C      -0.777167     -0.035774     -0.572528
  C       0.560369     -0.248023      0.113126
  H      -0.720388      0.849975     -1.210066
  H      -0.994572     -0.887852     -1.221156
  H       0.515418     -1.143102      0.742010
  H       0.788357      0.611167      0.752762
  H      -1.935295     -0.675957      0.978484
  H      -1.688674      0.923283      0.977843
  H       2.415424     -0.566153     -0.451604
  O      -4.972904     -0.682965     -1.140514
  C      -4.263048     -0.221125     -1.932745
  O      -3.558271      0.239377     -2.730258
14
Coordinates from ORCA-job ./orca E -398.986700383508
  O       1.569049     -0.396593     -0.900615
  N      -1.889222      0.139716      0.377337
  C      -0.781297     -0.036386     -0.568314
  C       0.559439     -0.246988      0.111076
  H      -0.726266      0.846979     -1.209421
  H      -1.004844     -0.889639     -1.213270
  H       0.519999     -1.141666      0.740804
  H       0.787815      0.613007      0.749676
  H      -1.941518     -0.675123      0.982367
  H      -1.679786      0.922351      0.991050
  H       2.411341     -0.567825     -0.461229
  O      -4.971272     -0.682639     -1.150232
  C      -4.255656     -0.222532     -1.938337
  O      -3.544764      0.236026     -2.731572
14
Coordinates from ORCA-job ./orca E -398.986694389265
  O       1.566506     -0.394810     -0.904753
  N      -1.888146      0.143207      0.383128
  C      -0.783870     -0.036811     -0.565646
  C       0.559062     -0.247102      0.109459
  H      -0.729726      0.844655     -1.209431
  H      -1.010661     -0.891627     -1.207315
  H       0.522779     -1.142281      0.738644
  H       0.787782      0.612577      0.748465
  H      -1.946981     -0.673860      0.984376
  H      -1.673479      0.922483      0.999248
  H       2.409523     -0.565577     -0.466542
  O      -4.972002     -0.681853     -1.156807
  C      -4.251473     -0.223464     -1.941490
  O      -3.536297      0.233150     -2.732016
14
Coordinates from ORCA-job ./orca E -398.986706327724
  O       1.561533     -0.395865     -0.910028
  N      -1.887590      0.147545      0.390361
  C      -0.787705     -0.035227     -0.562636
  C       0.557505     -0.247927      0.107583
  H      -0.734475      0.845508     -1.207414
  H      -1.017109     -0.890819     -1.202294
  H       0.521994     -1.144123      0.735408
  H       0.789562      0.610404      0.747215
  H      -1.949899     -0.670849      0.989317
  H      -1.668239      0.924745      1.007661
  H       2.406066     -0.564223     -0.473742
  O      -4.968322     -0.684609     -1.163834
  C      -4.244131     -0.226180     -1.945102
  O      -3.526171      0.230305     -2.733174
14
Coordinates from ORCA-job ./orca E -398.986710253561
  O       1.555603     -0.399244     -0.915315
  N      -1.887757      0.151606      0.396962
  C      -0.791433     -0.032380     -0.559448
  C       0.555813     -0.248800      0.106123
  H      -0.738876      0.848385     -1.204141
  H      -1.022283     -0.888283     -1.198057
  H       0.519189     -1.145766      0.732855
  H       0.793220      0.608037      0.745687
  H      -1.951845     -0.667704      0.994335
  H      -1.665123      0.927382      1.014712
  H       2.402285     -0.563873     -0.481763
  O      -4.963000     -0.689287     -1.170244
  C      -4.236276     -0.229562     -1.948376
  O      -3.516500      0.228174     -2.734011
14
Coordinates from ORCA-job ./orca E -398.986713250185
  O       1.548797     -0.403126     -0.920575
  N      -1.888425      0.155207      0.403796
  C      -0.795339     -0.029222     -0.556152
  C       0.553705     -0.249413      0.104917
  H      -0.743341      0.852187     -1.199955
  H      -1.028539     -0.884316     -1.194956
  H       0.515901     -1.146581      0.731336
  H       0.796833      0.606425      0.743549
  H      -1.951611     -0.664636      1.000548
  H      -1.662562      0.929900      1.021855
  H       2.397711     -0.565916     -0.490758
  O      -4.955632     -0.695132     -1.176532
  C      -4.227768     -0.233290     -1.952294
  O      -3.506712      0.226600     -2.735458
14
Coordinates from ORCA-job ./orca E -398.986716800858
  O       1.538443     -0.410458     -0.928548
  N      -1.889562      0.160549      0.413856
  C      -0.800465     -0.024187     -0.550337
  C       0.551258     -0.250525      0.103566
  H      -0.748693      0.858349     -1.192563
  H      -1.037538     -0.877679     -1.189745
  H       0.511468     -1.147378      0.730380
  H       0.803910      0.604149      0.739826
  H      -1.951713     -0.660198      1.009468
  H      -1.659214      0.933325      1.032284
  H       2.391487     -0.568181     -0.505210
  O      -4.946603     -0.704269     -1.187107
  C      -4.216722     -0.239109     -1.958981
  O      -3.493039      0.224297     -2.737569
14
Coordinates from ORCA-job ./orca E -398.986722842610
  O       1.523606     -0.415501     -0.940585
  N      -1.891185      0.168358      0.429746
  C      -0.809722     -0.019132     -0.542989
  C       0.546099     -0.251255      0.100024
  H      -0.759330      0.864242     -1.184193
  H      -1.055670     -0.869834     -1.182813
  H       0.507838     -1.147750      0.727436
  H       0.807857      0.602490      0.733815
  H      -1.951527     -0.653970      1.023568
  H      -1.652133      0.937657      1.050210
  H       2.380089     -0.575438     -0.525170
  O      -4.928261     -0.715560     -1.200875
  C      -4.195888     -0.246461     -1.967912
  O      -3.468755      0.220841     -2.740943
14
Coordinates from ORCA-job ./orca E -398.986714487363
  O       1.526827     -0.417341     -0.938053
  N      -1.890072      0.166966      0.427013
  C      -0.806332     -0.019403     -0.543055
  C       0.548570     -0.251988      0.101641
  H      -0.754600      0.864403     -1.183590
  H      -1.051251     -0.869901     -1.183518
  H       0.509274     -1.148013      0.729722
  H       0.810351      0.602045      0.735003
  H      -1.950730     -0.654876      1.021377
  H      -1.652995      0.937044      1.046214
  H       2.384047     -0.571237     -0.521913
  O      -4.937787     -0.714130     -1.201401
  C      -4.204978     -0.245829     -1.968628
  O      -3.477307      0.220946     -2.741492
14
Coordinates from ORCA-job ./orca E -398.986721112257
  O       1.529432     -0.416375     -0.936310
  N      -1.889398      0.166105      0.425161
  C      -0.804709     -0.020258     -0.543922
  C       0.549528     -0.252196      0.102091
  H      -0.752422      0.863610     -1.184329
  H      -1.049600     -0.870612     -1.184618
  H       0.510808     -1.148224      0.730189
  H       0.809506      0.602054      0.735969
  H      -1.950213     -0.655512      1.019811
  H      -1.653005      0.936652      1.043988
  H       2.385952     -0.569961     -0.518598
  O      -4.942038     -0.712599     -1.200458
  C      -4.209188     -0.244993     -1.968091
  O      -3.481634      0.220995     -2.741563
14
Coordinates from ORCA-job ./orca E -398.986720526010
  O       1.528843     -0.416621     -0.937335
  N      -1.889269      0.167180      0.426581
  C      -0.805009     -0.019603     -0.543082
  C       0.549448     -0.252572      0.101712
  H      -0.752268      0.864721     -1.182821
  H      -1.051547     -0.869106     -1.184293
  H       0.511473     -1.148656      0.729742
  H       0.809843      0.601457      0.735772
  H      -1.949986     -0.654606      1.021008
  H      -1.651977      0.937518      1.045447
  H       2.385242     -0.571003     -0.519644
  O      -4.942271     -0.714145     -1.202489
  C      -4.208770     -0.246103     -1.969241
  O      -3.480735      0.220226     -2.742036
14
Coordinates from ORCA-job ./orca E -398.986720907826
  O       1.528130     -0.416726     -0.938203
  N      -1.889193      0.168115      0.427729
  C      -0.805330     -0.018788     -0.542428
  C       0.549332     -0.252723      0.101465
  H      -0.752311      0.865993     -1.181519
  H      -1.052681     -0.867674     -1.184157
  H       0.511544     -1.149055      0.729145
  H       0.810348      0.600914      0.735825
  H      -1.949713     -0.653770      1.022053
  H      -1.651473      0.938377      1.046641
  H       2.384387     -0.572605     -0.520764
  O      -4.942015     -0.715726     -1.203997
  C      -4.208137     -0.247225     -1.970095
  O      -3.479871      0.219579     -2.742375
14
Coordinates from ORCA-job ./orca E -398.986721743046
  O       1.527145     -0.416334     -0.939435
  N      -1.889058      0.169862      0.429213
  C      -0.805679     -0.017000     -0.541504
  C       0.549195     -0.252907      0.101183
  H      -0.751937      0.868769     -1.179181
  H      -1.053970     -0.864710     -1.184423
  H       0.511347     -1.150084      0.727643
  H       0.811263      0.599652      0.736593
  H      -1.949224     -0.652092      1.023498
  H      -1.651177      0.940204      1.048106
  H       2.382830     -0.576550     -0.522444
  O      -4.941551     -0.719000     -1.206087
  C      -4.207293     -0.249470     -1.971169
  O      -3.478874      0.218347     -2.742675
14
Coordinates from ORCA-job ./orca E -398.986718929676
  O       1.525223     -0.415503     -0.941489
  N      -1.888864      0.172924      0.431697
  C      -0.806353     -0.013822     -0.539882
  C       0.548894     -0.253217      0.100859
  H      -0.751319      0.873439     -1.175403
  H      -1.056083     -0.859691     -1.184638
  H       0.510551     -1.151985      0.724987
  H       0.813013      0.597344      0.738107
  H      -1.948668     -0.649109      1.025928
  H      -1.650796      0.943279      1.050550
  H       2.380155     -0.583201     -0.525904
  O      -4.940355     -0.724637     -1.209480
  C      -4.205606     -0.253354     -1.972986
  O      -3.476777      0.216219     -2.743025
14
Coordinates from ORCA-job ./orca E -398.986717365164
  O       1.526950     -0.413988     -0.939959
  N      -1.888569      0.172597      0.429739
  C      -0.805340     -0.013933     -0.540937
  C       0.549275     -0.253315      0.101326
  H      -0.749691      0.873366     -1.176348
  H      -1.054239     -0.859857     -1.185932
  H       0.510422     -1.152800      0.724375
  H       0.812251      0.596719      0.739737
  H      -1.948682     -0.649150      1.024322
  H      -1.651577      0.943421      1.048312
  H       2.381240     -0.583293     -0.523714
  O      -4.941978     -0.724101     -1.207535
  C      -4.207715     -0.253142     -1.971715
  O      -3.479330      0.216163     -2.742350
14
Coordinates from ORCA-job ./orca E -398.986723557161
  O       1.529481     -0.411358     -0.937599
  N      -1.888176      0.173091      0.426530
  C      -0.803758     -0.013307     -0.542517
  C       0.549688     -0.254014      0.102095
  H      -0.746322      0.874142     -1.177537
  H      -1.051808     -0.858969     -1.188129
  H       0.509366     -1.155295      0.722421
  H       0.811258      0.594377      0.743213
  H      -1.949311     -0.648215      1.021567
  H      -1.652764      0.944471      1.044690
  H       2.382952     -0.583468     -0.520876
  O      -4.944167     -0.724415     -1.204367
  C      -4.210697     -0.253695     -1.969492
  O      -3.482725      0.215343     -2.740678
14
Coordinates from ORCA-job ./orca E -398.986725680854
  O       1.529299     -0.411247     -0.937653
  N      -1.888069      0.173943      0.426606
  C      -0.803742     -0.012594     -0.542461
  C       0.549565     -0.254331      0.102108
  H      -0.745796      0.874930     -1.177330
  H      -1.052274     -0.857951     -1.188302
  H       0.508745     -1.156036      0.721778
  H       0.811452      0.593513      0.743826
  H      -1.949734     -0.647558      1.021300
  H      -1.652371      0.944953      1.045058
  H       2.382870     -0.583761     -0.521320
  O      -4.944162     -0.725304     -1.204536
  C      -4.210537     -0.254515     -1.969479
  O      -3.482227      0.214645     -2.740275
14
Coordinates from ORCA-job ./orca E -398.986725074449
  O       1.528690     -0.410782     -0.937728
  N      -1.887535      0.178967      0.426529
  C      -0.803483     -0.008090     -0.542662
  C       0.548718     -0.255988      0.101911
  H      -0.742622      0.880339     -1.175987
  H      -1.054826     -0.851219     -1.190412
  H       0.505008     -1.160046      0.717923
  H       0.812102      0.588662      0.747287
  H      -1.951902     -0.643953      1.018912
  H      -1.650070      0.947660      1.047105
  H       2.382057     -0.586861     -0.522524
  O      -4.943889     -0.731037     -1.204856
  C      -4.209490     -0.259485     -1.968618
  O      -3.479740      0.210520     -2.737561
14
Coordinates from ORCA-job ./orca E -398.986730214323
  O       1.529243     -0.411562     -0.936801
  N      -1.887145      0.182337      0.424996
  C      -0.802549     -0.004505     -0.543775
  C       0.548198     -0.257191      0.101803
  H      -0.739437      0.885037     -1.175280
  H      -1.055506     -0.845606     -1.193604
  H       0.501589     -1.162610      0.715593
  H       0.812500      0.585253      0.749726
  H      -1.953415     -0.641985      1.015228
  H      -1.648586      0.949031      1.047671
  H       2.382105     -0.588829     -0.521048
  O      -4.944562     -0.735194     -1.203627
  C      -4.209825     -0.263070     -1.966728
  O      -3.479592      0.207581     -2.734833
14
Coordinates from ORCA-job ./orca E -398.986730884771
  O       1.530130     -0.415206     -0.935164
  N      -1.886298      0.189395      0.422053
  C      -0.800474      0.003656     -0.546046
  C       0.547151     -0.259497      0.101384
  H      -0.732845      0.896465     -1.172404
  H      -1.056462     -0.832475     -1.201168
  H       0.493878     -1.167174      0.711336
  H       0.814427      0.578548      0.753815
  H      -1.955861     -0.638083      1.007526
  H      -1.645354      0.951681      1.049431
  H       2.381696     -0.593896     -0.517321
  O      -4.946248     -0.744995     -1.201690
  C      -4.210749     -0.271095     -1.962967
  O      -3.479973      0.201362     -2.729465
14
Coordinates from ORCA-job ./orca E -398.986733171627
  O       1.532520     -0.418494     -0.932246
  N      -1.885770      0.193187      0.417131
  C      -0.797944      0.008930     -0.549388
  C       0.546592     -0.260883      0.101344
  H      -0.726858      0.904628     -1.171183
  H      -1.054571     -0.823452     -1.209005
  H       0.487828     -1.169735      0.709103
  H       0.815157      0.574496      0.756602
  H      -1.957950     -0.636639      0.999029
  H      -1.644070      0.952306      1.048168
  H       2.382454     -0.596644     -0.510796
  O      -4.948329     -0.750890     -1.197131
  C      -4.212984     -0.275835     -1.957831
  O      -3.483057      0.197711     -2.724478
14
Coordinates from ORCA-job ./orca E -398.986722042906
  O       1.533417     -0.421273     -0.931012
  N      -1.885798      0.196962      0.413890
  C      -0.796456      0.013476     -0.551160
  C       0.546090     -0.262110      0.101194
  H      -0.721968      0.911795     -1.168772
  H      -1.053475     -0.815663     -1.214556
  H       0.483048     -1.172090      0.706879
  H       0.816630      0.570869      0.758567
  H      -1.960824     -0.634645      0.992885
  H      -1.643484      0.953437      1.047820
  H       2.382288     -0.599573     -0.507466
  O      -4.948938     -0.756581     -1.194335
  C      -4.213476     -0.280287     -1.954126
  O      -3.484037      0.194371     -2.720488
14
Coordinates from ORCA-job ./orca E -398.986738117000
  O       1.537093     -0.422098     -0.927000
  N      -1.885174      0.200927      0.407153
  C      -0.793101      0.018625     -0.554995
  C       0.545987     -0.263513      0.101802
  H      -0.713362      0.920108     -1.167390
  H      -1.049733     -0.806482     -1.223441
  H       0.477454     -1.175661      0.703660
  H       0.816829      0.566160      0.763117
  H      -1.964380     -0.632636      0.982802
  H      -1.643041      0.954327      1.044748
  H       2.383631     -0.603572     -0.500128
  O      -4.952377     -0.762483     -1.188152
  C      -4.217605     -0.285244     -1.948011
  O      -3.489204      0.190230     -2.714848
