14
Coordinates from ORCA-job ./scants E -399.092606569584
  O           1.40144134596003     -0.28839664456546      0.51250949201488
  N          -2.02104511938518      0.30648571454217     -0.65096670714044
  C          -0.67735246054354      0.63077010313054     -0.17764831575579
  C           0.09642132315973     -0.64473193807256      0.07429208222148
  H          -0.76702722110422      1.18240254567490      0.75803497512630
  H          -0.10936747522428      1.25647436210219     -0.87469744925676
  H           0.15041509179384     -1.23311180877526     -0.84673836090392
  H          -0.41680177370034     -1.24347356261096      0.83051471751321
  H          -1.97305637723089     -0.06073634983899     -1.59303326282631
  H          -2.57470363786082      1.15044081749793     -0.70838860977638
  H           1.89471824818276     -1.09526781341523      0.67830135860552
  O          -3.93834086191864     -2.10499980928140      1.47005285452939
  C          -4.62935172322147     -1.48326884603644      0.78430246198732
  O          -5.33063464950686     -0.86812888455141      0.10317038626150
