14
Coordinates from ORCA-job ./scants E -399.092223321271
  O           1.78011913288166      0.14397661445490      0.02223802005107
  N          -1.87025423943199     -0.15399634837137     -0.07517142288356
  C          -0.56543720333319      0.50406315701079     -0.04861413291085
  C           0.53111048816144     -0.53577786370360      0.02646561149747
  H          -0.51805741913643      1.13493525443400      0.83883310383604
  H          -0.38401884381827      1.14570799466882     -0.91752793418032
  H           0.46053634622634     -1.21156204246065     -0.83125634246854
  H           0.41474163319748     -1.12898222884234      0.93662527705661
  H          -2.01046373929721     -0.59721458986284     -0.97447949801475
  H          -2.60084753894117      0.54022211485296      0.00747450934925
  H           2.48097066672652     -0.51057761677438      0.06861013995638
  O          -5.10227209498555     -1.91323676875419      1.29436089894598
  C          -5.53719118435772     -1.27541642796975      0.43538933823906
  O          -5.97362129449190     -0.63768336288233     -0.42324194587385
