14
Coordinates from ORCA-job ./scants E -399.092473589810
  O           1.32023624055732     -0.30127412789380      0.52133779316676
  N          -2.12291585204794      0.23113007551753     -0.61040645021016
  C          -0.78871046831486      0.57548416052188     -0.12572585824531
  C           0.02422072562718     -0.68410743841917      0.07928569685413
  H          -0.89236129671528      1.09035037303909      0.82937104328822
  H          -0.23935896818967      1.24124083918199     -0.80038363931298
  H           0.09002933567997     -1.23907720061113     -0.86153638905007
  H          -0.46363112446800     -1.32328872087552      0.81851264967108
  H          -2.06132744726377     -0.13380462750161     -1.55268576257855
  H          -2.69005935628424      1.06588032546076     -0.67036488464232
  H           1.83825114141233     -1.09745161973818      0.66133632110163
  O          -3.60004967192668     -1.83527709248455      1.43935597044659
  C          -4.28670585406068     -1.29716141638652      0.68161477251813
  O          -5.02230269460551     -0.78818564401073     -0.05000564040718
