14
Coordinates from ORCA-job ./scants E -399.089961868654
  O           1.15268260787450     -0.45282884924606      0.57208815487726
  N          -2.23462113753123      0.28077278112887     -0.60781942304276
  C          -0.92200514577060      0.53082825678628     -0.01848322621610
  C          -0.11542621892676     -0.74903345484163      0.00304066228643
  H          -1.06712567731947      0.87980730158331      1.00368074087771
  H          -0.35229950962288      1.29755880049379     -0.55281215161678
  H           0.00157072856447     -1.12954314098707     -1.01620253810577
  H          -0.63638979192124     -1.50696745951281      0.59220530513742
  H          -2.13365942613078     -0.02514944029987     -1.56795686859972
  H          -2.76258699932554      1.14331771028845     -0.64240904509556
  H           1.66592376454583     -1.26365466525438      0.60320450290127
  O          -3.36540207254410     -0.86161153422461      1.67632959453624
  C          -3.77664063266256     -1.12264157941226      0.62266813610362
  O          -4.34870577982939     -1.51639684070195     -0.30782822144328
