14
Coordinates from ORCA-job ./scants E -399.088436014881
  O           1.09824648438244     -0.44362159612910      0.61201427628634
  N          -2.30596004264854      0.20760057409773     -0.56027538969596
  C          -0.99703817446639      0.46797879717922      0.04319334459106
  C          -0.13533914291999     -0.77453670014345     -0.00309901554661
  H          -1.16424834966200      0.76725558603170      1.07532787994901
  H          -0.49596846764995      1.28327972657938     -0.47836771387265
  H           0.01862350221726     -1.08049692690954     -1.04178937453199
  H          -0.62684459225148     -1.59296545615586      0.52721461745072
  H          -2.22562364546718     -0.23427183805855     -1.46912906345573
  H          -2.81427766962602      1.07366505342198     -0.69751187273317
  H           1.65774634017528     -1.22414869104961      0.60463111006100
  O          -3.15543081984182     -0.75964726736965      1.60124572470543
  C          -3.49058556168160     -0.85904628491034      0.46390937568549
  O          -4.25798515115968     -1.32658709078383     -0.31765827629295
