14
Coordinates from ORCA-job ./scants E -399.092203254758
  O           1.80946147706618      0.15250431657729      0.00344281612116
  N          -1.84130791527430     -0.14926006760617     -0.05056208239657
  C          -0.53701703691682      0.50970455931043     -0.04191317672194
  C           0.56140684107105     -0.52913297048935      0.01995092252960
  H          -0.47805858687570      1.14118087592956      0.84447378150366
  H          -0.36641790503897      1.15075164590298     -0.91353651530613
  H           0.48289371379231     -1.20360092944002     -0.83809085217766
  H           0.45567153204632     -1.12367535221846      0.93050504050920
  H          -1.98746755973699     -0.60576289152830     -0.94218840903784
  H          -2.57215326095251      0.54497723630950      0.02904222624947
  H           2.51155330060741     -0.50133537385929      0.04064239797434
  O          -5.20124944481739     -1.89669445719320      1.30601620143386
  C          -5.64426431485766     -1.29403412218304      0.42589915450666
  O          -6.08773613071292     -0.69116458371194     -0.45397588258783
