14
Coordinates from ORCA-job ./scants E -399.083610515089
  O       1.837810      0.166592     -0.040029
  N      -1.863129     -0.161172     -0.018711
  C      -0.554086      0.489671     -0.001375
  C       0.592901     -0.522550      0.007381
  H      -0.477324      1.131917      0.883289
  H      -0.458693      1.151478     -0.869963
  H       0.535435     -1.184274     -0.863294
  H       0.565482     -1.131382      0.917278
  H      -1.980366     -0.664650     -0.897142
  H      -2.588630      0.556552     -0.011056
  H       2.534007     -0.509675      0.023486
  O      -5.235123     -1.848922      1.360467
  C      -5.681407     -1.273290      0.410174
  O      -6.121561     -0.695839     -0.540798
14
Coordinates from ORCA-job ./scants E -399.091809712439
  O       1.816459      0.162891     -0.020499
  N      -1.847958     -0.153303     -0.025582
  C      -0.540549      0.500893     -0.015415
  C       0.568644     -0.526863      0.003966
  H      -0.463102      1.128604      0.872904
  H      -0.407786      1.158160     -0.882501
  H       0.495576     -1.181139     -0.869582
  H       0.500401     -1.139700      0.905909
  H      -1.966700     -0.648519     -0.900365
  H      -2.568922      0.555192     -0.012246
  H       2.507772     -0.499820      0.045761
  O      -5.228826     -1.843729      1.337875
  C      -5.659430     -1.282803      0.418166
  O      -6.100263     -0.725407     -0.498684
14
Coordinates from ORCA-job ./scants E -399.092104760003
  O       1.810130      0.157795     -0.008534
  N      -1.844850     -0.149139     -0.031080
  C      -0.537914      0.507776     -0.024917
  C       0.560392     -0.528277      0.002956
  H      -0.463781      1.128728      0.867707
  H      -0.386578      1.162730     -0.890326
  H       0.482595     -1.181296     -0.871230
  H       0.471321     -1.143065      0.901311
  H      -1.966534     -0.640724     -0.908122
  H      -2.568354      0.557339     -0.009355
  H       2.505677     -0.500825      0.058294
  O      -5.214797     -1.847746      1.333914
  C      -5.652006     -1.288428      0.424529
  O      -6.089986     -0.730411     -0.485441
14
Coordinates from ORCA-job ./scants E -399.092140643399
  O       1.808993      0.154856     -0.005708
  N      -1.843973     -0.147482     -0.034108
  C      -0.537418      0.510497     -0.028808
  C       0.559265     -0.528779      0.004271
  H      -0.466084      1.129522      0.865403
  H      -0.378772      1.163808     -0.893751
  H       0.478917     -1.184178     -0.868120
  H       0.463185     -1.141958      0.903038
  H      -1.968512     -0.635245     -0.912881
  H      -2.569168      0.557102     -0.005583
  H       2.507071     -0.501175      0.059142
  O      -5.209756     -1.852927      1.333032
  C      -5.649230     -1.291682      0.425046
  O      -6.089202     -0.727901     -0.481267
14
Coordinates from ORCA-job ./scants E -399.092162016512
  O       1.808061      0.150393     -0.005480
  N      -1.842802     -0.145006     -0.038164
  C      -0.536883      0.513612     -0.033239
  C       0.558998     -0.529315      0.008470
  H      -0.469756      1.132154      0.861708
  H      -0.369300      1.163276     -0.898739
  H       0.473440     -1.191507     -0.858635
  H       0.456055     -1.136622      0.910661
  H      -1.972870     -0.625208     -0.920300
  H      -2.570711      0.556188      0.003246
  H       2.509923     -0.502026      0.053713
  O      -5.203503     -1.866726      1.325825
  C      -5.646895     -1.290190      0.428129
  O      -6.088442     -0.724565     -0.477489
14
Coordinates from ORCA-job ./scants E -399.092179032928
  O       1.808167      0.149641     -0.007441
  N      -1.842382     -0.145177     -0.039897
  C      -0.536981      0.513452     -0.033765
  C       0.559954     -0.529255      0.011415
  H      -0.471657      1.133533      0.860269
  H      -0.367985      1.161427     -0.900221
  H       0.472370     -1.195646     -0.852376
  H       0.457290     -1.132546      0.916493
  H      -1.975268     -0.621050     -0.923933
  H      -2.571370      0.554377      0.008404
  H       2.511304     -0.501770      0.047590
  O      -5.203445     -1.869635      1.323279
  C      -5.645348     -1.295334      0.423341
  O      -6.089335     -0.717557     -0.473452
14
Coordinates from ORCA-job ./scants E -399.092183848319
  O       1.808484      0.150757     -0.008251
  N      -1.842490     -0.145993     -0.039685
  C      -0.537101      0.512194     -0.032918
  C       0.560301     -0.529079      0.012096
  H      -0.471315      1.134154      0.859722
  H      -0.370319      1.159972     -0.900192
  H       0.473459     -1.196009     -0.851264
  H       0.459951     -1.131552      0.917998
  H      -1.975781     -0.621186     -0.923922
  H      -2.571192      0.553655      0.009648
  H       2.510748     -0.501681      0.045510
  O      -5.204291     -1.870571      1.321360
  C      -5.646128     -1.294059      0.423220
  O      -6.089010     -0.716145     -0.473616
14
Coordinates from ORCA-job ./scants E -399.092192611814
  O       1.808820      0.151275     -0.008497
  N      -1.842097     -0.146853     -0.041794
  C      -0.537062      0.510962     -0.033886
  C       0.560892     -0.528959      0.015358
  H      -0.472649      1.136735      0.856134
  H      -0.370495      1.156637     -0.903007
  H       0.474225     -1.199808     -0.844928
  H       0.461619     -1.127307      0.924201
  H      -1.979207     -0.616583     -0.928184
  H      -2.571484      0.551204      0.016607
  H       2.510827     -0.501847      0.039858
  O      -5.203516     -1.878153      1.315015
  C      -5.645991     -1.293382      0.422821
  O      -6.088567     -0.709463     -0.469991
14
Coordinates from ORCA-job ./scants E -399.092197361732
  O       1.809163      0.151353     -0.006215
  N      -1.841578     -0.147508     -0.045019
  C      -0.536931      0.510346     -0.036400
  C       0.561260     -0.528942      0.018399
  H      -0.474688      1.139488      0.851386
  H      -0.369015      1.153690     -0.907066
  H       0.475818     -1.203219     -0.839281
  H       0.460767     -1.123801      0.929442
  H      -1.983240     -0.610951     -0.933849
  H      -2.571892      0.548466      0.023994
  H       2.511138     -0.502228      0.036480
  O      -5.201997     -1.886635      1.309320
  C      -5.645162     -1.293725      0.422887
  O      -6.088328     -0.701877     -0.464371
14
Coordinates from ORCA-job ./scants E -399.092198051524
  O       1.809411      0.151495     -0.002473
  N      -1.841262     -0.148072     -0.047896
  C      -0.536848      0.510115     -0.039126
  C       0.561362     -0.529010      0.020003
  H      -0.476458      1.141187      0.847434
  H      -0.367352      1.151872     -0.910603
  H       0.478249     -1.204707     -0.836736
  H       0.458634     -1.122431      0.931718
  H      -1.986177     -0.607015     -0.938464
  H      -2.572146      0.546453      0.028611
  H       2.511364     -0.502360      0.036537
  O      -5.200839     -1.892737      1.306211
  C      -5.644421     -1.294193      0.423686
  O      -6.088201     -0.696139     -0.459198
14
Coordinates from ORCA-job ./scants E -399.092203546340
  O       1.809481      0.151844      0.000381
  N      -1.841238     -0.148538     -0.049282
  C      -0.536882      0.509992     -0.040613
  C       0.561354     -0.529076      0.020128
  H      -0.477278      1.141434      0.845750
  H      -0.366690      1.151283     -0.912217
  H       0.480352     -1.204408     -0.837055
  H       0.457086     -1.122825      0.931413
  H      -1.987099     -0.605989     -0.940458
  H      -2.572181      0.545677      0.029431
  H       2.511443     -0.502079      0.038317
  O      -5.200730     -1.894918      1.305837
  C      -5.644225     -1.294266      0.424635
  O      -6.088078     -0.693673     -0.456560
14
Coordinates from ORCA-job ./scants E -399.092203254758
  O       1.809461      0.152504      0.003443
  N      -1.841308     -0.149260     -0.050562
  C      -0.537017      0.509705     -0.041913
  C       0.561407     -0.529133      0.019951
  H      -0.478059      1.141181      0.844474
  H      -0.366418      1.150752     -0.913537
  H       0.482894     -1.203601     -0.838091
  H       0.455672     -1.123675      0.930505
  H      -1.987468     -0.605763     -0.942188
  H      -2.572153      0.544977      0.029042
  H       2.511553     -0.501335      0.040642
  O      -5.201249     -1.896694      1.306016
  C      -5.644264     -1.294034      0.425899
  O      -6.087736     -0.691165     -0.453976
14
Coordinates from ORCA-job ./scants E -399.089104330035
  O       1.786484      0.150404      0.006053
  N      -1.863695     -0.159486     -0.048256
  C      -0.560811      0.502257     -0.039172
  C       0.539986     -0.534085      0.022464
  H      -0.503838      1.134268      0.846967
  H      -0.391502      1.143668     -0.910780
  H       0.462989     -1.208567     -0.835705
  H       0.435632     -1.129043      0.932907
  H      -1.964606     -0.601728     -0.960638
  H      -2.547786      0.558687      0.024179
  H       2.490069     -0.501840      0.043108
  O      -5.171381     -1.896224      1.309618
  C      -5.540281     -1.267709      0.419972
  O      -6.065945     -0.686145     -0.451010
14
Coordinates from ORCA-job ./scants E -399.091661355308
  O       1.782787      0.148791      0.007286
  N      -1.874897     -0.163595     -0.048652
  C      -0.566227      0.498864     -0.035635
  C       0.536255     -0.535893      0.023037
  H      -0.508000      1.129023      0.852119
  H      -0.397988      1.142564     -0.905576
  H       0.459149     -1.208588     -0.836691
  H       0.432909     -1.133183      0.932114
  H      -1.976779     -0.604902     -0.954656
  H      -2.573519      0.564494      0.011697
  H       2.486701     -0.503241      0.042184
  O      -5.125200     -1.879813      1.307044
  C      -5.550812     -1.272870      0.422345
  O      -6.019067     -0.677192     -0.456911
14
Coordinates from ORCA-job ./scants E -399.092025846044
  O       1.780260      0.146842      0.010244
  N      -1.877013     -0.161293     -0.050131
  C      -0.566752      0.500316     -0.033255
  C       0.533383     -0.536561      0.022962
  H      -0.508259      1.127680      0.856253
  H      -0.398685      1.145497     -0.901791
  H       0.456079     -1.206478     -0.838906
  H       0.428796     -1.136536      0.930184
  H      -1.986378     -0.607503     -0.952654
  H      -2.584515      0.560890     -0.000977
  H       2.483332     -0.506136      0.043679
  O      -5.105028     -1.871448      1.306407
  C      -5.551655     -1.272953      0.425160
  O      -5.998252     -0.677859     -0.457470
14
Coordinates from ORCA-job ./scants E -399.092117564970
  O       1.779730      0.145604      0.014371
  N      -1.875456     -0.158373     -0.052832
  C      -0.566080      0.502167     -0.033058
  C       0.532177     -0.536548      0.022062
  H      -0.508735      1.126918      0.858186
  H      -0.397101      1.148904     -0.900192
  H       0.455891     -1.203523     -0.842104
  H       0.424953     -1.139421      0.927056
  H      -1.991996     -0.610521     -0.951623
  H      -2.590649      0.556702     -0.008918
  H       2.482060     -0.508212      0.047448
  O      -5.098805     -1.866356      1.310260
  C      -5.547971     -1.276221      0.424373
  O      -5.992702     -0.676663     -0.455325
14
Coordinates from ORCA-job ./scants E -399.092137879776
  O       1.779350      0.142343      0.022406
  N      -1.871451     -0.150732     -0.058245
  C      -0.564392      0.506537     -0.034003
  C       0.529824     -0.536297      0.020097
  H      -0.509176      1.126865      0.860199
  H      -0.392208      1.155791     -0.898688
  H       0.455476     -1.197957     -0.848175
  H       0.416495     -1.144150      0.920986
  H      -2.002042     -0.616017     -0.948599
  H      -2.601536      0.549422     -0.021103
  H       2.479712     -0.513607      0.055607
  O      -5.088489     -1.867649      1.311454
  C      -5.542217     -1.267547      0.434587
  O      -5.984031     -0.682544     -0.456818
14
Coordinates from ORCA-job ./scants E -399.092199244023
  O       1.779875      0.143138      0.021919
  N      -1.871280     -0.151804     -0.058805
  C      -0.564798      0.505837     -0.035329
  C       0.530544     -0.536022      0.020129
  H      -0.509808      1.127025      0.858445
  H      -0.391444      1.154904     -0.900129
  H       0.456761     -1.198600     -0.847527
  H       0.417281     -1.142925      0.921642
  H      -1.999555     -0.616046     -0.949963
  H      -2.599050      0.549848     -0.015870
  H       2.480507     -0.512451      0.055933
  O      -5.093627     -1.867355      1.313096
  C      -5.541273     -1.273115      0.429556
  O      -5.988819     -0.677975     -0.453391
14
Coordinates from ORCA-job ./scants E -399.092202609647
  O       1.779920      0.143118      0.021804
  N      -1.871181     -0.151427     -0.059847
  C      -0.565050      0.505836     -0.036475
  C       0.530523     -0.535911      0.020275
  H      -0.510148      1.127587      0.856991
  H      -0.390146      1.154676     -0.901277
  H       0.457000     -1.199190     -0.846891
  H       0.416876     -1.141940      0.922315
  H      -1.999420     -0.616096     -0.950591
  H      -2.599034      0.549507     -0.012494
  H       2.480454     -0.512518      0.056599
  O      -5.094441     -1.869645      1.311976
  C      -5.540889     -1.273273      0.429422
  O      -5.989152     -0.676264     -0.452101
14
Coordinates from ORCA-job ./scants E -399.092206566398
  O       1.779765      0.142849      0.021587
  N      -1.870858     -0.150130     -0.062823
  C      -0.565464      0.506082     -0.038958
  C       0.530196     -0.535785      0.020903
  H      -0.510967      1.129047      0.853790
  H      -0.387075      1.154265     -0.903798
  H       0.457058     -1.200871     -0.844942
  H       0.415668     -1.139605      0.924296
  H      -2.000816     -0.615749     -0.952402
  H      -2.600407      0.547722     -0.005860
  H       2.480028     -0.512958      0.058220
  O      -5.094400     -1.875454      1.308821
  C      -5.539701     -1.273388      0.429682
  O      -5.987713     -0.671566     -0.448812
14
Coordinates from ORCA-job ./scants E -399.092213836853
  O       1.779649      0.142802      0.021016
  N      -1.870817     -0.149850     -0.064256
  C      -0.565541      0.506046     -0.039967
  C       0.530106     -0.535838      0.021592
  H      -0.511395      1.129890      0.852183
  H      -0.386063      1.153560     -0.905135
  H       0.456863     -1.202365     -0.843138
  H       0.415592     -1.138105      0.926022
  H      -2.002121     -0.614447     -0.954024
  H      -2.601151      0.546694     -0.002951
  H       2.479915     -0.512948      0.058620
  O      -5.094081     -1.879047      1.306690
  C      -5.539319     -1.273519      0.429846
  O      -5.986321     -0.668416     -0.446792
14
Coordinates from ORCA-job ./scants E -399.092216972386
  O       1.779562      0.142840      0.019926
  N      -1.870776     -0.149947     -0.066440
  C      -0.565528      0.505790     -0.041491
  C       0.530123     -0.535972      0.022951
  H      -0.512247      1.131289      0.849508
  H      -0.385044      1.151934     -0.907481
  H       0.456613     -1.205183     -0.839673
  H       0.415904     -1.135492      0.929241
  H      -2.004434     -0.611130     -0.957506
  H      -2.601920      0.545114      0.001222
  H       2.479950     -0.512688      0.059197
  O      -5.094011     -1.885542      1.303055
  C      -5.538855     -1.273897      0.430162
  O      -5.984022     -0.662658     -0.442963
14
Coordinates from ORCA-job ./scants E -399.092214861526
  O       1.779598      0.142982      0.018735
  N      -1.870672     -0.150619     -0.069406
  C      -0.565437      0.505273     -0.043727
  C       0.530309     -0.536115      0.024847
  H      -0.513720      1.133157      0.845621
  H      -0.384094      1.149384     -0.911021
  H       0.456651     -1.209048     -0.834850
  H       0.416397     -1.131906      0.933634
  H      -2.007503     -0.605674     -0.963055
  H      -2.602306      0.543090      0.006281
  H       2.480196     -0.512166      0.060547
  O      -5.094753     -1.895209      1.298117
  C      -5.538263     -1.274543      0.430848
  O      -5.981090     -0.654149     -0.436865
14
Coordinates from ORCA-job ./scants E -399.092223184595
  O       1.779762      0.143139      0.019032
  N      -1.870575     -0.151408     -0.070775
  C      -0.565351      0.504943     -0.044899
  C       0.530529     -0.536108      0.025527
  H      -0.514715      1.133839      0.843771
  H      -0.384085      1.148183     -0.912794
  H       0.457278     -1.210291     -0.833221
  H       0.416346     -1.130752      0.935032
  H      -2.008690     -0.602802     -0.966140
  H      -2.601989      0.542324      0.007426
  H       2.480451     -0.511831      0.062065
  O      -5.096015     -1.899893      1.296543
  C      -5.538010     -1.274871      0.431655
  O      -5.979621     -0.650015     -0.433517
14
Coordinates from ORCA-job ./scants E -399.092219246312
  O       1.780077      0.143604      0.020757
  N      -1.870333     -0.153220     -0.073816
  C      -0.565307      0.504282     -0.047564
  C       0.530967     -0.535948      0.026481
  H      -0.517018      1.134906      0.839996
  H      -0.384031      1.146073     -0.916419
  H       0.459262     -1.211849     -0.831050
  H       0.415530     -1.129026      0.936846
  H      -2.010447     -0.597829     -0.972407
  H      -2.601105      0.540826      0.008513
  H       2.480887     -0.511054      0.066321
  O      -5.099767     -1.909607      1.294272
  C      -5.537421     -1.275412      0.433958
  O      -5.975978     -0.641288     -0.426181
14
Coordinates from ORCA-job ./scants E -399.092223321271
  O       1.780119      0.143977      0.022238
  N      -1.870254     -0.153996     -0.075171
  C      -0.565437      0.504063     -0.048614
  C       0.531110     -0.535778      0.026466
  H      -0.518057      1.134935      0.838833
  H      -0.384019      1.145708     -0.917528
  H       0.460536     -1.211562     -0.831256
  H       0.414742     -1.128982      0.936625
  H      -2.010464     -0.597215     -0.974479
  H      -2.600848      0.540222      0.007475
  H       2.480971     -0.510578      0.068610
  O      -5.102272     -1.913237      1.294361
  C      -5.537191     -1.275416      0.435389
  O      -5.973621     -0.637683     -0.423242
14
Coordinates from ORCA-job ./scants E -399.089168876107
  O       1.757201      0.141982      0.025002
  N      -1.892543     -0.164488     -0.072859
  C      -0.589211      0.496497     -0.045825
  C       0.509811     -0.540749      0.029059
  H      -0.543858      1.127806      0.841419
  H      -0.409124      1.138583     -0.914691
  H       0.440865     -1.216520     -0.828807
  H       0.394836     -1.134422      0.939091
  H      -1.988332     -0.593616     -0.994036
  H      -2.576855      0.554393      0.002651
  H       2.459611     -0.510913      0.071251
  O      -5.072034     -1.912686      1.297827
  C      -5.433015     -1.249224      0.429532
  O      -5.952035     -0.632185     -0.419908
14
Coordinates from ORCA-job ./scants E -399.091674087910
  O       1.753295      0.140482      0.027008
  N      -1.903876     -0.168474     -0.073807
  C      -0.594825      0.493125     -0.042223
  C       0.505911     -0.542633      0.029248
  H      -0.548382      1.121961      0.847116
  H      -0.415318      1.138153     -0.908822
  H       0.437354     -1.215774     -0.830865
  H       0.391632     -1.139433      0.937347
  H      -1.999872     -0.597543     -0.986403
  H      -2.602475      0.559720     -0.011468
  H       2.456059     -0.512237      0.070804
  O      -5.025441     -1.895084      1.296175
  C      -5.443661     -1.253840      0.432050
  O      -5.905085     -0.623965     -0.426454
14
Coordinates from ORCA-job ./scants E -399.092044798742
  O       1.750521      0.138667      0.030662
  N      -1.906046     -0.165990     -0.075516
  C      -0.595570      0.494672     -0.039592
  C       0.502843     -0.543289      0.028769
  H      -0.548880      1.120086      0.851942
  H      -0.415885      1.141784     -0.904297
  H       0.434536     -1.212753     -0.834214
  H       0.387094     -1.143636      0.934383
  H      -2.008439     -0.601857     -0.983872
  H      -2.613511      0.556259     -0.025522
  H       2.452435     -0.515059      0.072565
  O      -5.005447     -1.885425      1.296876
  C      -5.444399     -1.253733      0.435226
  O      -5.883937     -0.625268     -0.427704
14
Coordinates from ORCA-job ./scants E -399.092135742057
  O       1.749767      0.137428      0.035306
  N      -1.904567     -0.162784     -0.078241
  C      -0.595057      0.496672     -0.039094
  C       0.501433     -0.543247      0.027495
  H      -0.549408      1.118902      0.854552
  H      -0.414251      1.145839     -0.901982
  H       0.434420     -1.208968     -0.838406
  H       0.382875     -1.147266      0.930298
  H      -2.013088     -0.606283     -0.982282
  H      -2.619719      0.552412     -0.034862
  H       2.450873     -0.517240      0.076389
  O      -4.999444     -1.879426      1.301919
  C      -5.440738     -1.256468      0.434925
  O      -5.877783     -0.625113     -0.426313
14
Coordinates from ORCA-job ./scants E -399.092155500916
  O       1.748960      0.134002      0.044292
  N      -1.900785     -0.154380     -0.083673
  C      -0.593639      0.501418     -0.039432
  C       0.498634     -0.542924      0.024822
  H      -0.549821      1.118145      0.857879
  H      -0.409164      1.154021     -0.899062
  H       0.433994     -1.201796     -0.846343
  H       0.373607     -1.153373      0.922384
  H      -2.021042     -0.614248     -0.978213
  H      -2.630691      0.546095     -0.049864
  H       2.447896     -0.523068      0.084564
  O      -4.989971     -1.878515      1.305695
  C      -5.434547     -1.248020      0.445916
  O      -5.868115     -0.632899     -0.429260
14
Coordinates from ORCA-job ./scants E -399.092214453117
  O       1.749504      0.134683      0.043823
  N      -1.900523     -0.155290     -0.084208
  C      -0.593946      0.500834     -0.040731
  C       0.499321     -0.542640      0.024864
  H      -0.550304      1.118359      0.856187
  H      -0.408395      1.153233     -0.900480
  H       0.435134     -1.202422     -0.845682
  H       0.374297     -1.152162      0.923034
  H      -2.018945     -0.614150     -0.979465
  H      -2.628414      0.546438     -0.044966
  H       2.448658     -0.522075      0.084890
  O      -4.995037     -1.878206      1.307583
  C      -5.433494     -1.253838      0.440477
  O      -5.872542     -0.628306     -0.425621
14
Coordinates from ORCA-job ./scants E -399.092217077449
  O       1.749541      0.134571      0.043509
  N      -1.900560     -0.154832     -0.084955
  C      -0.594173      0.500880     -0.041716
  C       0.499256     -0.542541      0.025024
  H      -0.550403      1.118987      0.854875
  H      -0.407232      1.153001     -0.901504
  H       0.435133     -1.203053     -0.844999
  H       0.373954     -1.151169      0.923753
  H      -2.018576     -0.614052     -0.979903
  H      -2.628212      0.546609     -0.041877
  H       2.448561     -0.522271      0.085222
  O      -4.996162     -1.880531      1.306574
  C      -5.433229     -1.254037      0.440391
  O      -5.872583     -0.627103     -0.424688
14
Coordinates from ORCA-job ./scants E -399.092220833877
  O       1.749307      0.133967      0.043319
  N      -1.900417     -0.152956     -0.087497
  C      -0.594532      0.501421     -0.043871
  C       0.498687     -0.542424      0.025483
  H      -0.550737      1.120502      0.852150
  H      -0.404209      1.152989     -0.903582
  H       0.434692     -1.204394     -0.843477
  H       0.372402     -1.149181      0.925326
  H      -2.019377     -0.613883     -0.981051
  H      -2.629387      0.546007     -0.036558
  H       2.447880     -0.523238      0.086490
  O      -4.996972     -1.886033      1.304353
  C      -5.431898     -1.254566      0.440787
  O      -5.870123     -0.623755     -0.422163
14
Coordinates from ORCA-job ./scants E -399.092227902493
  O       1.749145      0.133656      0.042833
  N      -1.900450     -0.152170     -0.088870
  C      -0.594582      0.501617     -0.044832
  C       0.498400     -0.542485      0.026085
  H      -0.550929      1.121479      0.850659
  H      -0.403006      1.152557     -0.904802
  H       0.434188     -1.205730     -0.841890
  H       0.371949     -1.147823      0.926859
  H      -2.020517     -0.612651     -0.982357
  H      -2.630136      0.545629     -0.034172
  H       2.447575     -0.523645      0.086856
  O      -4.997119     -1.889694      1.302696
  C      -5.431286     -1.255073      0.441029
  O      -5.867918     -0.621210     -0.420389
14
Coordinates from ORCA-job ./scants E -399.092231599958
  O       1.748928      0.133061      0.041606
  N      -1.900556     -0.151040     -0.091585
  C      -0.594497      0.501834     -0.046775
  C       0.497953     -0.542688      0.027651
  H      -0.551471      1.123665      0.847340
  H      -0.401145      1.151052     -0.907688
  H       0.433142     -1.209064     -0.837869
  H       0.371442     -1.144714      0.930636
  H      -2.023296     -0.608481     -0.986084
  H      -2.631166      0.545079     -0.029690
  H       2.447160     -0.524320      0.087603
  O      -4.997930     -1.898341      1.298924
  C      -5.430115     -1.256452      0.441580
  O      -5.863135     -0.615133     -0.415942
14
Coordinates from ORCA-job ./scants E -399.092234978644
  O       1.748881      0.132451      0.040828
  N      -1.900635     -0.150354     -0.094161
  C      -0.594263      0.501947     -0.048797
  C       0.497641     -0.542879      0.029211
  H      -0.552227      1.125860      0.843860
  H      -0.399826      1.149276     -0.910859
  H       0.432438     -1.212284     -0.833927
  H       0.370895     -1.141805      0.934224
  H      -2.026147     -0.603178     -0.990549
  H      -2.631515      0.544902     -0.026109
  H       2.446912     -0.524995      0.088927
  O      -4.999579     -1.907537      1.295518
  C      -5.428954     -1.258058      0.442448
  O      -5.858307     -0.608890     -0.410909
14
Coordinates from ORCA-job ./scants E -399.092236685574
  O       1.748972      0.131091      0.040291
  N      -1.900775     -0.149312     -0.099485
  C      -0.593697      0.502152     -0.053375
  C       0.497068     -0.543158      0.032182
  H      -0.554079      1.130374      0.836274
  H      -0.397468      1.145489     -0.917908
  H       0.431654     -1.218320     -0.826426
  H       0.369170     -1.136187      0.940910
  H      -2.031793     -0.591291     -1.000485
  H      -2.631253      0.545219     -0.020019
  H       2.446449     -0.526583      0.093047
  O      -5.004617     -1.927530      1.289160
  C      -5.426428     -1.261670      0.444957
  O      -5.847887     -0.595816     -0.399419
14
Coordinates from ORCA-job ./scants E -399.092242438969
  O       1.749111      0.130083      0.041386
  N      -1.900896     -0.148707     -0.103261
  C      -0.593335      0.502384     -0.056884
  C       0.496645     -0.543200      0.033708
  H      -0.555547      1.133262      0.830930
  H      -0.396007      1.143188     -0.922954
  H       0.431901     -1.221317     -0.822617
  H       0.367005     -1.133123      0.944206
  H      -2.035146     -0.583287     -1.007460
  H      -2.630411      0.546198     -0.017827
  H       2.446011     -0.527910      0.097513
  O      -5.009876     -1.941899      1.286051
  C      -5.424505     -1.264366      0.447621
  O      -5.839635     -0.586849     -0.390709
14
Coordinates from ORCA-job ./scants E -399.092245656846
  O       1.749155      0.128910      0.044494
  N      -1.901146     -0.147785     -0.107693
  C      -0.593075      0.502915     -0.061038
  C       0.495974     -0.543065      0.034607
  H      -0.557231      1.136074      0.825237
  H      -0.394390      1.141434     -0.928384
  H       0.433014     -1.222896     -0.820496
  H       0.363169     -1.130994      0.945932
  H      -2.037840     -0.575853     -1.014773
  H      -2.629122      0.548368     -0.018617
  H       2.445162     -0.529681      0.104317
  O      -5.018213     -1.958429      1.284640
  C      -5.422071     -1.267585      0.451884
  O      -5.828070     -0.576957     -0.380406
14
Coordinates from ORCA-job ./scants E -399.092254015037
  O       1.748865      0.127803      0.049495
  N      -1.901637     -0.146281     -0.112096
  C      -0.593084      0.503878     -0.064886
  C       0.494964     -0.542740      0.034422
  H      -0.558698      1.138087      0.820739
  H      -0.392842      1.141145     -0.932726
  H       0.434790     -1.222104     -0.821258
  H       0.357896     -1.130729      0.945065
  H      -2.038613     -0.571765     -1.020515
  H      -2.627868      0.551946     -0.024202
  H       2.443774     -0.531642      0.112382
  O      -5.029560     -1.974447      1.286221
  C      -5.419424     -1.270875      0.457506
  O      -5.813248     -0.567817     -0.370443
14
Coordinates from ORCA-job ./scants E -399.092266703184
  O       1.747832      0.126653      0.057611
  N      -1.902692     -0.143302     -0.116963
  C      -0.593573      0.505790     -0.068314
  C       0.493149     -0.542083      0.032589
  H      -0.559924      1.139049      0.818116
  H      -0.391198      1.143434     -0.935361
  H       0.437343     -1.217568     -0.826459
  H       0.349949     -1.133322      0.940159
  H      -2.035876     -0.573177     -1.024074
  H      -2.626818      0.558425     -0.039009
  H       2.441246     -0.534147      0.122566
  O      -5.047899     -1.991875      1.293006
  C      -5.416079     -1.274803      0.465971
  O      -5.790146     -0.558616     -0.360132
14
Coordinates from ORCA-job ./scants E -399.092284623043
  O       1.746464      0.126615      0.062223
  N      -1.903763     -0.140601     -0.117864
  C      -0.594466      0.507462     -0.067303
  C       0.491664     -0.541512      0.030002
  H      -0.559597      1.137254      0.821623
  H      -0.390970      1.147921     -0.932105
  H       0.438110     -1.211548     -0.833444
  H       0.345789     -1.137857      0.933784
  H      -2.029559     -0.582785     -1.020112
  H      -2.627276      0.563269     -0.055041
  H       2.439326     -0.534965      0.125224
  O      -5.060301     -1.994911      1.301920
  C      -5.414971     -1.275950      0.470685
  O      -5.775137     -0.557933     -0.359885
14
Coordinates from ORCA-job ./scants E -399.092298953081
  O       1.744693      0.126217      0.064068
  N      -1.905138     -0.136310     -0.119905
  C      -0.595311      0.509571     -0.066057
  C       0.489563     -0.541100      0.028752
  H      -0.559198      1.136683      0.824723
  H      -0.389595      1.152051     -0.928966
  H       0.436337     -1.208190     -0.836973
  H       0.342553     -1.140179      0.930543
  H      -2.023445     -0.591485     -1.016540
  H      -2.628996      0.568177     -0.070394
  H       2.437109     -0.536047      0.125042
  O      -5.074895     -2.002421      1.308561
  C      -5.413198     -1.278030      0.475057
  O      -5.755163     -0.554480     -0.358204
14
Coordinates from ORCA-job ./scants E -399.092307572019
  O       1.743580      0.125247      0.063746
  N      -1.906103     -0.132732     -0.123035
  C      -0.595510      0.511136     -0.066528
  C       0.487833     -0.540990      0.029565
  H      -0.559483      1.138394      0.824112
  H      -0.387557      1.153127     -0.929302
  H       0.433641     -1.209269     -0.835171
  H       0.340544     -1.138920      0.932089
  H      -2.021498     -0.592211     -1.017720
  H      -2.630273      0.571643     -0.077711
  H       2.435518     -0.537519      0.124828
  O      -5.086223     -2.014464      1.309265
  C      -5.410976     -1.280907      0.478255
  O      -5.738178     -0.548075     -0.352685
14
Coordinates from ORCA-job ./scants E -399.092314316704
  O       1.742345      0.123168      0.064514
  N      -1.907290     -0.127880     -0.128721
  C      -0.595510      0.513340     -0.069152
  C       0.485373     -0.540815      0.031187
  H      -0.560633      1.142142      0.820402
  H      -0.384135      1.153402     -0.932529
  H       0.430486     -1.211733     -0.831462
  H       0.336332     -1.136042      0.935228
  H      -2.020689     -0.588607     -1.022978
  H      -2.631111      0.577011     -0.085967
  H       2.433111     -0.540628      0.127607
  O      -5.102923     -2.035934      1.308277
  C      -5.406910     -1.286072      0.483843
  O      -5.713130     -0.536895     -0.340543
14
Coordinates from ORCA-job ./scants E -399.092332470204
  O       1.740581      0.119591      0.066753
  N      -1.909043     -0.120605     -0.137414
  C      -0.595501      0.516772     -0.073714
  C       0.481557     -0.540473      0.033404
  H      -0.562590      1.147996      0.814167
  H      -0.378843      1.153823     -0.938002
  H       0.426132     -1.214880     -0.826506
  H       0.328930     -1.131916      0.939348
  H      -2.019665     -0.582063     -1.031645
  H      -2.631680      0.585733     -0.098519
  H       2.429198     -0.546078      0.133379
  O      -5.128110     -2.067916      1.306335
  C      -5.400371     -1.294251      0.492801
  O      -5.675281     -0.521275     -0.320682
14
Coordinates from ORCA-job ./scants E -399.092340170396
  O       1.738281      0.114596      0.070651
  N      -1.911277     -0.111063     -0.148340
  C      -0.595535      0.521354     -0.079688
  C       0.476480     -0.540002      0.035766
  H      -0.564940      1.155365      0.806288
  H      -0.371974      1.154811     -0.944863
  H       0.420785     -1.217882     -0.821425
  H       0.318413     -1.127316      0.943479
  H      -2.018319     -0.573817     -1.042382
  H      -2.632114      0.597430     -0.115036
  H       2.423786     -0.553790      0.141861
  O      -5.159446     -2.106175      1.303612
  C      -5.391607     -1.304856      0.504461
  O      -5.627219     -0.504196     -0.294678
14
Coordinates from ORCA-job ./scants E -399.092331004473
  O       1.737134      0.112115      0.072683
  N      -1.912324     -0.106771     -0.153734
  C      -0.595640      0.523414     -0.082559
  C       0.474017     -0.539843      0.036900
  H      -0.566226      1.158627      0.802597
  H      -0.368655      1.155299     -0.948000
  H       0.418246     -1.219264     -0.819080
  H       0.313234     -1.125203      0.945403
  H      -2.018392     -0.569651     -1.047811
  H      -2.631946      0.602845     -0.122062
  H       2.421089     -0.557602      0.146184
  O      -5.171835     -2.122355      1.301635
  C      -5.387490     -1.309686      0.509744
  O      -5.605896     -0.497465     -0.282195
14
Coordinates from ORCA-job ./scants E -399.092334429504
  O       1.736502      0.110727      0.076592
  N      -1.912810     -0.104773     -0.157634
  C      -0.595801      0.524414     -0.085260
  C       0.472766     -0.539756      0.036686
  H      -0.567223      1.159870      0.799777
  H      -0.366755      1.155839     -0.950499
  H       0.418922     -1.218474     -0.819974
  H       0.308475     -1.125236      0.944467
  H      -2.019447     -0.567304     -1.051850
  H      -2.631228      0.606014     -0.126274
  H       2.419308     -0.559916      0.152275
  O      -5.177522     -2.130916      1.301528
  C      -5.384887     -1.312179      0.513816
  O      -5.594985     -0.493852     -0.273942
14
Coordinates from ORCA-job ./scants E -399.092342190578
  O       1.736261      0.110692      0.079443
  N      -1.912880     -0.104888     -0.159243
  C      -0.596023      0.524296     -0.086126
  C       0.472671     -0.539854      0.035930
  H      -0.567774      1.158932      0.799525
  H      -0.366457      1.156479     -0.950685
  H       0.420733     -1.216942     -0.822123
  H       0.306473     -1.126669      0.942485
  H      -2.020417     -0.567774     -1.053118
  H      -2.630567      0.606534     -0.127696
  H       2.418838     -0.560101      0.155844
  O      -5.175435     -2.130212      1.302727
  C      -5.384498     -1.311955      0.515183
  O      -5.595610     -0.494079     -0.272442
14
Coordinates from ORCA-job ./scants E -399.092335249933
  O       1.735787      0.110210      0.082642
  N      -1.913187     -0.103838     -0.161618
  C      -0.596143      0.524630     -0.087432
  C       0.472124     -0.539953      0.035316
  H      -0.568248      1.158756      0.798601
  H      -0.365555      1.157159     -0.951475
  H       0.422074     -1.215685     -0.823904
  H       0.303580     -1.127842      0.940730
  H      -2.020777     -0.567544     -1.055043
  H      -2.630300      0.608308     -0.130945
  H       2.417906     -0.560933      0.160069
  O      -5.176853     -2.133167      1.303898
  C      -5.383216     -1.312768      0.517631
  O      -5.591877     -0.492875     -0.268761
14
Coordinates from ORCA-job ./scants E -399.092336424311
  O       1.735037      0.109301      0.084969
  N      -1.913768     -0.101836     -0.164770
  C      -0.596210      0.525225     -0.088584
  C       0.471095     -0.540191      0.035350
  H      -0.568821      1.159092      0.797637
  H      -0.364021      1.157764     -0.952200
  H       0.422094     -1.215564     -0.824197
  H       0.300737     -1.128289      0.940290
  H      -2.020739     -0.566356     -1.057787
  H      -2.630246      0.611052     -0.135171
  H       2.416660     -0.562235      0.163377
  O      -5.178931     -2.138078      1.304266
  C      -5.381415     -1.314298      0.520319
  O      -5.586156     -0.491128     -0.263794
14
Coordinates from ORCA-job ./scants E -399.092335060830
  O       1.733272      0.107022      0.090168
  N      -1.915076     -0.097372     -0.172091
  C      -0.596274      0.526349     -0.090717
  C       0.468720     -0.541016      0.035659
  H      -0.570255      1.159352      0.796119
  H      -0.360362      1.159136     -0.953160
  H       0.421898     -1.215693     -0.824521
  H       0.294602     -1.129689      0.939519
  H      -2.020547     -0.562759     -1.064706
  H      -2.630031      0.617139     -0.144332
  H       2.413890     -0.565309      0.170531
  O      -5.178066     -2.146369      1.305216
  C      -5.377537     -1.317325      0.525811
  O      -5.578919     -0.489008     -0.253790
14
Coordinates from ORCA-job ./scants E -399.092336113194
  O       1.730676      0.103927      0.098444
  N      -1.916773     -0.092051     -0.182277
  C      -0.596299      0.526891     -0.091706
  C       0.465796     -0.543008      0.035750
  H      -0.572468      1.156697      0.797381
  H      -0.355474      1.161904     -0.951169
  H       0.422612     -1.215106     -0.826573
  H       0.287004     -1.134602      0.936819
  H      -2.019378     -0.558065     -1.074677
  H      -2.629513      0.624661     -0.156935
  H       2.410533     -0.569041      0.180053
  O      -5.158871     -2.145873      1.309379
  C      -5.373502     -1.318984      0.531619
  O      -5.589028     -0.492894     -0.246402
14
Coordinates from ORCA-job ./scants E -399.092341585661
  O       1.728223      0.098826      0.106821
  N      -1.918396     -0.085300     -0.192575
  C      -0.596072      0.528635     -0.093793
  C       0.461941     -0.544736      0.036492
  H      -0.574663      1.156507      0.796694
  H      -0.349305      1.164560     -0.950886
  H       0.421427     -1.215135     -0.827264
  H       0.277343     -1.137927      0.935364
  H      -2.017531     -0.549455     -1.086322
  H      -2.628980      0.633680     -0.169767
  H       2.406029     -0.575956      0.190456
  O      -5.141025     -2.149712      1.312631
  C      -5.367798     -1.322829      0.538270
  O      -5.595877     -0.496701     -0.236416
14
Coordinates from ORCA-job ./scants E -399.092350538622
  O       1.726641      0.091776      0.113357
  N      -1.919365     -0.078907     -0.200763
  C      -0.595484      0.531327     -0.095985
  C       0.457723     -0.546000      0.038333
  H      -0.576649      1.158688      0.794975
  H      -0.342592      1.166827     -0.951551
  H       0.417454     -1.216191     -0.825664
  H       0.267624     -1.138986      0.936213
  H      -2.014439     -0.536353     -1.098701
  H      -2.627968      0.642148     -0.179507
  H       2.401166     -0.586015      0.198818
  O      -5.119212     -2.153063      1.314570
  C      -5.361866     -1.327677      0.543377
  O      -5.607716     -0.503115     -0.227766
14
Coordinates from ORCA-job ./scants E -399.092370865837
  O       1.724914      0.085134      0.120724
  N      -1.920333     -0.072513     -0.209261
  C      -0.595187      0.533931     -0.098244
  C       0.453690     -0.547208      0.039496
  H      -0.578700      1.160334      0.793475
  H      -0.336102      1.169638     -0.951777
  H       0.414385     -1.216092     -0.825599
  H       0.257415     -1.140633      0.935739
  H      -2.012286     -0.525813     -1.109792
  H      -2.627387      0.650123     -0.189378
  H       2.396150     -0.595675      0.208053
  O      -5.098281     -2.155330      1.316908
  C      -5.355842     -1.332129      0.548784
  O      -5.617121     -0.509307     -0.219421
14
Coordinates from ORCA-job ./scants E -399.092375926508
  O       1.723389      0.076575      0.129326
  N      -1.920890     -0.066082     -0.218645
  C      -0.594836      0.537161     -0.101308
  C       0.449138     -0.548405      0.041057
  H      -0.581043      1.162867      0.791031
  H      -0.328426      1.172905     -0.952534
  H       0.410361     -1.215784     -0.825291
  H       0.244972     -1.141589      0.935646
  H      -2.010488     -0.512301     -1.123142
  H      -2.625942      0.658418     -0.197647
  H       2.389986     -0.608455      0.219150
  O      -5.068127     -2.155373      1.318407
  C      -5.349011     -1.336895      0.554023
  O      -5.633766     -0.518585     -0.210368
14
Coordinates from ORCA-job ./scants E -399.092380856066
  O       1.721139      0.071808      0.135789
  N      -1.922292     -0.059479     -0.226420
  C      -0.594670      0.538864     -0.102518
  C       0.445693     -0.549935      0.041509
  H      -0.582246      1.163057      0.790867
  H      -0.323350      1.175351     -0.951657
  H       0.408588     -1.215578     -0.826220
  H       0.236636     -1.144244      0.934230
  H      -2.008748     -0.506047     -1.130988
  H      -2.626103      0.666380     -0.208279
  H       2.385688     -0.615027      0.226987
  O      -5.051732     -2.156768      1.321041
  C      -5.343783     -1.340320      0.558966
  O      -5.639507     -0.523603     -0.203601
14
Coordinates from ORCA-job ./scants E -399.092373584243
  O       1.719325      0.069554      0.142339
  N      -1.923067     -0.056001     -0.235881
  C      -0.596101      0.539338     -0.101710
  C       0.444266     -0.551185      0.040477
  H      -0.584257      1.158296      0.795210
  H      -0.320522      1.181359     -0.945544
  H       0.409010     -1.211117     -0.831537
  H       0.229655     -1.147641      0.930385
  H      -2.010279     -0.513436     -1.133953
  H      -2.625263      0.671181     -0.219245
  H       2.382091     -0.619054      0.233384
  O      -5.030412     -2.148527      1.324671
  C      -5.340840     -1.338842      0.562326
  O      -5.648291     -0.529466     -0.201217
14
Coordinates from ORCA-job ./scants E -399.092382295905
  O       1.715977      0.058749      0.152107
  N      -1.924843     -0.044505     -0.245850
  C      -0.594628      0.543325     -0.105017
  C       0.437341     -0.553547      0.042657
  H      -0.585495      1.162727      0.791702
  H      -0.310826      1.183023     -0.947775
  H       0.403264     -1.213563     -0.829403
  H       0.214866     -1.150096      0.930609
  H      -2.005170     -0.492187     -1.150103
  H      -2.624570      0.685398     -0.232891
  H       2.374155     -0.633803      0.246419
  O      -4.998194     -2.152285      1.326862
  C      -5.331084     -1.347129      0.569431
  O      -5.665479     -0.541649     -0.189043
14
Coordinates from ORCA-job ./scants E -399.092394850110
  O       1.713580      0.051755      0.159548
  N      -1.925862     -0.037478     -0.254360
  C      -0.594135      0.545792     -0.107467
  C       0.432920     -0.555079      0.043853
  H      -0.586853      1.164524      0.789756
  H      -0.304521      1.185103     -0.948523
  H       0.399995     -1.214217     -0.828924
  H       0.204105     -1.151550      0.930250
  H      -2.003845     -0.480835     -1.161055
  H      -2.622890      0.695054     -0.242282
  H       2.368347     -0.643665      0.256531
  O      -4.974277     -2.153725      1.327570
  C      -5.324412     -1.351682      0.574322
  O      -5.676839     -0.549539     -0.179512
14
Coordinates from ORCA-job ./scants E -399.092400195330
  O       1.710535      0.044420      0.169352
  N      -1.926686     -0.030900     -0.265038
  C      -0.593700      0.548519     -0.111466
  C       0.427865     -0.556385      0.044884
  H      -0.589331      1.166092      0.786616
  H      -0.297713      1.187348     -0.950605
  H       0.397516     -1.214651     -0.828679
  H       0.191313     -1.153329      0.928948
  H      -2.004209     -0.468071     -1.174934
  H      -2.618736      0.706227     -0.253199
  H       2.361500     -0.653954      0.270645
  O      -4.950505     -2.158367      1.327615
  C      -5.316571     -1.356577      0.580684
  O      -5.685963     -0.555913     -0.165118
14
Coordinates from ORCA-job ./scants E -399.092415470358
  O       1.707817      0.038900      0.176046
  N      -1.928066     -0.023505     -0.272586
  C      -0.593726      0.550664     -0.112503
  C       0.423872     -0.557822      0.045026
  H      -0.590564      1.166388      0.786822
  H      -0.292504      1.190363     -0.949137
  H       0.395044     -1.213859     -0.830256
  H       0.182008     -1.156140      0.926728
  H      -2.002137     -0.462747     -1.181721
  H      -2.618483      0.715254     -0.264965
  H       2.356161     -0.661682      0.278815
  O      -4.932510     -2.158180      1.330369
  C      -5.310438     -1.360267      0.585678
  O      -5.691160     -0.562910     -0.158611
14
Coordinates from ORCA-job ./scants E -399.092411452113
  O       1.704719      0.033598      0.183355
  N      -1.929466     -0.016316     -0.280917
  C      -0.593934      0.552803     -0.113750
  C       0.419670     -0.559155      0.044961
  H      -0.592474      1.166080      0.787228
  H      -0.287172      1.193683     -0.947474
  H       0.392938     -1.212764     -0.832221
  H       0.172417     -1.159466      0.923825
  H      -2.000301     -0.457914     -1.189085
  H      -2.617347      0.724804     -0.278082
  H       2.350540     -0.669020      0.287967
  O      -4.915633     -2.158785      1.333500
  C      -5.303982     -1.363845      0.591319
  O      -5.694659     -0.569244     -0.150920
14
Coordinates from ORCA-job ./scants E -399.092418498585
  O       1.700671      0.026655      0.191617
  N      -1.931287     -0.006958     -0.291401
  C      -0.594132      0.555877     -0.116122
  C       0.413921     -0.560590      0.045491
  H      -0.594798      1.167187      0.786191
  H      -0.280146      1.197037     -0.946940
  H       0.389099     -1.212533     -0.833022
  H       0.160075     -1.161982      0.921752
  H      -1.998337     -0.449964     -1.199142
  H      -2.615524      0.737473     -0.294001
  H       2.342983     -0.678675      0.299427
  O      -4.899382     -2.165003      1.336321
  C      -5.295068     -1.369578      0.598674
  O      -5.692758     -0.574488     -0.139138
14
Coordinates from ORCA-job ./scants E -399.092422572162
  O       1.696630      0.019021      0.199701
  N      -1.932866      0.002383     -0.302021
  C      -0.594128      0.559019     -0.118759
  C       0.407951     -0.562166      0.046493
  H      -0.597039      1.168918      0.784517
  H      -0.272705      1.199923     -0.946913
  H       0.384556     -1.212959     -0.832938
  H       0.147288     -1.163748      0.920617
  H      -1.996671     -0.439591     -1.210541
  H      -2.613270      0.750281     -0.308662
  H       2.335028     -0.689296      0.311129
  O      -4.880040     -2.170744      1.338335
  C      -5.285671     -1.375589      0.605657
  O      -5.693751     -0.580994     -0.126911
14
Coordinates from ORCA-job ./scants E -399.092428715719
  O       1.692135      0.011808      0.208143
  N      -1.934361      0.011317     -0.314131
  C      -0.594515      0.562024     -0.121599
  C       0.401829     -0.563694      0.047371
  H      -0.600344      1.169867      0.783056
  H      -0.265090      1.203256     -0.946356
  H       0.380247     -1.213016     -0.833216
  H       0.134208     -1.165618      0.919136
  H      -1.995746     -0.429990     -1.223074
  H      -2.610291      0.763153     -0.324259
  H       2.326693     -0.699294      0.323649
  O      -4.863345     -2.178111      1.341015
  C      -5.275584     -1.381416      0.613506
  O      -5.690522     -0.585828     -0.113535
14
Coordinates from ORCA-job ./scants E -399.092429544480
  O       1.685830     -0.000935      0.219261
  N      -1.936726      0.026761     -0.328938
  C      -0.594328      0.567331     -0.125862
  C       0.392178     -0.566118      0.049321
  H      -0.602528      1.174724      0.779086
  H      -0.253769      1.206730     -0.947544
  H       0.371390     -1.214552     -0.831945
  H       0.113869     -1.166416      0.918840
  H      -1.992746     -0.412400     -1.239412
  H      -2.608088      0.782700     -0.344232
  H       2.313561     -0.717136      0.340429
  O      -4.834463     -2.188319      1.343326
  C      -5.260093     -1.391788      0.623397
  O      -5.688773     -0.596122     -0.096022
14
Coordinates from ORCA-job ./scants E -399.092443200789
  O       1.679664     -0.011562      0.229593
  N      -1.938808      0.040096     -0.343043
  C      -0.594469      0.571667     -0.129680
  C       0.383564     -0.568316      0.050717
  H      -0.605189      1.177979      0.775965
  H      -0.243947      1.209960     -0.948043
  H       0.364280     -1.215633     -0.831414
  H       0.095833     -1.167715      0.917774
  H      -1.990857     -0.397873     -1.254322
  H      -2.605700      0.799901     -0.362308
  H       2.301736     -0.731790      0.355915
  O      -4.810631     -2.197696      1.345981
  C      -5.245869     -1.400479      0.632706
  O      -5.684292     -0.604081     -0.080136
14
Coordinates from ORCA-job ./scants E -399.092446913028
  O       1.674312     -0.019929      0.238390
  N      -1.940416      0.050632     -0.355227
  C      -0.594775      0.574899     -0.132819
  C       0.376557     -0.570238      0.051674
  H      -0.607787      1.180010      0.773590
  H      -0.236165      1.212654     -0.948118
  H       0.358958     -1.216352     -0.831370
  H       0.080966     -1.169041      0.916487
  H      -1.989752     -0.386165     -1.267108
  H      -2.603662      0.813526     -0.376485
  H       2.291992     -0.743179      0.368871
  O      -4.791501     -2.204854      1.348681
  C      -5.233929     -1.407180      0.640538
  O      -5.679483     -0.610325     -0.067399
14
Coordinates from ORCA-job ./scants E -399.092450178476
  O       1.667808     -0.027452      0.250052
  N      -1.941735      0.059566     -0.371222
  C      -0.595860      0.577174     -0.136304
  C       0.369563     -0.572610      0.051919
  H      -0.612816      1.179131      0.772109
  H      -0.228751      1.216440     -0.946684
  H       0.356086     -1.215788     -0.833296
  H       0.064663     -1.172155      0.912963
  H      -1.989783     -0.374148     -1.284222
  H      -2.600423      0.826173     -0.390472
  H       2.281906     -0.753041      0.384264
  O      -4.772366     -2.210417      1.354294
  C      -5.220994     -1.412543      0.650222
  O      -5.671983     -0.615874     -0.053917
14
Coordinates from ORCA-job ./scants E -399.092461051395
  O       1.659231     -0.042135      0.262837
  N      -1.944112      0.077325     -0.387495
  C      -0.595784      0.583124     -0.141118
  C       0.357751     -0.575343      0.053898
  H      -0.615182      1.184608      0.767555
  H      -0.216320      1.219741     -0.947869
  H       0.345517     -1.217638     -0.831979
  H       0.040654     -1.172858      0.911914
  H      -1.986388     -0.353797     -1.302243
  H      -2.598293      0.847807     -0.412051
  H       2.265389     -0.773264      0.402947
  O      -4.739252     -2.220468      1.357799
  C      -5.201485     -1.424012      0.661075
  O      -5.666411     -0.628632     -0.035564
14
Coordinates from ORCA-job ./scants E -399.092465881073
  O       1.650192     -0.055645      0.276312
  N      -1.946162      0.093275     -0.404557
  C      -0.596127      0.588138     -0.145686
  C       0.346385     -0.578198      0.055441
  H      -0.618650      1.188107      0.763913
  H      -0.204752      1.223162     -0.947959
  H       0.336649     -1.218941     -0.831588
  H       0.017241     -1.174532      0.909711
  H      -1.983474     -0.333902     -1.321448
  H      -2.595469      0.867800     -0.431721
  H       2.249316     -0.791623      0.421209
  O      -4.706534     -2.227606      1.362785
  C      -5.182294     -1.433985      0.671969
  O      -5.661006     -0.641592     -0.018675
14
Coordinates from ORCA-job ./scants E -399.092443230761
  O       1.640684     -0.067278      0.294533
  N      -1.947137      0.101514     -0.418823
  C      -0.596427      0.592100     -0.151066
  C       0.336038     -0.579617      0.056449
  H      -0.624058      1.189165      0.760352
  H      -0.195327      1.225914     -0.948936
  H       0.333594     -1.218277     -0.832165
  H      -0.005697     -1.178831      0.903674
  H      -1.976466     -0.308220     -1.345071
  H      -2.588110      0.883109     -0.444628
  H       2.234906     -0.808037      0.435876
  O      -4.673489     -2.226787      1.373369
  C      -5.167293     -1.442037      0.682101
  O      -5.665904     -0.658261     -0.005961
14
Coordinates from ORCA-job ./scants E -399.092476594837
  O       1.630352     -0.081750      0.307156
  N      -1.949445      0.121786     -0.440347
  C      -0.597515      0.597075     -0.154783
  C       0.323630     -0.583714      0.057883
  H      -0.628581      1.191760      0.758035
  H      -0.182461      1.230556     -0.946082
  H       0.322389     -1.219873     -0.832512
  H      -0.030648     -1.180244      0.901874
  H      -1.977087     -0.292048     -1.363959
  H      -2.588394      0.904895     -0.468990
  H       2.216613     -0.827076      0.456921
  O      -4.639137     -2.235200      1.376989
  C      -5.143296     -1.451604      0.694441
  O      -5.651105     -0.670103      0.013079
14
Coordinates from ORCA-job ./scants E -399.092481990651
  O       1.622493     -0.092228      0.316675
  N      -1.950955      0.134515     -0.453820
  C      -0.598239      0.600500     -0.157656
  C       0.314281     -0.586343      0.059517
  H      -0.631652      1.194011      0.755834
  H      -0.173770      1.232650     -0.945065
  H       0.314351     -1.221879     -0.831314
  H      -0.048723     -1.180988      0.901143
  H      -1.974709     -0.276435     -1.378635
  H      -2.586236      0.920472     -0.482278
  H       2.203712     -0.841078      0.468411
  O      -4.611765     -2.237572      1.381423
  C      -5.127249     -1.458880      0.702139
  O      -5.646224     -0.682288      0.023332
14
Coordinates from ORCA-job ./scants E -399.092497917526
  O       1.609606     -0.107694      0.332740
  N      -1.953305      0.152703     -0.476743
  C      -0.600466      0.605015     -0.161417
  C       0.299749     -0.590523      0.062363
  H      -0.639357      1.195477      0.753806
  H      -0.160979      1.236387     -0.941243
  H       0.302866     -1.224521     -0.829533
  H      -0.076731     -1.182990      0.899645
  H      -1.971237     -0.251833     -1.404102
  H      -2.581192      0.944338     -0.502762
  H       2.184235     -0.861835      0.483240
  O      -4.571275     -2.239648      1.391914
  C      -5.101802     -1.469496      0.714653
  O      -5.634797     -0.700923      0.037144
14
Coordinates from ORCA-job ./scants E -399.092502510061
  O       1.587835     -0.135005      0.359803
  N      -1.956354      0.183730     -0.508191
  C      -0.602152      0.614662     -0.168679
  C       0.275177     -0.595581      0.065386
  H      -0.647807      1.201282      0.748692
  H      -0.139717      1.242178     -0.938103
  H       0.283563     -1.226359     -0.828744
  H      -0.124571     -1.185619      0.893530
  H      -1.963631     -0.211909     -1.440043
  H      -2.576393      0.981481     -0.540564
  H       2.148871     -0.898981      0.512183
  O      -4.506814     -2.246162      1.407512
  C      -5.059032     -1.487422      0.734640
  O      -5.613659     -0.731838      0.062285
14
Coordinates from ORCA-job ./scants E -399.092496007519
  O       1.584691     -0.137244      0.369132
  N      -1.955993      0.182241     -0.515213
  C      -0.604387      0.613548     -0.164687
  C       0.273984     -0.596712      0.064478
  H      -0.657687      1.193240      0.756669
  H      -0.138263      1.247552     -0.926414
  H       0.287652     -1.220351     -0.834543
  H      -0.128645     -1.194549      0.885625
  H      -1.959087     -0.209683     -1.448350
  H      -2.571152      0.984782     -0.552865
  H       2.147802     -0.902309      0.508179
  O      -4.488500     -2.223673      1.420608
  C      -5.056235     -1.485150      0.738700
  O      -5.628863     -0.747234      0.058387
14
Coordinates from ORCA-job ./scants E -399.092505117444
  O       1.579351     -0.142736      0.372869
  N      -1.957185      0.190169     -0.522541
  C      -0.605667      0.615523     -0.166527
  C       0.267714     -0.598106      0.066171
  H      -0.659519      1.195972      0.754314
  H      -0.133931      1.247633     -0.926595
  H       0.280625     -1.222755     -0.832136
  H      -0.139198     -1.192787      0.887563
  H      -1.956999     -0.202066     -1.455937
  H      -2.568383      0.994460     -0.557163
  H       2.140006     -0.909663      0.511399
  O      -4.478591     -2.230013      1.424268
  C      -5.046132     -1.489864      0.742324
  O      -5.616776     -0.751311      0.061697
14
Coordinates from ORCA-job ./scants E -399.092510846041
  O       1.569072     -0.154994      0.385044
  N      -1.958181      0.203984     -0.536557
  C      -0.606729      0.619363     -0.168963
  C       0.256846     -0.600728      0.067023
  H      -0.663838      1.197844      0.752930
  H      -0.124993      1.250430     -0.923661
  H       0.272322     -1.222766     -0.833035
  H      -0.160462     -1.194744      0.883675
  H      -1.953626     -0.186056     -1.470624
  H      -2.566515      1.010523     -0.573410
  H       2.123980     -0.926035      0.523867
  O      -4.447099     -2.227950      1.431652
  C      -5.026408     -1.496745      0.750880
  O      -5.609054     -0.767668      0.070887
14
Coordinates from ORCA-job ./scants E -399.092513156070
  O       1.557918     -0.167555      0.398964
  N      -1.959177      0.217164     -0.550740
  C      -0.608065      0.623085     -0.171276
  C       0.245681     -0.603279      0.067558
  H      -0.669144      1.199058      0.751943
  H      -0.116361      1.253491     -0.920068
  H       0.264968     -1.221852     -0.834792
  H      -0.182673     -1.197775      0.878132
  H      -1.949414     -0.169112     -1.486371
  H      -2.563010      1.027048     -0.589988
  H       2.107403     -0.942816      0.535947
  O      -4.414181     -2.223496      1.441394
  C      -5.006397     -1.503497      0.759895
  O      -5.602234     -0.786007      0.079108
14
Coordinates from ORCA-job ./scants E -399.092522362701
  O       1.545854     -0.180224      0.415535
  N      -1.959978      0.229215     -0.564866
  C      -0.609427      0.626654     -0.173861
  C       0.234791     -0.605631      0.066845
  H      -0.675103      1.199669      0.750906
  H      -0.108491      1.257130     -0.916405
  H       0.260232     -1.218780     -0.839026
  H      -0.205906     -1.202618      0.868928
  H      -1.945490     -0.152577     -1.502253
  H      -2.558263      1.043274     -0.606520
  H       2.089994     -0.959670      0.550285
  O      -4.381103     -2.217226      1.453171
  C      -4.986270     -1.509870      0.769723
  O      -5.595524     -0.804890      0.087243
14
Coordinates from ORCA-job ./scants E -399.092521191185
  O       1.530185     -0.196166      0.435012
  N      -1.961037      0.245351     -0.582945
  C      -0.611405      0.631068     -0.176968
  C       0.220629     -0.608837      0.066175
  H      -0.682301      1.200522      0.749623
  H      -0.098670      1.261296     -0.911630
  H       0.253123     -1.215885     -0.843557
  H      -0.235031     -1.207889      0.858311
  H      -1.940940     -0.132621     -1.521736
  H      -2.552754      1.064143     -0.626870
  H       2.067418     -0.980660      0.568264
  O      -4.339222     -2.209858      1.466880
  C      -4.959924     -1.517826      0.781559
  O      -5.584758     -0.828180      0.097588
14
Coordinates from ORCA-job ./scants E -399.092524381184
  O       1.517258     -0.209579      0.448708
  N      -1.962108      0.259823     -0.596746
  C      -0.612922      0.634927     -0.179543
  C       0.208290     -0.611580      0.066315
  H      -0.686843      1.202264      0.748104
  H      -0.090397      1.263699     -0.908547
  H       0.244800     -1.215344     -0.845439
  H      -0.258767     -1.210400      0.851978
  H      -1.936443     -0.115450     -1.536587
  H      -2.548722      1.082127     -0.642744
  H       2.048365     -0.998265      0.581798
  O      -4.304405     -2.204522      1.476854
  C      -4.937653     -1.525010      0.790516
  O      -5.575138     -0.848234      0.105040
14
Coordinates from ORCA-job ./scants E -399.092504797484
  O       1.508341     -0.214828      0.452922
  N      -1.964506      0.269539     -0.605805
  C      -0.615603      0.635742     -0.182081
  C       0.200393     -0.614448      0.063855
  H      -0.687902      1.201202      0.746718
  H      -0.089337      1.264484     -0.908566
  H       0.240474     -1.216451     -0.849017
  H      -0.271660     -1.213594      0.846322
  H      -1.935688     -0.110836     -1.543247
  H      -2.539216      1.099271     -0.646528
  H       2.034796     -1.004418      0.597912
  O      -4.285866     -2.204945      1.484093
  C      -4.924006     -1.530599      0.795928
  O      -5.564904     -0.855662      0.107198
14
Coordinates from ORCA-job ./scants E -399.092538692469
  O       1.493272     -0.231529      0.471630
  N      -1.964199      0.285032     -0.622504
  C      -0.616793      0.640847     -0.184125
  C       0.186441     -0.616722      0.065100
  H      -0.695895      1.202984      0.746200
  H      -0.077635      1.268268     -0.902148
  H       0.231554     -1.214185     -0.850441
  H      -0.299803     -1.216060      0.838662
  H      -1.930488     -0.089058     -1.562429
  H      -2.539697      1.114699     -0.670169
  H       2.013130     -1.026803      0.609693
  O      -4.245434     -2.197230      1.494528
  C      -4.897170     -1.536967      0.806479
  O      -5.551967     -0.878818      0.119230
14
Coordinates from ORCA-job ./scants E -399.092549446296
  O       1.478861     -0.245695      0.484523
  N      -1.965235      0.300400     -0.637599
  C      -0.618787      0.644707     -0.186990
  C       0.172627     -0.619662      0.065632
  H      -0.701270      1.204665      0.744366
  H      -0.068931      1.269988     -0.898711
  H       0.221195     -1.215106     -0.851057
  H      -0.324818     -1.217372      0.833318
  H      -1.926589     -0.069474     -1.579052
  H      -2.534742      1.134105     -0.686705
  H       1.991425     -1.045360      0.624507
  O      -4.208274     -2.192745      1.504013
  C      -4.871767     -1.544683      0.815580
  O      -5.538380     -0.899311      0.127882
14
Coordinates from ORCA-job ./scants E -399.092538430571
  O       1.467563     -0.259851      0.483559
  N      -1.967215      0.316242     -0.659141
  C      -0.622253      0.648082     -0.191695
  C       0.155507     -0.623082      0.071699
  H      -0.710584      1.207142      0.739849
  H      -0.056333      1.267315     -0.895653
  H       0.196415     -1.229365     -0.838344
  H      -0.345804     -1.208439      0.846242
  H      -1.929631     -0.033242     -1.607869
  H      -2.521917      1.160256     -0.704424
  H       1.966325     -1.064659      0.643005
  O      -4.167535     -2.203816      1.504246
  C      -4.840644     -1.557794      0.822540
  O      -5.518579     -0.914331      0.145693
14
Coordinates from ORCA-job ./scants E -399.092557691701
  O       1.449781     -0.274534      0.502775
  N      -1.967765      0.333540     -0.669012
  C      -0.623749      0.652640     -0.193189
  C       0.142091     -0.625805      0.068346
  H      -0.712633      1.209398      0.739510
  H      -0.050342      1.271106     -0.892087
  H       0.191616     -1.222436     -0.847526
  H      -0.374409     -1.214936      0.830009
  H      -1.919451     -0.026578     -1.613722
  H      -2.522441      1.177198     -0.720646
  H       1.944005     -1.083375      0.655656
  O      -4.133226     -2.191304      1.520420
  C      -4.815889     -1.563121      0.832607
  O      -5.502274     -0.937335      0.146563
14
Coordinates from ORCA-job ./scants E -399.092568535681
  O       1.440041     -0.283761      0.509689
  N      -1.968540      0.343454     -0.678145
  C      -0.625630      0.654654     -0.194028
  C       0.132970     -0.628034      0.067796
  H      -0.716906      1.208891      0.739942
  H      -0.045559      1.272588     -0.887916
  H       0.184363     -1.222337     -0.849493
  H      -0.389923     -1.216819      0.825349
  H      -1.915742     -0.015075     -1.623650
  H      -2.516569      1.191095     -0.732378
  H       1.928917     -1.095229      0.665802
  O      -4.105850     -2.182891      1.527673
  C      -4.799322     -1.567158      0.838506
  O      -5.496937     -0.954919      0.150560
14
Coordinates from ORCA-job ./scants E -399.092565242260
  O       1.427570     -0.294321      0.518449
  N      -1.969006      0.355310     -0.691328
  C      -0.628751      0.656851     -0.194385
  C       0.122064     -0.630707      0.065978
  H      -0.724959      1.206884      0.741553
  H      -0.039918      1.275734     -0.880103
  H       0.176978     -1.220367     -0.854123
  H      -0.408443     -1.221009      0.817018
  H      -1.912183     -0.005381     -1.635269
  H      -2.510731      1.207010     -0.749667
  H       1.909491     -1.108741      0.680675
  O      -4.074873     -2.174873      1.536237
  C      -4.777556     -1.571337      0.846223
  O      -5.484369     -0.970595      0.158448
14
Coordinates from ORCA-job ./scants E -399.092563887311
  O       1.440155     -0.282910      0.507853
  N      -1.968511      0.342885     -0.679597
  C      -0.627008      0.654099     -0.192196
  C       0.133573     -0.628197      0.065597
  H      -0.720843      1.206042      0.742862
  H      -0.046432      1.275058     -0.883113
  H       0.185216     -1.219237     -0.853810
  H      -0.387918     -1.220205      0.821590
  H      -1.915278     -0.021556     -1.622183
  H      -2.514060      1.191971     -0.736954
  H       1.927989     -1.093957      0.669261
  O      -4.106243     -2.180716      1.529320
  C      -4.799229     -1.565980      0.839370
  O      -5.496096     -0.952839      0.151705
14
Coordinates from ORCA-job ./scants E -399.092569333881
  O       1.433399     -0.290085      0.511398
  N      -1.969225      0.351154     -0.685403
  C      -0.627695      0.656510     -0.193993
  C       0.125948     -0.629240      0.066946
  H      -0.721946      1.209182      0.740610
  H      -0.041922      1.274293     -0.883334
  H       0.176505     -1.221724     -0.851601
  H      -0.399923     -1.217888      0.822521
  H      -1.913171     -0.010807     -1.629014
  H      -2.512003      1.201851     -0.744207
  H       1.916585     -1.103435      0.675251
  O      -4.090417     -2.183081      1.532883
  C      -4.785820     -1.571167      0.842820
  O      -5.485000     -0.961106      0.154830
14
Coordinates from ORCA-job ./scants E -399.092564602827
  O       1.427740     -0.295525      0.515641
  N      -1.969338      0.356900     -0.690872
  C      -0.628611      0.657738     -0.194467
  C       0.120759     -0.630452      0.066635
  H      -0.724458      1.209150      0.740699
  H      -0.039030      1.275162     -0.880894
  H       0.172500     -1.221454     -0.852817
  H      -0.408961     -1.218969      0.819613
  H      -1.911648     -0.004768     -1.634526
  H      -2.509609      1.209235     -0.751064
  H       1.907577     -1.110411      0.681678
  O      -4.074277     -2.178392      1.535775
  C      -4.775877     -1.573183      0.846043
  O      -5.481453     -0.970573      0.158262
14
Coordinates from ORCA-job ./scants E -399.092567505316
  O       1.431417     -0.292331      0.512567
  N      -1.969149      0.353482     -0.687549
  C      -0.627984      0.656992     -0.193945
  C       0.124071     -0.629733      0.066554
  H      -0.723051      1.209068      0.740902
  H      -0.040827      1.274901     -0.882018
  H       0.174809     -1.221241     -0.852638
  H      -0.403109     -1.218616      0.821022
  H      -1.912951     -0.009381     -1.630786
  H      -2.510617      1.205066     -0.747411
  H       1.912705     -1.106273      0.679008
  O      -4.082807     -2.180345      1.533115
  C      -4.782015     -1.571650      0.844001
  O      -5.485176     -0.965480      0.156883
14
Coordinates from ORCA-job ./scants E -399.087453664849
  O       1.448920     -0.295176      0.511717
  N      -2.029184      0.326302     -0.671810
  C      -0.626476      0.655789     -0.183037
  C       0.136672     -0.634222      0.073903
  H      -0.717371      1.211831      0.750088
  H      -0.043760      1.273699     -0.874898
  H       0.183108     -1.226539     -0.845005
  H      -0.377334     -1.226782      0.835393
  H      -1.936955     -0.021145     -1.655643
  H      -2.542380      1.221506     -0.750524
  H       1.932067     -1.108717      0.674745
  O      -4.076674     -2.178763      1.532543
  C      -4.738906     -1.531359      0.812922
  O      -5.506413     -0.961965      0.149311
14
Coordinates from ORCA-job ./scants E -399.091503446963
  O       1.431795     -0.285155      0.500306
  N      -2.009697      0.319018     -0.658104
  C      -0.642787      0.646213     -0.183611
  C       0.121467     -0.634486      0.070815
  H      -0.735169      1.206331      0.745974
  H      -0.072560      1.261237     -0.884231
  H       0.166441     -1.227400     -0.847272
  H      -0.385763     -1.226340      0.834758
  H      -1.915517     -0.012932     -1.611649
  H      -2.507419      1.196781     -0.742205
  H       1.919614     -1.095569      0.664995
  O      -4.068741     -2.166100      1.520771
  C      -4.731887     -1.531990      0.812057
  O      -5.464464     -0.945151      0.137102
14
Coordinates from ORCA-job ./scants E -399.092183256854
  O       1.427130     -0.282344      0.497035
  N      -2.004324      0.317525     -0.653814
  C      -0.652524      0.640462     -0.180761
  C       0.116249     -0.635609      0.071971
  H      -0.742208      1.200794      0.749512
  H      -0.087926      1.257318     -0.885996
  H       0.160037     -1.228534     -0.846534
  H      -0.388630     -1.228857      0.837115
  H      -1.915858     -0.019533     -1.604558
  H      -2.507243      1.191710     -0.738648
  H       1.918164     -1.090956      0.661330
  O      -4.055005     -2.156701      1.512846
  C      -4.728794     -1.532865      0.812899
  O      -5.433754     -0.927952      0.127309
14
Coordinates from ORCA-job ./scants E -399.092394468704
  O       1.426337     -0.282250      0.496797
  N      -2.004164      0.319478     -0.655632
  C      -0.656207      0.638448     -0.178248
  C       0.115302     -0.636736      0.073553
  H      -0.743218      1.196551      0.753936
  H      -0.092054      1.258025     -0.883155
  H       0.158519     -1.229444     -0.845304
  H      -0.389573     -1.231071      0.838757
  H      -1.925329     -0.027051     -1.604807
  H      -2.517221      1.188272     -0.739510
  H       1.918774     -1.090082      0.660472
  O      -4.043354     -2.150773      1.508139
  C      -4.726491     -1.532191      0.813443
  O      -5.416007     -0.916719      0.121265
14
Coordinates from ORCA-job ./scants E -399.092487517496
  O       1.425231     -0.282788      0.497349
  N      -2.003054      0.322921     -0.659261
  C      -0.656752      0.638603     -0.177350
  C       0.114768     -0.637624      0.074126
  H      -0.743341      1.193743      0.756555
  H      -0.090142      1.260415     -0.878887
  H       0.157954     -1.230262     -0.844783
  H      -0.391083     -1.232159      0.838827
  H      -1.933977     -0.034026     -1.605302
  H      -2.526912      1.185322     -0.740393
  H       1.918017     -1.090385      0.661024
  O      -4.035285     -2.147660      1.505690
  C      -4.722558     -1.530363      0.813004
  O      -5.407551     -0.911280      0.119108
14
Coordinates from ORCA-job ./scants E -399.092549616506
  O       1.423391     -0.283752      0.498367
  N      -2.000113      0.327035     -0.663210
  C      -0.655997      0.640013     -0.177887
  C       0.113671     -0.638068      0.073692
  H      -0.744309      1.191947      0.757635
  H      -0.084914      1.263691     -0.874289
  H       0.157155     -1.230692     -0.845188
  H      -0.394024     -1.232208      0.837460
  H      -1.940648     -0.041421     -1.604981
  H      -2.535274      1.182201     -0.739885
  H       1.915863     -1.091456      0.662494
  O      -4.029064     -2.145911      1.504296
  C      -4.716934     -1.527812      0.812033
  O      -5.403488     -0.909109      0.119169
14
Coordinates from ORCA-job ./scants E -399.092573296887
  O       1.422042     -0.284925      0.499607
  N      -1.997290      0.329428     -0.665310
  C      -0.654827      0.641749     -0.179412
  C       0.112631     -0.637687      0.072688
  H      -0.745707      1.191909      0.756936
  H      -0.079767      1.266125     -0.871953
  H       0.156624     -1.230208     -0.846219
  H      -0.397090     -1.231233      0.835437
  H      -1.942970     -0.046023     -1.604008
  H      -2.539138      1.180083     -0.738083
  H       1.913594     -1.093114      0.664183
  O      -4.026450     -2.145637      1.504023
  C      -4.712830     -1.526244      0.811255
  O      -5.403508     -0.909765      0.120561
14
Coordinates from ORCA-job ./scants E -399.092592546192
  O       1.421670     -0.285830      0.500595
  N      -1.996156      0.329688     -0.665424
  C      -0.654129      0.642816     -0.180588
  C       0.112219     -0.637019      0.072020
  H      -0.746428      1.192784      0.755807
  H      -0.077465      1.266988     -0.871995
  H       0.156680     -1.229330     -0.847001
  H      -0.398852     -1.230251      0.834048
  H      -1.942723     -0.047234     -1.603341
  H      -2.539648      1.179197     -0.736409
  H       1.912279     -1.094569      0.665264
  O      -4.026053     -2.145878      1.504128
  C      -4.711650     -1.526048      0.811147
  O      -5.404428     -0.910856      0.121453
14
Coordinates from ORCA-job ./scants E -399.092587329341
  O       1.421605     -0.286541      0.501507
  N      -1.995781      0.329337     -0.665042
  C      -0.653694      0.643491     -0.181396
  C       0.112132     -0.636452      0.071665
  H      -0.746553      1.193722      0.754827
  H      -0.076571      1.267259     -0.872782
  H       0.157061     -1.228520     -0.847499
  H      -0.399996     -1.229537      0.833086
  H      -1.942382     -0.047298     -1.603022
  H      -2.539685      1.178608     -0.735047
  H       1.911394     -1.095774      0.666140
  O      -4.025812     -2.146071      1.504094
  C      -4.711486     -1.526323      0.811237
  O      -5.404917     -0.911442      0.121938
14
Coordinates from ORCA-job ./scants E -399.088983947850
  O       1.440549     -0.287316      0.498966
  N      -2.040926      0.311058     -0.653204
  C      -0.678371      0.624952     -0.170678
  C       0.124006     -0.643115      0.081809
  H      -0.769986      1.175887      0.765255
  H      -0.116315      1.255548     -0.868481
  H       0.169670     -1.235789     -0.836929
  H      -0.365446     -1.242198      0.852781
  H      -1.952287     -0.049740     -1.628177
  H      -2.556237      1.202803     -0.738819
  H       1.934775     -1.094722      0.659382
  O      -4.015471     -2.136968      1.502229
  C      -4.652500     -1.477411      0.777720
  O      -5.416147     -0.898529      0.117850
14
Coordinates from ORCA-job ./scants E -399.091973286055
  O       1.421209     -0.275415      0.486388
  N      -2.034474      0.298089     -0.645627
  C      -0.683439      0.620292     -0.165541
  C       0.110357     -0.644979      0.076849
  H      -0.776918      1.168468      0.771878
  H      -0.124614      1.252830     -0.862612
  H       0.153021     -1.236308     -0.842651
  H      -0.374029     -1.244739      0.849611
  H      -1.944868     -0.050652     -1.593769
  H      -2.536332      1.172058     -0.739056
  H       1.920170     -1.079114      0.649511
  O      -3.998122     -2.116295      1.493253
  C      -4.655242     -1.479052      0.782597
  O      -5.371403     -0.880725      0.098874
14
Coordinates from ORCA-job ./scants E -399.092351266195
  O       1.414346     -0.272847      0.483657
  N      -2.033046      0.294075     -0.644661
  C      -0.686049      0.619435     -0.161786
  C       0.104380     -0.646637      0.075880
  H      -0.780449      1.164310      0.777482
  H      -0.126545      1.254861     -0.856130
  H       0.145300     -1.236637     -0.844748
  H      -0.379670     -1.248892      0.847721
  H      -1.947079     -0.060225     -1.589794
  H      -2.541000      1.164410     -0.739803
  H       1.916620     -1.074584      0.647583
  O      -3.982200     -2.103233      1.488528
  C      -4.654422     -1.481345      0.784587
  O      -5.344871     -0.868236      0.091189
14
Coordinates from ORCA-job ./scants E -399.092443010674
  O       1.412033     -0.274993      0.484515
  N      -2.031028      0.295572     -0.646571
  C      -0.686566      0.621505     -0.160285
  C       0.101573     -0.647105      0.075564
  H      -0.782725      1.163478      0.780399
  H      -0.124597      1.258841     -0.851119
  H       0.141699     -1.235334     -0.846264
  H      -0.384413     -1.251524      0.844922
  H      -1.949674     -0.066646     -1.589566
  H      -2.547904      1.160829     -0.741845
  H       1.914840     -1.076596      0.647637
  O      -3.972667     -2.097369      1.488075
  C      -4.650567     -1.478151      0.788144
  O      -5.334689     -0.868048      0.086100
14
Coordinates from ORCA-job ./scants E -399.092528615205
  O       1.407728     -0.279381      0.489097
  N      -2.026198      0.300080     -0.652550
  C      -0.686463      0.625418     -0.160757
  C       0.097170     -0.647343      0.075432
  H      -0.786463      1.163094      0.781854
  H      -0.118426      1.264593     -0.845247
  H       0.137782     -1.233599     -0.847662
  H      -0.394315     -1.253789      0.840098
  H      -1.956262     -0.075656     -1.591200
  H      -2.561145      1.154452     -0.743454
  H       1.910155     -1.081220      0.652176
  O      -3.955879     -2.090639      1.486983
  C      -4.639565     -1.480459      0.784974
  O      -5.322804     -0.861094      0.089964
14
Coordinates from ORCA-job ./scants E -399.092575679433
  O       1.405671     -0.283625      0.492765
  N      -2.022406      0.304109     -0.655182
  C      -0.685344      0.628620     -0.161960
  C       0.095378     -0.646219      0.074606
  H      -0.787100      1.165069      0.781188
  H      -0.113753      1.267444     -0.843951
  H       0.136854     -1.230543     -0.849709
  H      -0.400495     -1.253049      0.835953
  H      -1.957730     -0.079027     -1.590430
  H      -2.567059      1.151986     -0.742645
  H       1.905421     -1.087276      0.654854
  O      -3.949587     -2.089914      1.487773
  C      -4.633030     -1.475664      0.788261
  O      -5.321505     -0.867453      0.088184
14
Coordinates from ORCA-job ./scants E -399.092584565031
  O       1.404883     -0.285151      0.495909
  N      -2.021301      0.305537     -0.655746
  C      -0.684281      0.629415     -0.164270
  C       0.095485     -0.645268      0.074152
  H      -0.785506      1.167398      0.778146
  H      -0.111734      1.266536     -0.847213
  H       0.138704     -1.229449     -0.850225
  H      -0.403281     -1.250900      0.834413
  H      -1.958820     -0.077880     -1.590653
  H      -2.568361      1.151826     -0.738843
  H       1.902303     -1.090131      0.658452
  O      -3.948262     -2.092307      1.486892
  C      -4.630624     -1.476608      0.787126
  O      -5.323890     -0.868561      0.091566
14
Coordinates from ORCA-job ./scants E -399.092589762796
  O       1.404087     -0.286388      0.499508
  N      -2.020883      0.306239     -0.655482
  C      -0.683125      0.629945     -0.166946
  C       0.095745     -0.644555      0.073674
  H      -0.782771      1.170357      0.774305
  H      -0.110544      1.265006     -0.851953
  H       0.141164     -1.228797     -0.850587
  H      -0.406268     -1.248857      0.832845
  H      -1.960659     -0.075806     -1.590871
  H      -2.569550      1.151711     -0.733455
  H       1.899312     -1.092547      0.662890
  O      -3.946482     -2.094898      1.484836
  C      -4.629312     -1.478061      0.786341
  O      -5.325401     -0.868890      0.094600
14
Coordinates from ORCA-job ./scants E -399.092595142221
  O       1.403044     -0.287726      0.504303
  N      -2.020743      0.306684     -0.654574
  C      -0.681498      0.630523     -0.170509
  C       0.096054     -0.644023      0.073192
  H      -0.778397      1.174462      0.769026
  H      -0.109673      1.262800     -0.858841
  H       0.144526     -1.228568     -0.850711
  H      -0.410244     -1.246699      0.830861
  H      -1.963794     -0.072355     -1.591254
  H      -2.571174      1.151442     -0.725755
  H       1.896009     -1.095014      0.668954
  O      -3.943762     -2.098214      1.481298
  C      -4.628383     -1.479940      0.785797
  O      -5.326651     -0.868914      0.097920
14
Coordinates from ORCA-job ./scants E -399.092606353788
  O       1.401830     -0.288914      0.509843
  N      -2.020830      0.306853     -0.653029
  C      -0.679394      0.631051     -0.174731
  C       0.096349     -0.643851      0.072915
  H      -0.772522      1.179317      0.762659
  H      -0.109216      1.259941     -0.867505
  H       0.148493     -1.229190     -0.850236
  H      -0.414827     -1.244676      0.828852
  H      -1.968218     -0.067323     -1.591894
  H      -2.573114      1.151019     -0.716270
  H       1.893062     -1.096950      0.676020
  O      -3.940418     -2.102117      1.476304
  C      -4.627973     -1.482061      0.785398
  O      -5.327908     -0.868642      0.101379
14
Coordinates from ORCA-job ./scants E -399.092611327225
  O       1.401314     -0.289081      0.512288
  N      -2.020994      0.306714     -0.651907
  C      -0.678172      0.631127     -0.176797
  C       0.096431     -0.644151      0.073158
  H      -0.769096      1.181594      0.759487
  H      -0.109331      1.258196     -0.872155
  H       0.150307     -1.230481     -0.849214
  H      -0.416821     -1.243990      0.828497
  H      -1.970996     -0.063879     -1.592426
  H      -2.574095      1.150742     -0.711311
  H       1.892703     -1.096921      0.679026
  O      -3.938832     -2.104058      1.473112
  C      -4.628330     -1.483005      0.785168
  O      -5.328774     -0.868349      0.102778
14
Coordinates from ORCA-job ./scants E -399.092599467927
  O       1.401209     -0.288797      0.513040
  N      -2.021069      0.306578     -0.651195
  C      -0.677478      0.630979     -0.177717
  C       0.096433     -0.644528      0.073709
  H      -0.767256      1.182493      0.758035
  H      -0.109422      1.256990     -0.874505
  H       0.150865     -1.232014     -0.847867
  H      -0.417346     -1.243685      0.829228
  H      -1.972688     -0.061514     -1.592865
  H      -2.574610      1.150552     -0.708794
  H       1.893539     -1.096097      0.679592
  O      -3.938211     -2.105005      1.470941
  C      -4.628871     -1.483353      0.784769
  O      -5.329782     -0.868140      0.103335
14
Coordinates from ORCA-job ./scants E -399.092606569584
  O       1.401441     -0.288397      0.512509
  N      -2.021045      0.306486     -0.650967
  C      -0.677352      0.630770     -0.177648
  C       0.096421     -0.644732      0.074292
  H      -0.767027      1.182403      0.758035
  H      -0.109367      1.256474     -0.874697
  H       0.150415     -1.233112     -0.846738
  H      -0.416802     -1.243474      0.830515
  H      -1.973056     -0.060736     -1.593033
  H      -2.574704      1.150441     -0.708389
  H       1.894718     -1.095268      0.678301
  O      -3.938341     -2.105000      1.470053
  C      -4.629352     -1.483269      0.784302
  O      -5.330635     -0.868129      0.103170
14
Coordinates from ORCA-job ./scants E -399.089123660902
  O       1.420324     -0.289410      0.510295
  N      -2.065996      0.288365     -0.639150
  C      -0.701822      0.612275     -0.166930
  C       0.108272     -0.651370      0.084408
  H      -0.790391      1.164694      0.768396
  H      -0.148758      1.244602     -0.870193
  H       0.163069     -1.240253     -0.836254
  H      -0.382540     -1.256342      0.850130
  H      -1.983547     -0.063163     -1.618719
  H      -2.591625      1.174841     -0.712135
  H       1.917879     -1.094539      0.671835
  O      -3.927803     -2.095637      1.467998
  C      -4.570154     -1.434259      0.750609
  O      -5.341593     -0.855346      0.099416
14
Coordinates from ORCA-job ./scants E -399.092051449286
  O       1.400973     -0.277291      0.497029
  N      -2.059078      0.275879     -0.632014
  C      -0.706855      0.607360     -0.161541
  C       0.094501     -0.653418      0.079622
  H      -0.797643      1.156707      0.775427
  H      -0.156634      1.241846     -0.863524
  H       0.145718     -1.241256     -0.841656
  H      -0.390689     -1.258656      0.847647
  H      -1.975360     -0.064324     -1.583737
  H      -2.571252      1.144974     -0.713361
  H       1.903609     -1.078519      0.660960
  O      -3.911272     -2.075156      1.459603
  C      -4.572456     -1.435595      0.754872
  O      -5.298246     -0.838092      0.080378
14
Coordinates from ORCA-job ./scants E -399.092425463125
  O       1.394462     -0.274388      0.493027
  N      -2.057524      0.271830     -0.630940
  C      -0.709673      0.606301     -0.157132
  C       0.088508     -0.655099      0.078891
  H      -0.801704      1.151941      0.781911
  H      -0.158492      1.244122     -0.855852
  H       0.137039     -1.241941     -0.843372
  H      -0.395423     -1.262521      0.846742
  H      -1.976791     -0.074764     -1.579248
  H      -2.575408      1.137329     -0.714802
  H       1.900910     -1.073477      0.656963
  O      -3.896076     -2.061345      1.455350
  C      -4.572071     -1.437253      0.756776
  O      -5.272442     -0.826278      0.071392
14
Coordinates from ORCA-job ./scants E -399.092516325561
  O       1.392734     -0.276136      0.492608
  N      -2.055633      0.273107     -0.632720
  C      -0.710481      0.608159     -0.154993
  C       0.085852     -0.655579      0.078951
  H      -0.804586      1.150543      0.785659
  H      -0.156606      1.248313     -0.849730
  H       0.132637     -1.241112     -0.844270
  H      -0.398991     -1.264868      0.845178
  H      -1.978908     -0.082104     -1.578744
  H      -2.582061      1.133606     -0.717484
  H       1.900275     -1.074901      0.654902
  O      -3.887208     -2.054445      1.455161
  C      -4.568849     -1.434311      0.759450
  O      -5.262862     -0.825813      0.065737
14
Coordinates from ORCA-job ./scants E -399.092595224395
  O       1.389958     -0.279654      0.494255
  N      -2.051205      0.277031     -0.637891
  C      -0.710865      0.611589     -0.154036
  C       0.082084     -0.655717      0.079520
  H      -0.809217      1.149282      0.788769
  H      -0.150916      1.254188     -0.841988
  H       0.127311     -1.240096     -0.844540
  H      -0.405835     -1.266456      0.842989
  H      -1.983836     -0.092279     -1.579287
  H      -2.593831      1.127382     -0.720288
  H       1.898071     -1.078444      0.654553
  O      -3.873208     -2.046111      1.454879
  C      -4.559974     -1.435660      0.755823
  O      -5.253223     -0.820597      0.066948
14
Coordinates from ORCA-job ./scants E -399.092634013635
  O       1.388532     -0.283681      0.496112
  N      -2.047201      0.280983     -0.640389
  C      -0.710116      0.614910     -0.153984
  C       0.080205     -0.654638      0.079155
  H      -0.810888      1.150575      0.789739
  H      -0.146173      1.257850     -0.838514
  H       0.124695     -1.237287     -0.846067
  H      -0.410804     -1.265827      0.840159
  H      -1.984828     -0.097676     -1.577672
  H      -2.600176      1.124150     -0.720645
  H       1.894761     -1.084096      0.653974
  O      -3.867012     -2.043093      1.456114
  C      -4.554020     -1.429995      0.758925
  O      -5.251661     -0.827715      0.062798
14
Coordinates from ORCA-job ./scants E -399.092643259735
  O       1.388292     -0.284551      0.498167
  N      -2.046416      0.281912     -0.640577
  C      -0.709223      0.615344     -0.155740
  C       0.080589     -0.653836      0.078972
  H      -0.809508      1.152452      0.787279
  H      -0.144711      1.256775     -0.841330
  H       0.126145     -1.236616     -0.846157
  H      -0.412248     -1.263844      0.839607
  H      -1.985622     -0.096622     -1.577670
  H      -2.600778      1.124073     -0.717316
  H       1.892800     -1.085996      0.656218
  O      -3.866856     -2.044978      1.455392
  C      -4.552617     -1.431335      0.757067
  O      -5.254532     -0.828320      0.065794
14
Coordinates from ORCA-job ./scants E -399.092648197183
  O       1.388060     -0.285391      0.500668
  N      -2.046027      0.282357     -0.639976
  C      -0.708169      0.615725     -0.157812
  C       0.081078     -0.653145      0.078711
  H      -0.807085      1.155061      0.784126
  H      -0.143797      1.255303     -0.845393
  H       0.128034     -1.236119     -0.846251
  H      -0.414048     -1.261877      0.838858
  H      -1.987124     -0.095041     -1.577407
  H      -2.601566      1.123865     -0.712372
  H       1.890805     -1.087860      0.659133
  O      -3.866163     -2.046861      1.453709
  C      -4.552056     -1.432606      0.755871
  O      -5.256628     -0.828954      0.067840
14
Coordinates from ORCA-job ./scants E -399.092652583934
  O       1.387798     -0.286322      0.503880
  N      -2.045802      0.282563     -0.638688
  C      -0.706716      0.616206     -0.160467
  C       0.081649     -0.652582      0.078478
  H      -0.803336      1.158605      0.779969
  H      -0.143144      1.253408     -0.851014
  H       0.130482     -1.235961     -0.846125
  H      -0.416474     -1.259819      0.837893
  H      -1.989769     -0.092673     -1.577014
  H      -2.602877      1.123354     -0.705449
  H       1.888801     -1.089759      0.662988
  O      -3.864808     -2.048939      1.450897
  C      -4.551992     -1.434055      0.754835
  O      -5.258497     -0.829572      0.069525
14
Coordinates from ORCA-job ./scants E -399.092664612829
  O       1.387493     -0.287417      0.508503
  N      -2.045650      0.282554     -0.636215
  C      -0.704349      0.616862     -0.164446
  C       0.082458     -0.652134      0.078364
  H      -0.797001      1.163946      0.773669
  H      -0.142646      1.250464     -0.859839
  H       0.134120     -1.236521     -0.845406
  H      -0.420028     -1.257221      0.836689
  H      -1.994560     -0.088476     -1.576421
  H      -2.605085      1.122328     -0.694580
  H       1.886731     -1.091757      0.668630
  O      -3.862638     -2.051804      1.445997
  C      -4.552585     -1.436047      0.753517
  O      -5.260947     -0.830318      0.071243
14
Coordinates from ORCA-job ./scants E -399.092668574851
  O       1.387478     -0.287656      0.510802
  N      -2.045639      0.282307     -0.634236
  C      -0.702735      0.617117     -0.166760
  C       0.082923     -0.652226      0.078621
  H      -0.792624      1.166984      0.769973
  H      -0.142670      1.248490     -0.865366
  H       0.136128     -1.237805     -0.844259
  H      -0.421804     -1.255979      0.836558
  H      -1.998115     -0.085279     -1.576050
  H      -2.606548      1.121508     -0.687707
  H       1.886645     -1.091953      0.671423
  O      -3.861575     -2.053286      1.442510
  C      -4.553615     -1.437071      0.752653
  O      -5.262534     -0.830693      0.071542
14
Coordinates from ORCA-job ./scants E -399.092652082419
  O       1.387777     -0.287287      0.511240
  N      -2.045665      0.282010     -0.632792
  C      -0.701771      0.617034     -0.167782
  C       0.083229     -0.652541      0.079161
  H      -0.790025      1.168238      0.768295
  H      -0.142832      1.247166     -0.868240
  H       0.136840     -1.239473     -0.842809
  H      -0.422007     -1.255426      0.837457
  H      -2.000412     -0.083062     -1.575798
  H      -2.607340      1.120969     -0.683958
  H       1.887889     -1.091008      0.671768
  O      -3.861635     -2.053834      1.440290
  C      -4.554836     -1.437438      0.751850
  O      -5.263898     -0.830889      0.071025
14
Coordinates from ORCA-job ./scants E -399.092658933836
  O       1.388289     -0.286713      0.510456
  N      -2.045654      0.281782     -0.631973
  C      -0.701417      0.616798     -0.167832
  C       0.083450     -0.652773      0.079767
  H      -0.789098      1.168344      0.768087
  H      -0.142885      1.246440     -0.868959
  H       0.136566     -1.240865     -0.841485
  H      -0.421172     -1.255080      0.838934
  H      -2.001340     -0.082127     -1.575523
  H      -2.607578      1.120664     -0.682598
  H       1.889507     -1.089860      0.670356
  O      -3.862421     -2.053692      1.439301
  C      -4.555894     -1.437399      0.751059
  O      -5.265038     -0.831061      0.070114
14
Coordinates from ORCA-job ./scants E -399.089483784543
  O       1.387824     -0.260875      0.506917
  N      -2.086866      0.265636     -0.626272
  C      -0.730711      0.581252     -0.158426
  C       0.089002     -0.674687      0.088028
  H      -0.818780      1.126693      0.781054
  H      -0.182194      1.219718     -0.859607
  H       0.153785     -1.264191     -0.831650
  H      -0.377671     -1.294515      0.861923
  H      -2.015461     -0.077174     -1.609006
  H      -2.613302      1.151540     -0.681187
  H       1.918324     -1.046015      0.665470
  O      -3.850879     -2.045522      1.427596
  C      -4.493850     -1.378915      0.718853
  O      -5.273905     -0.798485      0.076011
14
Coordinates from ORCA-job ./scants E -399.092189391231
  O       1.377589     -0.261676      0.495816
  N      -2.086712      0.256066     -0.622562
  C      -0.736595      0.581682     -0.150527
  C       0.077287     -0.672651      0.087813
  H      -0.826755      1.125594      0.789876
  H      -0.186489      1.220768     -0.848657
  H       0.134520     -1.261522     -0.832305
  H      -0.385595     -1.288160      0.861308
  H      -2.010820     -0.078339     -1.576898
  H      -2.603964      1.123294     -0.690705
  H       1.906253     -1.048144      0.649937
  O      -3.822842     -2.016323      1.420751
  C      -4.496710     -1.385540      0.720762
  O      -5.233851     -0.790589      0.055096
14
Coordinates from ORCA-job ./scants E -399.092480997916
  O       1.374612     -0.268590      0.494178
  N      -2.084872      0.253225     -0.621849
  C      -0.738587      0.586453     -0.145131
  C       0.071325     -0.669527      0.087149
  H      -0.831592      1.127476      0.796533
  H      -0.186843      1.228443     -0.839671
  H       0.123660     -1.255324     -0.835424
  H      -0.395946     -1.285704      0.857466
  H      -2.008347     -0.090220     -1.571521
  H      -2.609617      1.115215     -0.696881
  H       1.898784     -1.058789      0.644807
  O      -3.803000     -1.999925      1.420109
  C      -4.493788     -1.384461      0.728182
  O      -5.210475     -0.793815      0.041760
14
Coordinates from ORCA-job ./scants E -399.092527349701
  O       1.372199     -0.276756      0.497225
  N      -2.080934      0.253303     -0.623309
  C      -0.738744      0.592540     -0.142257
  C       0.067477     -0.666313      0.084614
  H      -0.836046      1.128998      0.801441
  H      -0.185432      1.238866     -0.831889
  H       0.118274     -1.246708     -0.841606
  H      -0.407704     -1.285325      0.848608
  H      -2.005153     -0.101284     -1.569299
  H      -2.615721      1.108927     -0.703333
  H       1.890953     -1.071089      0.644929
  O      -3.790285     -1.981841      1.432092
  C      -4.485764     -1.393358      0.723086
  O      -5.197808     -0.795501      0.039404
14
Coordinates from ORCA-job ./scants E -399.092637436872
  O       1.370314     -0.283574      0.501960
  N      -2.076706      0.255096     -0.625069
  C      -0.737587      0.597900     -0.141949
  C       0.065440     -0.663728      0.081942
  H      -0.838249      1.131228      0.803099
  H      -0.183181      1.247210     -0.828106
  H       0.116695     -1.239406     -0.847268
  H      -0.417915     -1.284933      0.839612
  H      -2.003332     -0.108764     -1.567882
  H      -2.620065      1.104814     -0.707242
  H       1.884164     -1.081307      0.648362
  O      -3.782733     -1.978432      1.436706
  C      -4.479196     -1.387171      0.730837
  O      -5.192333     -0.804476      0.034702
14
Coordinates from ORCA-job ./scants E -399.092667329369
  O       1.367534     -0.289591      0.508844
  N      -2.072453      0.258035     -0.627679
  C      -0.735986      0.602275     -0.143368
  C       0.064258     -0.661920      0.078646
  H      -0.839539      1.132259      0.803300
  H      -0.180547      1.254356     -0.826168
  H       0.118430     -1.232398     -0.853655
  H      -0.427993     -1.285250      0.828966
  H      -2.003059     -0.114331     -1.567021
  H      -2.624971      1.101471     -0.709105
  H       1.876968     -1.090186      0.654984
  O      -3.776302     -1.974602      1.443336
  C      -4.471415     -1.384361      0.734304
  O      -5.189611     -0.811301      0.034322
14
Coordinates from ORCA-job ./scants E -399.092681439371
  O       1.365422     -0.291906      0.513261
  N      -2.070768      0.260100     -0.629258
  C      -0.735154      0.603608     -0.145051
  C       0.063822     -0.661658      0.076955
  H      -0.839130      1.132251      0.802392
  H      -0.179051      1.256388     -0.826713
  H       0.120756     -1.229783     -0.856657
  H      -0.433024     -1.285629      0.823654
  H      -2.004898     -0.115763     -1.567247
  H      -2.628362      1.100148     -0.707497
  H       1.873160     -1.093446      0.660073
  O      -3.772018     -1.972377      1.445655
  C      -4.467298     -1.384190      0.734720
  O      -5.188143     -0.813285      0.035418
14
Coordinates from ORCA-job ./scants E -399.092690288199
  O       1.364198     -0.291830      0.515445
  N      -2.070622      0.261611     -0.629991
  C      -0.734647      0.603182     -0.146962
  C       0.063773     -0.662311      0.076668
  H      -0.837311      1.132328      0.800391
  H      -0.178023      1.254881     -0.829288
  H       0.122694     -1.230658     -0.856676
  H      -0.434627     -1.285510      0.822880
  H      -2.008113     -0.113963     -1.568129
  H      -2.630569      1.100317     -0.703258
  H       1.871955     -1.093106      0.663649
  O      -3.769629     -1.972852      1.444168
  C      -4.465753     -1.384781      0.733907
  O      -5.188011     -0.812853      0.036901
14
Coordinates from ORCA-job ./scants E -399.092696570716
  O       1.363498     -0.290822      0.516317
  N      -2.071056      0.263063     -0.630131
  C      -0.734059      0.602164     -0.149314
  C       0.063637     -0.663345      0.077418
  H      -0.834172      1.133407      0.797150
  H      -0.176779      1.251241     -0.833667
  H       0.123766     -1.233924     -0.854438
  H      -0.434945     -1.284422      0.825199
  H      -2.012608     -0.109806     -1.569437
  H      -2.632576      1.101111     -0.696330
  H       1.871892     -1.091346      0.666432
  O      -3.767679     -1.975280      1.439993
  C      -4.465236     -1.385942      0.732281
  O      -5.188369     -0.811643      0.038232
14
Coordinates from ORCA-job ./scants E -399.092700958319
  O       1.363682     -0.289918      0.515692
  N      -2.071529      0.264000     -0.629541
  C      -0.733351      0.601476     -0.151306
  C       0.063355     -0.664058      0.078922
  H      -0.830889      1.135766      0.793687
  H      -0.175521      1.247371     -0.838263
  H       0.123120     -1.238024     -0.850816
  H      -0.434526     -1.282294      0.829500
  H      -2.016505     -0.104974     -1.570483
  H      -2.633881      1.101883     -0.689246
  H       1.872550     -1.089853      0.667353
  O      -3.766716     -1.978688      1.435156
  C      -4.465482     -1.387398      0.730367
  O      -5.188992     -0.810831      0.038682
14
Coordinates from ORCA-job ./scants E -399.092702294269
  O       1.364680     -0.289631      0.513869
  N      -2.071731      0.264578     -0.628245
  C      -0.732347      0.601449     -0.152969
  C       0.062923     -0.664267      0.081032
  H      -0.827537      1.139538      0.790065
  H      -0.174167      1.243838     -0.842929
  H       0.120679     -1.242438     -0.846178
  H      -0.433975     -1.278920      0.835227
  H      -2.019677     -0.099909     -1.571072
  H      -2.634900      1.102304     -0.682054
  H       1.873481     -1.089416      0.666544
  O      -3.766446     -1.982449      1.430372
  C      -4.466035     -1.389273      0.728062
  O      -5.189634     -0.810946      0.037981
14
Coordinates from ORCA-job ./scants E -399.092703564632
  O       1.366505     -0.290137      0.511013
  N      -2.071534      0.264891     -0.626175
  C      -0.730890      0.602155     -0.154387
  C       0.062496     -0.663920      0.083664
  H      -0.823996      1.144718      0.786249
  H      -0.172734      1.240812     -0.847784
  H       0.116545     -1.246925     -0.840720
  H      -0.433452     -1.274140      0.842130
  H      -2.022196     -0.094756     -1.571026
  H      -2.635905      1.102194     -0.674505
  H       1.874554     -1.090305      0.664129
  O      -3.766963     -1.986275      1.426002
  C      -4.466790     -1.391629      0.725183
  O      -5.190324     -0.812224      0.035932
14
Coordinates from ORCA-job ./scants E -399.092702220614
  O       1.368212     -0.291104      0.508684
  N      -2.071021      0.264807     -0.624291
  C      -0.729663      0.603151     -0.154870
  C       0.062456     -0.663255      0.085361
  H      -0.821907      1.148482      0.784242
  H      -0.172050      1.239834     -0.850456
  H       0.113095     -1.249087     -0.837449
  H      -0.433182     -1.270471      0.846480
  H      -2.022963     -0.092312     -1.570211
  H      -2.636590      1.101491     -0.670099
  H       1.875301     -1.091946      0.661439
  O      -3.768195     -1.987839      1.424512
  C      -4.467470     -1.393212      0.723108
  O      -5.190707     -0.814078      0.033256
14
Coordinates from ORCA-job ./scants E -399.092705409813
  O       1.369335     -0.291832      0.507601
  N      -2.070528      0.264352     -0.622963
  C      -0.728985      0.603854     -0.154548
  C       0.062927     -0.662673      0.085712
  H      -0.821330      1.149794      0.784215
  H      -0.172262      1.240499     -0.850826
  H       0.111757     -1.248832     -0.837025
  H      -0.432913     -1.269084      0.847357
  H      -2.022476     -0.092694     -1.568945
  H      -2.636899      1.100510     -0.668948
  H       1.875888     -1.093191      0.659446
  O      -3.770029     -1.986946      1.425776
  C      -4.468276     -1.393573      0.722239
  O      -5.190894     -0.815726      0.030614
14
Coordinates from ORCA-job ./scants E -399.089415005720
  O       1.368402     -0.266695      0.504208
  N      -2.111276      0.248406     -0.617147
  C      -0.757736      0.568585     -0.145362
  C       0.068096     -0.684513      0.094084
  H      -0.850133      1.108686      0.796791
  H      -0.210834      1.213554     -0.841881
  H       0.128270     -1.272540     -0.826866
  H      -0.390207     -1.307471      0.870573
  H      -2.036940     -0.088026     -1.602814
  H      -2.643015      1.131874     -0.667362
  H       1.903515     -1.050205      0.654975
  O      -3.757582     -1.978725      1.414019
  C      -4.405815     -1.334964      0.689738
  O      -5.199429     -0.783508      0.036749
14
Coordinates from ORCA-job ./scants E -399.092106360287
  O       1.357861     -0.267365      0.494703
  N      -2.110952      0.239174     -0.613726
  C      -0.763319      0.568972     -0.137959
  C       0.056938     -0.682620      0.093035
  H      -0.857676      1.107203      0.805279
  H      -0.215386      1.214887     -0.831487
  H       0.111146     -1.268791     -0.829001
  H      -0.398609     -1.302432      0.867458
  H      -2.032514     -0.089288     -1.569936
  H      -2.633315      1.103652     -0.677320
  H       1.891245     -1.052047      0.641450
  O      -3.731349     -1.950021      1.408373
  C      -4.408265     -1.340991      0.692164
  O      -5.160490     -0.775876      0.016671
14
Coordinates from ORCA-job ./scants E -399.092404759244
  O       1.354265     -0.273916      0.494747
  N      -2.109461      0.236152     -0.612958
  C      -0.765439      0.573389     -0.133041
  C       0.051318     -0.679649      0.091418
  H      -0.862249      1.108394      0.811658
  H      -0.216453      1.222527     -0.823107
  H       0.102546     -1.261425     -0.833764
  H      -0.409507     -1.301440      0.861005
  H      -2.030537     -0.101523     -1.564371
  H      -2.638947      1.095498     -0.683509
  H       1.883347     -1.062086      0.638646
  O      -3.711979     -1.933575      1.408559
  C      -4.405447     -1.339836      0.700293
  O      -5.136142     -0.778052      0.004130
14
Coordinates from ORCA-job ./scants E -399.092451489944
  O       1.351262     -0.281670      0.499590
  N      -2.105997      0.236117     -0.614426
  C      -0.765718      0.579099     -0.130880
  C       0.047859     -0.676591      0.087909
  H      -0.866306      1.109250      0.816038
  H      -0.215700      1.232784     -0.816208
  H       0.099651     -1.251761     -0.841514
  H      -0.421740     -1.302473      0.849646
  H      -2.028024     -0.112672     -1.562434
  H      -2.645055      1.089438     -0.689845
  H       1.875092     -1.073727      0.641451
  O      -3.700067     -1.916298      1.420931
  C      -4.397335     -1.348280      0.696823
  O      -5.122605     -0.778758      0.002625
14
Coordinates from ORCA-job ./scants E -399.092547621088
  O       1.348653     -0.288706      0.505909
  N      -2.101955      0.237796     -0.616297
  C      -0.764714      0.584584     -0.130981
  C       0.045785     -0.673877      0.084279
  H      -0.868440      1.111106      0.817563
  H      -0.213893      1.241640     -0.812677
  H       0.099649     -1.243061     -0.848792
  H      -0.433170     -1.303056      0.838091
  H      -2.026586     -0.120885     -1.561137
  H      -2.649746      1.085151     -0.694152
  H       1.867291     -1.084276      0.647097
  O      -3.692248     -1.912719      1.426787
  C      -4.390313     -1.342176      0.705452
  O      -5.114999     -0.787063     -0.001435
14
Coordinates from ORCA-job ./scants E -399.092593346984
  O       1.345235     -0.294721      0.514052
  N      -2.097923      0.240713     -0.619085
  C      -0.763223      0.588981     -0.132850
  C       0.044643     -0.671990      0.080095
  H      -0.869530      1.111722      0.817560
  H      -0.211676      1.249079     -0.811099
  H       0.102970     -1.234926     -0.856543
  H      -0.443982     -1.304188      0.825265
  H      -2.026568     -0.126636     -1.560334
  H      -2.654552      1.081849     -0.696530
  H       1.859262     -1.093195      0.655629
  O      -3.686694     -1.909491      1.435001
  C      -4.382047     -1.339412      0.709788
  O      -5.110600     -0.793328     -0.001242
14
Coordinates from ORCA-job ./scants E -399.092600398616
  O       1.343070     -0.296721      0.518236
  N      -2.096491      0.242813     -0.620750
  C      -0.762503      0.590162     -0.134659
  C       0.044183     -0.671783      0.078329
  H      -0.868995      1.111557      0.816536
  H      -0.210405      1.250876     -0.811901
  H       0.105433     -1.232513     -0.859473
  H      -0.448778     -1.304508      0.820105
  H      -2.028521     -0.127696     -1.560781
  H      -2.657623      1.080873     -0.695141
  H       1.855445     -1.096030      0.661029
  O      -3.683556     -1.908579      1.437778
  C      -4.377790     -1.339551      0.710308
  O      -5.108154     -0.794442      0.000089
14
Coordinates from ORCA-job ./scants E -399.092606482272
  O       1.341784     -0.296740      0.520178
  N      -2.096382      0.244474     -0.621666
  C      -0.762102      0.589875     -0.136517
  C       0.043954     -0.672371      0.077985
  H      -0.867388      1.111638      0.814648
  H      -0.209422      1.249616     -0.814286
  H       0.107038     -1.233363     -0.859526
  H      -0.450511     -1.304242      0.819374
  H      -2.031640     -0.125932     -1.561759
  H      -2.659794      1.081179     -0.691388
  H       1.853979     -1.095875      0.664623
  O      -3.681766     -1.909851      1.437066
  C      -4.375789     -1.340342      0.709717
  O      -5.106646     -0.793610      0.001258
14
Coordinates from ORCA-job ./scants E -399.092613101629
  O       1.341109     -0.295869      0.520548
  N      -2.096851      0.246082     -0.622027
  C      -0.761685      0.589057     -0.138638
  C       0.043593     -0.673304      0.078754
  H      -0.864763      1.112728      0.811728
  H      -0.208212      1.246395     -0.818155
  H       0.107424     -1.236599     -0.857276
  H      -0.450841     -1.302989      0.821935
  H      -2.035757     -0.121947     -1.563135
  H      -2.661653      1.082173     -0.685360
  H       1.853708     -1.094376      0.667040
  O      -3.680638     -1.913230      1.433944
  C      -4.374784     -1.341690      0.708355
  O      -5.105336     -0.791974      0.001993
14
Coordinates from ORCA-job ./scants E -399.092617223179
  O       1.341209     -0.295040      0.519515
  N      -2.097392      0.247362     -0.621698
  C      -0.761108      0.588504     -0.140620
  C       0.043023     -0.674012      0.080373
  H      -0.861770      1.115246      0.808284
  H      -0.206807      1.242619     -0.822628
  H       0.106091     -1.240970     -0.853437
  H      -0.450541     -1.300614      0.826710
  H      -2.039693     -0.116900     -1.564379
  H      -2.663043      1.083246     -0.678529
  H       1.854094     -1.093026      0.667866
  O      -3.680215     -1.917872      1.429779
  C      -4.374414     -1.343490      0.706562
  O      -5.104119     -0.790596      0.001908
14
Coordinates from ORCA-job ./scants E -399.092620016115
  O       1.342064     -0.294783      0.517320
  N      -2.097700      0.248382     -0.620658
  C      -0.760196      0.588595     -0.142422
  C       0.042256     -0.674250      0.082672
  H      -0.858531      1.119361      0.804441
  H      -0.205186      1.238938     -0.827480
  H       0.102920     -1.245841     -0.848427
  H      -0.450186     -1.296893      0.833081
  H      -2.043119     -0.111311     -1.565245
  H      -2.664192      1.084081     -0.671250
  H       1.854693     -1.092652      0.667166
  O      -3.680455     -1.923316      1.425390
  C      -4.374277     -1.345855      0.704305
  O      -5.102779     -0.789998      0.000811
14
Coordinates from ORCA-job ./scants E -399.092618524721
  O       1.343600     -0.295393      0.514341
  N      -2.097608      0.249154     -0.618901
  C      -0.758860      0.589489     -0.143981
  C       0.041455     -0.673895      0.085350
  H      -0.855172      1.124851      0.800461
  H      -0.203523      1.235917     -0.832449
  H       0.098216     -1.250510     -0.842883
  H      -0.450106     -1.291931      0.840195
  H      -2.045788     -0.105819     -1.565446
  H      -2.665265      1.084417     -0.663959
  H       1.855227     -1.093715      0.665174
  O      -3.681438     -1.928901      1.421588
  C      -4.374188     -1.348725      0.701661
  O      -5.101233     -0.790479     -0.001444
14
Coordinates from ORCA-job ./scants E -399.092618573446
  O       1.345116     -0.296527      0.512065
  N      -2.097156      0.249364     -0.617083
  C      -0.757611      0.590710     -0.144681
  C       0.041150     -0.673156      0.087093
  H      -0.852956      1.129143      0.798101
  H      -0.202666      1.234874     -0.835520
  H       0.094403     -1.252781     -0.839502
  H      -0.450326     -1.288005      0.844640
  H      -2.046730     -0.102988     -1.564727
  H      -2.665959      1.084037     -0.659540
  H       1.855511     -1.095621      0.662943
  O      -3.683044     -1.931957      1.420326
  C      -4.374306     -1.350803      0.699720
  O      -5.100111     -0.791832     -0.004127
14
Coordinates from ORCA-job ./scants E -399.092618981268
  O       1.346464     -0.297501      0.510420
  N      -2.096647      0.249281     -0.615307
  C      -0.756533      0.591733     -0.144916
  C       0.041355     -0.672448      0.088044
  H      -0.851285      1.131980      0.796896
  H      -0.202495      1.234763     -0.837471
  H       0.091925     -1.253622     -0.837764
  H      -0.450403     -1.285192      0.847135
  H      -2.047019     -0.101975     -1.563431
  H      -2.666492      1.083324     -0.656642
  H       1.855912     -1.097268      0.660955
  O      -3.685255     -1.933206      1.420581
  C      -4.374810     -1.352135      0.698222
  O      -5.099401     -0.793275     -0.007014
14
Coordinates from ORCA-job ./scants E -399.089307817442
  O       1.345276     -0.273103      0.507214
  N      -2.136938      0.233571     -0.609246
  C      -0.784738      0.556706     -0.135868
  C       0.046278     -0.694266      0.096499
  H      -0.879198      1.091305      0.809214
  H      -0.240355      1.207636     -0.828812
  H       0.107796     -1.277507     -0.827414
  H      -0.408317     -1.322927      0.870544
  H      -2.062047     -0.097525     -1.597661
  H      -2.673231      1.115309     -0.654818
  H       1.882694     -1.055212      0.656906
  O      -3.672199     -1.924737      1.408607
  C      -4.311900     -1.293437      0.665417
  O      -5.107807     -0.761356     -0.000875
14
Coordinates from ORCA-job ./scants E -399.091952944531
  O       1.334926     -0.273892      0.497998
  N      -2.136121      0.224833     -0.606048
  C      -0.789968      0.557349     -0.128381
  C       0.035388     -0.692330      0.095222
  H      -0.886528      1.089854      0.817855
  H      -0.244765      1.209389     -0.818241
  H       0.091147     -1.273221     -0.830070
  H      -0.416784     -1.318286      0.866629
  H      -2.057039     -0.098889     -1.563830
  H      -2.662839      1.086937     -0.665439
  H       1.870650     -1.057253      0.643277
  O      -3.647580     -1.895578      1.404196
  C      -4.314023     -1.299160      0.667203
  O      -5.071149     -0.755294     -0.020666
14
Coordinates from ORCA-job ./scants E -399.092269984828
  O       1.331511     -0.280295      0.497708
  N      -2.134715      0.221552     -0.604881
  C      -0.792291      0.561549     -0.122866
  C       0.029931     -0.689413      0.093480
  H      -0.891373      1.090432      0.825022
  H      -0.246320      1.217253     -0.809036
  H       0.082651     -1.265408     -0.835245
  H      -0.427158     -1.317824      0.859769
  H      -2.054548     -0.111982     -1.557428
  H      -2.668184      1.078518     -0.672027
  H       1.863289     -1.067055      0.639356
  O      -3.628153     -1.876924      1.404880
  C      -4.312063     -1.297143      0.675627
  O      -5.047262     -0.758801     -0.034653
14
Coordinates from ORCA-job ./scants E -399.092306645119
  O       1.328837     -0.287924      0.502100
  N      -2.131480      0.221071     -0.605815
  C      -0.792897      0.566980     -0.119897
  C       0.026734     -0.686407      0.089776
  H      -0.895869      1.090294      0.830554
  H      -0.246183      1.227933     -0.800861
  H       0.079913     -1.255116     -0.843563
  H      -0.438603     -1.319621      0.847963
  H      -2.051491     -0.124415     -1.554933
  H      -2.674276      1.072272     -0.678873
  H       1.855824     -1.078469      0.640691
  O      -3.616215     -1.855587      1.418409
  C      -4.304737     -1.305894      0.671805
  O      -5.034241     -0.760658     -0.037651
14
Coordinates from ORCA-job ./scants E -399.092403285145
  O       1.327118     -0.293460      0.507202
  N      -2.128219      0.222386     -0.606994
  C      -0.792051      0.571254     -0.119766
  C       0.025548     -0.684257      0.086568
  H      -0.897586      1.091202      0.832221
  H      -0.244923      1.235343     -0.797544
  H       0.080613     -1.247619     -0.849963
  H      -0.447165     -1.320649      0.838053
  H      -2.050124     -0.131592     -1.553585
  H      -2.677763      1.068956     -0.682494
  H       1.850219     -1.086754      0.644696
  O      -3.610692     -1.851612      1.423632
  C      -4.299982     -1.298993      0.679799
  O      -5.029679     -0.769747     -0.042119
14
Coordinates from ORCA-job ./scants E -399.092446081777
  O       1.324238     -0.299346      0.514632
  N      -2.124279      0.224743     -0.609088
  C      -0.790737      0.575496     -0.120693
  C       0.024752     -0.682313      0.082112
  H      -0.898940      1.090919      0.833512
  H      -0.243182      1.243297     -0.794561
  H       0.083965     -1.238755     -0.858350
  H      -0.456982     -1.322460      0.824804
  H      -2.049505     -0.138523     -1.551852
  H      -2.682003      1.065382     -0.685608
  H       1.843184     -1.095476      0.651397
  O      -3.605709     -1.844473      1.433177
  C      -4.293040     -1.295442      0.684161
  O      -5.026447     -0.778592     -0.043937
14
Coordinates from ORCA-job ./scants E -399.092455152293
  O       1.321970     -0.302235      0.519444
  N      -2.122299      0.226737     -0.610539
  C      -0.789965      0.577239     -0.121813
  C       0.024401     -0.681749      0.079411
  H      -0.898880      1.089993      0.833808
  H      -0.242059      1.246805     -0.793692
  H       0.086967     -1.234299     -0.863165
  H      -0.462578     -1.323660      0.817094
  H      -2.050847     -0.141594     -1.551296
  H      -2.685237      1.063640     -0.685388
  H       1.838930     -1.099606      0.656418
  O      -3.602208     -1.839040      1.438852
  C      -4.288632     -1.294849      0.685129
  O      -5.024248     -0.782923     -0.044556
14
Coordinates from ORCA-job ./scants E -399.092462954838
  O       1.320772     -0.302708      0.521582
  N      -2.121969      0.228163     -0.611128
  C      -0.789606      0.577176     -0.122930
  C       0.024386     -0.682161      0.078418
  H      -0.897699      1.089298      0.833155
  H      -0.241380      1.246701     -0.794642
  H       0.089026     -1.233720     -0.864590
  H      -0.464344     -1.324296      0.814647
  H      -2.053359     -0.141212     -1.551471
  H      -2.687190      1.063600     -0.682678
  H       1.837523     -1.100098      0.659280
  O      -3.600603     -1.836500      1.440577
  C      -4.286972     -1.295139      0.684747
  O      -5.023270     -0.784645     -0.045261
14
Coordinates from ORCA-job ./scants E -399.092468542802
  O       1.320157     -0.302082      0.522190
  N      -2.122332      0.229654     -0.611137
  C      -0.789246      0.576332     -0.124313
  C       0.024394     -0.683108      0.078426
  H      -0.895414      1.089209      0.831593
  H      -0.240531      1.244480     -0.797056
  H       0.090268     -1.235602     -0.863906
  H      -0.464403     -1.324274      0.815352
  H      -2.057094     -0.138374     -1.552081
  H      -2.688758      1.064523     -0.677441
  H       1.837488     -1.098901      0.661052
  O      -3.599936     -1.835514      1.440352
  C      -4.286486     -1.295914      0.683491
  O      -5.022794     -0.785972     -0.046818
14
Coordinates from ORCA-job ./scants E -399.092473589810
  O       1.320236     -0.301274      0.521338
  N      -2.122916      0.231130     -0.610406
  C      -0.788710      0.575484     -0.125726
  C       0.024221     -0.684107      0.079286
  H      -0.892361      1.090350      0.829371
  H      -0.239359      1.241241     -0.800384
  H       0.090029     -1.239077     -0.861536
  H      -0.463631     -1.323289      0.818513
  H      -2.061327     -0.133805     -1.552686
  H      -2.690059      1.065880     -0.670365
  H       1.838251     -1.097452      0.661336
  O      -3.600050     -1.835277      1.439356
  C      -4.286706     -1.297161      0.681615
  O      -5.022303     -0.788186     -0.050006
14
Coordinates from ORCA-job ./scants E -399.089092950355
  O       1.318504     -0.277549      0.518940
  N      -2.162798      0.215811     -0.604093
  C      -0.816218      0.540575     -0.117126
  C       0.028897     -0.705765      0.087497
  H      -0.919087      1.049605      0.841201
  H      -0.276403      1.213932     -0.792049
  H       0.105149     -1.262606     -0.851491
  H      -0.422192     -1.360339      0.841526
  H      -2.077340     -0.130014     -1.587611
  H      -2.697590      1.098800     -0.668251
  H       1.863721     -1.056085      0.658617
  O      -3.585596     -1.827242      1.427116
  C      -4.223130     -1.238479      0.648400
  O      -5.030602     -0.756187     -0.042971
14
Coordinates from ORCA-job ./scants E -399.091681987241
  O       1.308784     -0.278770      0.509760
  N      -2.161182      0.207473     -0.600860
  C      -0.820859      0.541965     -0.109730
  C       0.017991     -0.703476      0.086458
  H      -0.926077      1.049835      0.849075
  H      -0.280320      1.215824     -0.782029
  H       0.088015     -1.258143     -0.853839
  H      -0.431071     -1.355632      0.837590
  H      -2.071940     -0.129749     -1.553138
  H      -2.685786      1.069443     -0.678082
  H       1.851979     -1.058874      0.644433
  O      -3.563286     -1.799274      1.422849
  C      -4.224828     -1.243463      0.650068
  O      -4.996106     -0.752702     -0.062849
14
Coordinates from ORCA-job ./scants E -399.091994916607
  O       1.305977     -0.285477      0.508742
  N      -2.159725      0.204130     -0.599278
  C      -0.823029      0.546336     -0.104043
  C       0.012420     -0.700352      0.085351
  H      -0.930739      1.051469      0.855801
  H      -0.281776      1.223246     -0.773083
  H       0.078452     -1.250830     -0.857901
  H      -0.441172     -1.354471      0.831794
  H      -2.069113     -0.141637     -1.546496
  H      -2.690841      1.060973     -0.683673
  H       1.845051     -1.069185      0.639294
  O      -3.544065     -1.779270      1.423526
  C      -4.223044     -1.243062      0.656518
  O      -4.973080     -0.757413     -0.076846
14
Coordinates from ORCA-job ./scants E -399.092046803342
  O       1.304140     -0.293063      0.512183
  N      -2.156674      0.203887     -0.599692
  C      -0.823243      0.551650     -0.101524
  C       0.009464     -0.697331      0.082536
  H      -0.934338      1.052600      0.860037
  H      -0.281337      1.232648     -0.766305
  H       0.074954     -1.241967     -0.864302
  H      -0.451679     -1.354929      0.822130
  H      -2.066374     -0.151735     -1.544328
  H      -2.696482      1.055503     -0.688571
  H       1.838357     -1.080575      0.639932
  O      -3.532991     -1.760094      1.434010
  C      -4.216372     -1.249949      0.654372
  O      -4.962110     -0.762187     -0.080771
14
Coordinates from ORCA-job ./scants E -399.092121677298
  O       1.302070     -0.301650      0.517649
  N      -2.152407      0.205182     -0.600559
  C      -0.822278      0.557916     -0.100598
  C       0.007063     -0.693997      0.078946
  H      -0.936755      1.054934      0.862565
  H      -0.279734      1.242723     -0.761293
  H       0.073275     -1.232138     -0.871682
  H      -0.463908     -1.354825      0.810236
  H      -2.064289     -0.161235     -1.542127
  H      -2.702006      1.050464     -0.692587
  H       1.830373     -1.093446      0.643471
  O      -3.522730     -1.749715      1.441065
  C      -4.209916     -1.244227      0.662192
  O      -4.953442     -0.775527     -0.087573
14
Coordinates from ORCA-job ./scants E -399.092148003684
  O       1.300210     -0.306011      0.522681
  N      -2.149495      0.207575     -0.601968
  C      -0.820789      0.560900     -0.102049
  C       0.006691     -0.692774      0.076103
  H      -0.936613      1.055417      0.862310
  H      -0.277995      1.247528     -0.760619
  H       0.075546     -1.226840     -0.876656
  H      -0.470818     -1.354991      0.801839
  H      -2.064678     -0.163868     -1.541010
  H      -2.705101      1.048479     -0.692801
  H       1.825305     -1.099872      0.648747
  O      -3.519573     -1.744586      1.447652
  C      -4.204506     -1.242892      0.663634
  O      -4.952870     -0.783609     -0.088159
14
Coordinates from ORCA-job ./scants E -399.092170193390
  O       1.297875     -0.309391      0.527552
  N      -2.147353      0.210388     -0.603204
  C      -0.819452      0.562796     -0.103876
  C       0.006335     -0.692369      0.073537
  H      -0.935279      1.055321      0.861577
  H      -0.276382      1.250414     -0.761176
  H       0.078417     -1.223049     -0.880896
  H      -0.476898     -1.355348      0.794603
  H      -2.067044     -0.164854     -1.540609
  H      -2.708694      1.047274     -0.690252
  H       1.820596     -1.104662      0.654522
  O      -3.515726     -1.738235      1.453386
  C      -4.199479     -1.243008      0.663718
  O      -4.951601     -0.790818     -0.089178
14
Coordinates from ORCA-job ./scants E -399.092175668250
  O       1.297127     -0.309523      0.528589
  N      -2.147333      0.211904     -0.603371
  C      -0.818955      0.562492     -0.105105
  C       0.006290     -0.693012      0.073225
  H      -0.933407      1.055317      0.860376
  H      -0.275606      1.249276     -0.763070
  H       0.079548     -1.223923     -0.880967
  H      -0.477873     -1.355259      0.794227
  H      -2.069939     -0.162740     -1.541056
  H      -2.710228      1.047976     -0.686252
  H       1.819828     -1.104627      0.656717
  O      -3.514524     -1.736644      1.453857
  C      -4.198375     -1.243605      0.662880
  O      -4.951239     -0.793175     -0.090344
14
Coordinates from ORCA-job ./scants E -399.092187404261
  O       1.296030     -0.309224      0.529278
  N      -2.147925      0.215461     -0.602856
  C      -0.817800      0.561421     -0.108015
  C       0.005886     -0.694856      0.073492
  H      -0.927968      1.056465      0.856822
  H      -0.273463      1.244907     -0.768707
  H       0.080681     -1.228279     -0.879101
  H      -0.478881     -1.354378      0.796441
  H      -2.077819     -0.155387     -1.542337
  H      -2.713531      1.050473     -0.674194
  H       1.819157     -1.103590      0.660248
  O      -3.512344     -1.733428      1.453775
  C      -4.196919     -1.245663      0.660240
  O      -4.949790     -0.799464     -0.095382
14
Coordinates from ORCA-job ./scants E -399.092192869208
  O       1.296376     -0.309006      0.527703
  N      -2.148514      0.217407     -0.601570
  C      -0.816952      0.560979     -0.109516
  C       0.005369     -0.695847      0.074676
  H      -0.924185      1.058712      0.854245
  H      -0.271832      1.241511     -0.772690
  H       0.079190     -1.232550     -0.876087
  H      -0.478482     -1.352674      0.800665
  H      -2.082543     -0.149211     -1.542927
  H      -2.714917      1.052395     -0.665501
  H       1.819727     -1.103010      0.660024
  O      -3.512407     -1.732099      1.453410
  C      -4.196930     -1.247668      0.657882
  O      -4.948586     -0.804481     -0.100607
14
Coordinates from ORCA-job ./scants E -399.092195280664
  O       1.298379     -0.309646      0.522444
  N      -2.149250      0.220645     -0.597836
  C      -0.814935      0.561244     -0.111599
  C       0.004066     -0.696935      0.077829
  H      -0.917057      1.065104      0.849470
  H      -0.268501      1.235768     -0.779903
  H       0.073140     -1.241067     -0.868977
  H      -0.477442     -1.347619      0.810930
  H      -2.090076     -0.136855     -1.543135
  H      -2.716810      1.055751     -0.648913
  H       1.821266     -1.103725      0.656171
  O      -3.514581     -1.729071      1.454198
  C      -4.197436     -1.252384      0.652681
  O      -4.945449     -0.816754     -0.113654
14
Coordinates from ORCA-job ./scants E -399.092201484249
  O       1.301538     -0.311918      0.515614
  N      -2.149346      0.223588     -0.592741
  C      -0.812272      0.562851     -0.112969
  C       0.002716     -0.697074      0.081361
  H      -0.909847      1.073378      0.845001
  H      -0.265158      1.231440     -0.786666
  H       0.064419     -1.248907     -0.861467
  H      -0.476761     -1.340842      0.821981
  H      -2.096190     -0.124413     -1.541997
  H      -2.718280      1.058487     -0.632315
  H       1.822717     -1.107088      0.649469
  O      -3.519157     -1.724055      1.457940
  C      -4.198043     -1.257938      0.646852
  O      -4.941023     -0.833050     -0.130358
14
Coordinates from ORCA-job ./scants E -399.092210968994
  O       1.305270     -0.315336      0.508708
  N      -2.148762      0.225441     -0.587179
  C      -0.809503      0.565374     -0.112997
  C       0.001986     -0.696231      0.084190
  H      -0.904163      1.081134      0.842439
  H      -0.263035      1.229921     -0.791087
  H       0.055275     -1.253671     -0.855894
  H      -0.476350     -1.334126      0.830726
  H      -2.099151     -0.115424     -1.539309
  H      -2.718912      1.059935     -0.619957
  H       1.823964     -1.112362      0.641103
  O      -3.526259     -1.717008      1.464795
  C      -4.198962     -1.262829      0.641804
  O      -4.936082     -0.850359     -0.147636
14
Coordinates from ORCA-job ./scants E -399.092218526615
  O       1.309876     -0.320292      0.500744
  N      -2.147566      0.227334     -0.579712
  C      -0.805912      0.568784     -0.112123
  C       0.001924     -0.694880      0.086355
  H      -0.897455      1.089147      0.841119
  H      -0.261670      1.230121     -0.794927
  H       0.045082     -1.256671     -0.851743
  H      -0.476157     -1.326820      0.838254
  H      -2.101626     -0.107165     -1.534372
  H      -2.719599      1.060915     -0.606443
  H       1.825328     -1.119884      0.630246
  O      -3.537877     -1.703561      1.477484
  C      -4.200443     -1.268018      0.636137
  O      -4.928589     -0.874551     -0.171313
14
Coordinates from ORCA-job ./scants E -399.092226178639
  O       1.312842     -0.323293      0.496285
  N      -2.146787      0.228102     -0.574379
  C      -0.803735      0.570590     -0.110611
  C       0.002942     -0.694116      0.086244
  H      -0.893364      1.091773      0.842373
  H      -0.262163      1.231675     -0.795624
  H       0.040754     -1.256099     -0.852028
  H      -0.475441     -1.324116      0.839639
  H      -2.102573     -0.104750     -1.529709
  H      -2.719765      1.061103     -0.599415
  H       1.826862     -1.124268      0.622897
  O      -3.548893     -1.689807      1.489497
  C      -4.202533     -1.269979      0.633237
  O      -4.922831     -0.892357     -0.188701
14
Coordinates from ORCA-job ./scants E -399.092247792971
  O       1.318047     -0.327735      0.488937
  N      -2.145672      0.228974     -0.563578
  C      -0.800182      0.572755     -0.106610
  C       0.006225     -0.693361      0.083598
  H      -0.885596      1.092299      0.847674
  H      -0.264767      1.235654     -0.794469
  H       0.036962     -1.252173     -0.856891
  H      -0.472587     -1.323083      0.837159
  H      -2.104819     -0.103867     -1.519078
  H      -2.719705      1.061361     -0.587085
  H       1.831133     -1.130341      0.608878
  O      -3.575282     -1.655118      1.517177
  C      -4.208607     -1.271438      0.628787
  O      -4.909837     -0.929469     -0.224794
14
Coordinates from ORCA-job ./scants E -399.092261992754
  O       1.320981     -0.328091      0.486371
  N      -2.145724      0.227934     -0.556696
  C      -0.799323      0.572038     -0.101772
  C       0.010587     -0.693559      0.078263
  H      -0.882626      1.084860      0.856342
  H      -0.269182      1.240525     -0.788205
  H       0.041763     -1.244451     -0.866879
  H      -0.467832     -1.329155      0.827085
  H      -2.104535     -0.111246     -1.509890
  H      -2.718214      1.061021     -0.585948
  H       1.836313     -1.130172      0.600118
  O      -3.599470     -1.623534      1.540038
  C      -4.216010     -1.267861      0.628708
  O      -4.901411     -0.953853     -0.247830
14
Coordinates from ORCA-job ./scants E -399.092261679276
  O       1.321349     -0.325547      0.486791
  N      -2.146756      0.227271     -0.553408
  C      -0.800240      0.569370     -0.098526
  C       0.013679     -0.694916      0.072798
  H      -0.881494      1.075085      0.863533
  H      -0.271971      1.242683     -0.781814
  H       0.050414     -1.238563     -0.876244
  H      -0.462916     -1.338135      0.816118
  H      -2.106097     -0.118580     -1.504147
  H      -2.717204      1.061576     -0.586792
  H       1.840546     -1.125612      0.597089
  O      -3.615177     -1.599342      1.554965
  C      -4.222032     -1.263022      0.630199
  O      -4.896788     -0.967811     -0.260858
14
Coordinates from ORCA-job ./scants E -399.092278970090
  O       1.321789     -0.322521      0.485849
  N      -2.148117      0.227215     -0.550220
  C      -0.801330      0.566588     -0.095977
  C       0.015686     -0.696469      0.068471
  H      -0.879875      1.067065      0.869040
  H      -0.272848      1.242858     -0.776405
  H       0.057432     -1.235527     -0.882872
  H      -0.457120     -1.346383      0.808371
  H      -2.109641     -0.122614     -1.499609
  H      -2.716075      1.063165     -0.584867
  H       1.844614     -1.120553      0.593679
  O      -3.629315     -1.577052      1.567418
  C      -4.227670     -1.259269      0.630668
  O      -4.892215     -0.982045     -0.273841
14
Coordinates from ORCA-job ./scants E -399.092293127576
  O       1.323854     -0.322118      0.481963
  N      -2.148547      0.227529     -0.545990
  C      -0.801036      0.565944     -0.093777
  C       0.016876     -0.696904      0.066701
  H      -0.877376      1.064703      0.872309
  H      -0.272855      1.243203     -0.773542
  H       0.057896     -1.234744     -0.885330
  H      -0.452753     -1.349149      0.806693
  H      -2.112472     -0.122696     -1.495390
  H      -2.715060      1.064594     -0.580113
  H       1.847618     -1.119851      0.587395
  O      -3.642986     -1.558780      1.577865
  C      -4.231731     -1.258509      0.629045
  O      -4.886113     -0.998766     -0.288122
14
Coordinates from ORCA-job ./scants E -399.092285475652
  O       1.326459     -0.321074      0.476736
  N      -2.149258      0.228066     -0.542271
  C      -0.801151      0.564974     -0.091248
  C       0.017836     -0.697349      0.065606
  H      -0.876026      1.062343      0.875673
  H      -0.272051      1.243096     -0.769583
  H       0.057306     -1.234956     -0.886595
  H      -0.446732     -1.351898      0.806505
  H      -2.114988     -0.122721     -1.491491
  H      -2.713447      1.066632     -0.577161
  H       1.850888     -1.118569      0.580583
  O      -3.656233     -1.542241      1.585884
  C      -4.235837     -1.257476      0.627354
  O      -4.881452     -1.014369     -0.300289
14
Coordinates from ORCA-job ./scants E -399.092291220296
  O       1.329113     -0.323735      0.471590
  N      -2.148505      0.229174     -0.537448
  C      -0.799354      0.566437     -0.089690
  C       0.018389     -0.696954      0.065521
  H      -0.872391      1.064555      0.876991
  H      -0.272069      1.244239     -0.769695
  H       0.052561     -1.235099     -0.886626
  H      -0.445627     -1.349728      0.808634
  H      -2.117157     -0.119912     -1.487501
  H      -2.713572      1.067460     -0.569438
  H       1.851936     -1.122519      0.573612
  O      -3.667993     -1.526645      1.594638
  C      -4.237325     -1.259511      0.624154
  O      -4.872688     -1.033305     -0.315037
14
Coordinates from ORCA-job ./scants E -399.092305968684
  O       1.330368     -0.324686      0.468659
  N      -2.148370      0.230203     -0.535499
  C      -0.798697      0.566851     -0.088865
  C       0.018523     -0.696975      0.065628
  H      -0.871023      1.065267      0.877723
  H      -0.271779      1.244444     -0.769368
  H       0.049956     -1.235554     -0.886388
  H      -0.444544     -1.348915      0.809967
  H      -2.118085     -0.118536     -1.485646
  H      -2.713613      1.068354     -0.566526
  H       1.852387     -1.123992      0.570750
  O      -3.672802     -1.519641      1.597554
  C      -4.237792     -1.260312      0.622668
  O      -4.869213     -1.042049     -0.320950
14
Coordinates from ORCA-job ./scants E -399.092292596918
  O       1.332715     -0.326994      0.462328
  N      -2.148167      0.232770     -0.531282
  C      -0.797495      0.567816     -0.086483
  C       0.018670     -0.697097      0.065237
  H      -0.868304      1.065850      0.880428
  H      -0.271415      1.245553     -0.767503
  H       0.044418     -1.235433     -0.887141
  H      -0.442471     -1.348168      0.811361
  H      -2.119215     -0.116760     -1.481044
  H      -2.713709      1.070595     -0.561682
  H       1.852996     -1.127396      0.564774
  O      -3.683319     -1.501645      1.604719
  C      -4.238629     -1.261689      0.619905
  O      -4.860759     -1.062942     -0.333912
14
Coordinates from ORCA-job ./scants E -399.092295118137
  O       1.327110     -0.327046      0.468592
  N      -2.149634      0.234686     -0.535810
  C      -0.800455      0.567340     -0.084240
  C       0.016839     -0.698072      0.060669
  H      -0.872385      1.057621      0.886514
  H      -0.273402      1.249056     -0.760487
  H       0.049934     -1.227200     -0.896654
  H      -0.447258     -1.357282      0.797913
  H      -2.110877     -0.126362     -1.480890
  H      -2.714108      1.072384     -0.578139
  H       1.848755     -1.126091      0.574322
  O      -3.670052     -1.496186      1.605151
  C      -4.235313     -1.258113      0.626155
  O      -4.863841     -1.060275     -0.323390
14
Coordinates from ORCA-job ./scants E -399.092298081615
  O       1.331832     -0.327832      0.461377
  N      -2.148845      0.235105     -0.531104
  C      -0.797634      0.567925     -0.086062
  C       0.017695     -0.697749      0.064519
  H      -0.867245      1.065196      0.881311
  H      -0.271029      1.245290     -0.767031
  H       0.042999     -1.235268     -0.888340
  H      -0.443222     -1.349293      0.810221
  H      -2.118887     -0.115172     -1.480513
  H      -2.713664      1.073317     -0.561751
  H       1.851556     -1.128240      0.566605
  O      -3.681862     -1.496128      1.605971
  C      -4.237175     -1.262515      0.619845
  O      -4.859202     -1.070177     -0.335343
14
Coordinates from ORCA-job ./scants E -399.092299898319
  O       1.333774     -0.330316      0.454986
  N      -2.148970      0.238560     -0.527195
  C      -0.796084      0.568928     -0.085423
  C       0.017048     -0.698165      0.065165
  H      -0.863031      1.068095      0.881159
  H      -0.269612      1.244321     -0.768462
  H       0.036322     -1.238097     -0.886505
  H      -0.441959     -1.346636      0.814566
  H      -2.122433     -0.108476     -1.477821
  H      -2.713654      1.076964     -0.552952
  H       1.851236     -1.131876      0.562672
  O      -3.689576     -1.482822      1.610469
  C      -4.236656     -1.265757      0.616163
  O      -4.851091     -1.090265     -0.347117
14
Coordinates from ORCA-job ./scants E -399.092307304254
  O       1.334952     -0.333693      0.450740
  N      -2.148726      0.241297     -0.524656
  C      -0.794573      0.570688     -0.086031
  C       0.015734     -0.697926      0.066171
  H      -0.859742      1.072554      0.879278
  H      -0.267945      1.243964     -0.771054
  H       0.029942     -1.241090     -0.883795
  H      -0.443194     -1.342512      0.819112
  H      -2.126285     -0.100660     -1.477212
  H      -2.713141      1.080125     -0.545110
  H       1.849101     -1.137039      0.560914
  O      -3.692473     -1.475851      1.613030
  C      -4.234448     -1.269753      0.613394
  O      -4.843888     -1.105646     -0.355075
14
Coordinates from ORCA-job ./scants E -399.092300775127
  O       1.335916     -0.337326      0.444446
  N      -2.149256      0.246124     -0.520687
  C      -0.793420      0.572022     -0.084560
  C       0.014356     -0.698508      0.065302
  H      -0.855598      1.073678      0.881054
  H      -0.266728      1.244431     -0.770387
  H       0.023257     -1.242033     -0.884552
  H      -0.443179     -1.341606      0.820293
  H      -2.129311     -0.094509     -1.473775
  H      -2.712321      1.085872     -0.538642
  H       1.847125     -1.142079      0.558035
  O      -3.700744     -1.455535      1.620141
  C      -4.232713     -1.273008      0.610733
  O      -4.832072     -1.133064     -0.367694
14
Coordinates from ORCA-job ./scants E -399.092304956912
  O       1.334856     -0.340825      0.441742
  N      -2.150234      0.250893     -0.518801
  C      -0.793357      0.573146     -0.082998
  C       0.012386     -0.699180      0.062927
  H      -0.853366      1.072136      0.884134
  H      -0.266107      1.246262     -0.767690
  H       0.019803     -1.240453     -0.888228
  H      -0.445374     -1.343399      0.816821
  H      -2.130474     -0.090898     -1.471512
  H      -2.710688      1.092372     -0.538142
  H       1.843545     -1.146714      0.558519
  O      -3.704606     -1.436293      1.627341
  C      -4.229625     -1.275206      0.610722
  O      -4.821446     -1.157383     -0.375130
14
Coordinates from ORCA-job ./scants E -399.092306383532
  O       1.330504     -0.345125      0.444165
  N      -2.151842      0.256610     -0.519912
  C      -0.794624      0.574368     -0.081653
  C       0.008842     -0.700047      0.058708
  H      -0.853321      1.067821      0.888394
  H      -0.265772      1.249770     -0.762810
  H       0.019685     -1.235931     -0.895423
  H      -0.452063     -1.348111      0.807409
  H      -2.130051     -0.088400     -1.471557
  H      -2.707630      1.101157     -0.544524
  H       1.836614     -1.152216      0.563702
  O      -3.701332     -1.417470      1.635655
  C      -4.223070     -1.277203      0.614151
  O      -4.810624     -1.180764     -0.376599
14
Coordinates from ORCA-job ./scants E -399.092310065597
  O       1.326848     -0.349998      0.445002
  N      -2.153113      0.262704     -0.520143
  C      -0.795237      0.575983     -0.080677
  C       0.005090     -0.700814      0.055783
  H      -0.852231      1.065823      0.891303
  H      -0.264758      1.252273     -0.759655
  H       0.017023     -1.233244     -0.900241
  H      -0.458581     -1.350578      0.801442
  H      -2.130939     -0.083521     -1.471514
  H      -2.705119      1.109769     -0.546994
  H       1.830077     -1.158610      0.566397
  O      -3.700102     -1.399067      1.643527
  C      -4.216289     -1.280340      0.616074
  O      -4.797355     -1.205921     -0.380597
14
Coordinates from ORCA-job ./scants E -399.092322473217
  O       1.318321     -0.352522      0.457801
  N      -2.154785      0.265998     -0.527957
  C      -0.798564      0.576080     -0.081181
  C       0.000551     -0.701620      0.052252
  H      -0.857888      1.059897      0.893664
  H      -0.264472      1.255264     -0.754374
  H       0.024115     -1.227185     -0.907225
  H      -0.470053     -1.357200      0.788386
  H      -2.129059     -0.083409     -1.478134
  H      -2.701286      1.116568     -0.561324
  H       1.822393     -1.161280      0.574500
  O      -3.684162     -1.398020      1.648410
  C      -4.206470     -1.280705      0.623984
  O      -4.793326     -1.207408     -0.369095
14
Coordinates from ORCA-job ./scants E -399.092333441105
  O       1.318232     -0.357775      0.452424
  N      -2.155186      0.272284     -0.524465
  C      -0.797232      0.578148     -0.080230
  C      -0.002418     -0.702276      0.052859
  H      -0.853707      1.063340      0.894088
  H      -0.262078      1.254960     -0.755005
  H       0.014738     -1.229508     -0.905865
  H      -0.472850     -1.354473      0.792330
  H      -2.133018     -0.074345     -1.475841
  H      -2.700760      1.123589     -0.552674
  H       1.819741     -1.168347      0.567663
  O      -3.694245     -1.377457      1.655971
  C      -4.202033     -1.285526      0.621099
  O      -4.773869     -1.238157     -0.382648
14
Coordinates from ORCA-job ./scants E -399.092326222038
  O       1.319573     -0.358984      0.454646
  N      -2.152431      0.270179     -0.526604
  C      -0.795537      0.579424     -0.082129
  C      -0.002226     -0.701394      0.060491
  H      -0.856774      1.073465      0.887415
  H      -0.259867      1.252055     -0.760763
  H       0.008628     -1.234143     -0.895378
  H      -0.474294     -1.347145      0.804669
  H      -2.132448     -0.071352     -1.479153
  H      -2.705970      1.116382     -0.544740
  H       1.823974     -1.169748      0.555105
  O      -3.692996     -1.395774      1.651781
  C      -4.200305     -1.286865      0.618166
  O      -4.774012     -1.221641     -0.383802
14
Coordinates from ORCA-job ./scants E -399.092319148753
  O       1.317234     -0.360933      0.453302
  N      -2.154521      0.274921     -0.525547
  C      -0.796671      0.579427     -0.080448
  C      -0.004877     -0.702466      0.057166
  H      -0.855020      1.069013      0.891554
  H      -0.259132      1.253149     -0.756505
  H       0.007996     -1.232704     -0.900005
  H      -0.476234     -1.350906      0.799397
  H      -2.134165     -0.067840     -1.478131
  H      -2.702314      1.124769     -0.547263
  H       1.820408     -1.172150      0.556034
  O      -3.697725     -1.376370      1.658729
  C      -4.197406     -1.288356      0.619641
  O      -4.762257     -1.245096     -0.388219
14
Coordinates from ORCA-job ./scants E -399.092334238631
  O       1.315002     -0.362481      0.455403
  N      -2.155115      0.276926     -0.526754
  C      -0.797404      0.579839     -0.080132
  C      -0.006652     -0.702792      0.056340
  H      -0.855826      1.067856      0.892661
  H      -0.258623      1.254001     -0.754742
  H       0.007944     -1.231517     -0.901617
  H      -0.479401     -1.352420      0.796614
  H      -2.133445     -0.066348     -1.479081
  H      -2.701486      1.127742     -0.550255
  H       1.818072     -1.173974      0.556390
  O      -3.695564     -1.371843      1.661113
  C      -4.194267     -1.289177      0.621222
  O      -4.757922     -1.251355     -0.387454
14
Coordinates from ORCA-job ./scants E -399.092322695700
  O       1.309750     -0.368064      0.458592
  N      -2.156518      0.283746     -0.528292
  C      -0.798613      0.581619     -0.078985
  C      -0.011873     -0.703699      0.054943
  H      -0.856374      1.066642      0.895371
  H      -0.256463      1.255902     -0.750746
  H       0.004222     -1.229601     -0.904504
  H      -0.487822     -1.354794      0.791855
  H      -2.132621     -0.059549     -1.480582
  H      -2.699781      1.136554     -0.554226
  H       1.811872     -1.180843      0.553667
  O      -3.694631     -1.354023      1.668850
  C      -4.185350     -1.292678      0.623836
  O      -4.740484     -1.276756     -0.390075
14
Coordinates from ORCA-job ./scants E -399.092333082422
  O       1.309992     -0.367906      0.459133
  N      -2.156180      0.283205     -0.528658
  C      -0.798364      0.581632     -0.079561
  C      -0.011636     -0.703597      0.055764
  H      -0.856511      1.067828      0.894193
  H      -0.256216      1.255405     -0.751838
  H       0.004157     -1.230348     -0.903235
  H      -0.487825     -1.353963      0.793084
  H      -2.132756     -0.058668     -1.481415
  H      -2.700460      1.135329     -0.553026
  H       1.812221     -1.180684      0.553646
  O      -3.693019     -1.357341      1.667300
  C      -4.185366     -1.292798      0.623423
  O      -4.742724     -1.273635     -0.389106
14
Coordinates from ORCA-job ./scants E -399.092333896490
  O       1.309476     -0.367292      0.463368
  N      -2.155155      0.281126     -0.531613
  C      -0.798042      0.581603     -0.082153
  C      -0.011116     -0.703256      0.057685
  H      -0.858111      1.070870      0.889951
  H      -0.255960      1.254313     -0.755547
  H       0.006096     -1.231569     -0.900461
  H      -0.489704     -1.352111      0.794639
  H      -2.132558     -0.056705     -1.485590
  H      -2.702397      1.131407     -0.551795
  H       1.811593     -1.180069      0.558543
  O      -3.680702     -1.372834      1.660874
  C      -4.184096     -1.292995      0.623468
  O      -4.754010     -1.258031     -0.381665
14
Coordinates from ORCA-job ./scants E -399.092331429774
  O       1.307752     -0.369383      0.463570
  N      -2.155809      0.283951     -0.531823
  C      -0.798438      0.582148     -0.081550
  C      -0.013008     -0.703694      0.056835
  H      -0.857918      1.069988      0.891307
  H      -0.255306      1.254996     -0.753952
  H       0.004375     -1.230874     -0.901922
  H      -0.492440     -1.352972      0.792938
  H      -2.132700     -0.054057     -1.485828
  H      -2.701436      1.135295     -0.552752
  H       1.809096     -1.182713      0.558126
  O      -3.680895     -1.364431      1.664024
  C      -4.180971     -1.294327      0.624217
  O      -4.746987     -1.269467     -0.383483
14
Coordinates from ORCA-job ./scants E -399.092331210102
  O       1.303483     -0.373998      0.465692
  N      -2.156949      0.289713     -0.533792
  C      -0.799400      0.583291     -0.080924
  C      -0.017248     -0.704625      0.055630
  H      -0.858720      1.068741      0.893144
  H      -0.253680      1.256288     -0.751075
  H       0.001056     -1.229576     -0.904315
  H      -0.499393     -1.354472      0.789572
  H      -2.132618     -0.047359     -1.488274
  H      -2.699949      1.142740     -0.555031
  H       1.803120     -1.188571      0.558672
  O      -3.676411     -1.350458      1.668683
  C      -4.173109     -1.297237      0.626106
  O      -4.734868     -1.290020     -0.384382
14
Coordinates from ORCA-job ./scants E -399.092337108681
  O       1.298774     -0.378673      0.468892
  N      -2.157917      0.295229     -0.537056
  C      -0.800578      0.584344     -0.080611
  C      -0.021691     -0.705589      0.054918
  H      -0.860794      1.067756      0.894424
  H      -0.251864      1.257481     -0.748177
  H      -0.002152     -1.228451     -0.906130
  H      -0.506959     -1.355828      0.786504
  H      -2.132145     -0.039992     -1.492248
  H      -2.698711      1.149651     -0.557771
  H       1.796799     -1.194464      0.559847
  O      -3.668565     -1.339128      1.671965
  C      -4.164324     -1.300087      0.628263
  O      -4.724558     -1.307791     -0.383115
14
Coordinates from ORCA-job ./scants E -399.092338802675
  O       1.294434     -0.382906      0.471952
  N      -2.158594      0.299923     -0.541088
  C      -0.801870      0.585153     -0.080285
  C      -0.025798     -0.706515      0.054692
  H      -0.864057      1.066863      0.895470
  H      -0.250068      1.258586     -0.745015
  H      -0.005413     -1.227605     -0.907288
  H      -0.513759     -1.356986      0.784238
  H      -2.131298     -0.032911     -1.497048
  H      -2.697636      1.155446     -0.560568
  H       1.791042     -1.199773      0.560972
  O      -3.659439     -1.330013      1.674005
  C      -4.155785     -1.302500      0.630296
  O      -4.716443     -1.322306     -0.380627
14
Coordinates from ORCA-job ./scants E -399.092339453622
  O       1.291190     -0.386504      0.473570
  N      -2.158958      0.303600     -0.544612
  C      -0.803001      0.585880     -0.079719
  C      -0.029170     -0.707271      0.054683
  H      -0.867424      1.066204      0.896564
  H      -0.248467      1.259706     -0.741791
  H      -0.008983     -1.227076     -0.907988
  H      -0.518816     -1.357869      0.782890
  H      -2.130387     -0.027014     -1.501174
  H      -2.696693      1.159975     -0.562639
  H       1.786513     -1.204295      0.561170
  O      -3.652857     -1.321583      1.675940
  C      -4.148660     -1.304437      0.631811
  O      -4.708972     -1.334858     -0.378998
14
Coordinates from ORCA-job ./scants E -399.092337719859
  O       1.289664     -0.388991      0.473004
  N      -2.159130      0.306033     -0.546275
  C      -0.803685      0.586425     -0.078754
  C      -0.031178     -0.707733      0.054251
  H      -0.869473      1.065236      0.898171
  H      -0.247493      1.260913     -0.738765
  H      -0.012107     -1.226449     -0.909038
  H      -0.521223     -1.358694      0.781814
  H      -2.129642     -0.023581     -1.503085
  H      -2.695959      1.162969     -0.563693
  H       1.783833     -1.207486      0.560468
  O      -3.652061     -1.312444      1.678461
  C      -4.144525     -1.305495      0.632647
  O      -4.701707     -1.346245     -0.379502
14
Coordinates from ORCA-job ./scants E -399.092333371340
  O       1.288352     -0.392554      0.470241
  N      -2.159328      0.309441     -0.547364
  C      -0.804391      0.587225     -0.076919
  C      -0.033555     -0.708342      0.052907
  H      -0.871398      1.063288      0.901251
  H      -0.246303      1.263019     -0.734002
  H      -0.017005     -1.225254     -0.911433
  H      -0.523458     -1.360130      0.779790
  H      -2.128909     -0.018995     -1.504501
  H      -2.694962      1.167128     -0.563994
  H       1.780430     -1.212173      0.558896
  O      -3.656433     -1.294960      1.683697
  C      -4.139703     -1.306768      0.633590
  O      -4.688021     -1.366467     -0.382455
14
Coordinates from ORCA-job ./scants E -399.092337125776
  O       1.288173     -0.395135      0.466725
  N      -2.159378      0.311632     -0.547129
  C      -0.804673      0.587662     -0.075217
  C      -0.034571     -0.708779      0.050739
  H      -0.871975      1.060759      0.904363
  H      -0.245812      1.265168     -0.729888
  H      -0.020138     -1.223545     -0.914836
  H      -0.523989     -1.361995      0.776647
  H      -2.128743     -0.015826     -1.504575
  H      -2.694442      1.169666     -0.562966
  H       1.778196     -1.215677      0.558152
  O      -3.665555     -1.277045      1.689432
  C      -4.137261     -1.307168      0.634454
  O      -4.674516     -1.385260     -0.386196
14
Coordinates from ORCA-job ./scants E -399.092337713549
  O       1.287608     -0.398254      0.463542
  N      -2.159629      0.314392     -0.546218
  C      -0.804738      0.588155     -0.073881
  C      -0.035744     -0.709366      0.047844
  H      -0.871243      1.058148      0.907254
  H      -0.245403      1.267261     -0.726502
  H      -0.022720     -1.221515     -0.919195
  H      -0.525386     -1.364218      0.772164
  H      -2.129339     -0.011073     -1.504395
  H      -2.694194      1.172799     -0.560465
  H       1.775122     -1.219908      0.558330
  O      -3.677117     -1.256119      1.696210
  C      -4.134436     -1.307970      0.635623
  O      -4.657464     -1.407875     -0.390608
14
Coordinates from ORCA-job ./scants E -399.092339446534
  O       1.288809     -0.398404      0.462450
  N      -2.159588      0.313407     -0.543574
  C      -0.803911      0.587295     -0.074013
  C      -0.033458     -0.709666      0.043471
  H      -0.867941      1.054734      0.908547
  H      -0.246962      1.268690     -0.726310
  H      -0.018017     -1.218110     -0.925549
  H      -0.523971     -1.367770      0.764144
  H      -2.131251     -0.009188     -1.502713
  H      -2.695578      1.170969     -0.555264
  H       1.774744     -1.220362      0.562741
  O      -3.693131     -1.240851      1.702257
  C      -4.137072     -1.306455      0.637220
  O      -4.647359     -1.419832     -0.393701
14
Coordinates from ORCA-job ./scants E -399.092341636235
  O       1.287309     -0.401926      0.460064
  N      -2.160152      0.317355     -0.543437
  C      -0.804128      0.588123     -0.073080
  C      -0.036153     -0.710405      0.042753
  H      -0.867620      1.054339      0.910084
  H      -0.245661      1.269300     -0.724317
  H      -0.023035     -1.218356     -0.926552
  H      -0.526783     -1.367911      0.764051
  H      -2.131804     -0.002619     -1.503663
  H      -2.694840      1.175793     -0.552663
  H       1.771336     -1.224971      0.560624
  O      -3.698149     -1.225155      1.705572
  C      -4.132573     -1.308698      0.637316
  O      -4.632432     -1.440412     -0.397046
14
Coordinates from ORCA-job ./scants E -399.092345499513
  O       1.287769     -0.400537      0.461286
  N      -2.160153      0.316307     -0.543704
  C      -0.803943      0.587778     -0.073841
  C      -0.035755     -0.710364      0.044791
  H      -0.867696      1.056345      0.908173
  H      -0.245602      1.267537     -0.726650
  H      -0.022522     -1.220352     -0.923380
  H      -0.525807     -1.366339      0.767822
  H      -2.132013     -0.003127     -1.504012
  H      -2.694980      1.174672     -0.551906
  H       1.773244     -1.223033      0.559300
  O      -3.692540     -1.234191      1.701923
  C      -4.134021     -1.308753      0.635997
  O      -4.640666     -1.431482     -0.396093
14
Coordinates from ORCA-job ./scants E -399.092341954762
  O       1.287348     -0.402774      0.460319
  N      -2.160491      0.318007     -0.543437
  C      -0.803859      0.587386     -0.073186
  C      -0.036208     -0.711259      0.042629
  H      -0.867225      1.053847      0.909850
  H      -0.245548      1.268391     -0.724720
  H      -0.022678     -1.218946     -0.926730
  H      -0.526749     -1.368429      0.764228
  H      -2.132953      0.003032     -1.505256
  H      -2.695487      1.176207     -0.547021
  H       1.771722     -1.225850      0.558953
  O      -3.702225     -1.215753      1.705503
  C      -4.132543     -1.308917      0.636733
  O      -4.627789     -1.450484     -0.398161
14
Coordinates from ORCA-job ./scants E -399.092346075993
  O       1.285328     -0.404993      0.462605
  N      -2.160761      0.319643     -0.544544
  C      -0.804280      0.587524     -0.072918
  C      -0.037678     -0.711930      0.041810
  H      -0.868098      1.052757      0.910667
  H      -0.245111      1.269043     -0.723158
  H      -0.022474     -1.217791     -0.928438
  H      -0.529879     -1.370172      0.761301
  H      -2.132669      0.007758     -1.507229
  H      -2.695648      1.177990     -0.545694
  H       1.769894     -1.228384      0.557544
  O      -3.704196     -1.205155      1.707766
  C      -4.129545     -1.309566      0.637926
  O      -4.619568     -1.462267     -0.397932
14
Coordinates from ORCA-job ./scants E -399.092348047058
  O       1.283634     -0.405847      0.466575
  N      -2.160636      0.319441     -0.545972
  C      -0.804781      0.587308     -0.072547
  C      -0.038216     -0.712257      0.041634
  H      -0.869845      1.051488      0.911445
  H      -0.245071      1.269614     -0.721455
  H      -0.020205     -1.216281     -0.929477
  H      -0.532167     -1.372003      0.758495
  H      -2.131456      0.009251     -1.509059
  H      -2.695764      1.177652     -0.546063
  H       1.770152     -1.228851      0.554549
  O      -3.704257     -1.199626      1.708881
  C      -4.128466     -1.309000      0.639142
  O      -4.617607     -1.466432     -0.396443
14
Coordinates from ORCA-job ./scants E -399.088662253753
  O       1.284529     -0.381927      0.463497
  N      -2.198457      0.302570     -0.538777
  C      -0.831018      0.551793     -0.065984
  C      -0.033445     -0.733190      0.048488
  H      -0.893478      1.009402      0.921280
  H      -0.281556      1.241396     -0.716057
  H      -0.005976     -1.243198     -0.919342
  H      -0.493519     -1.403125      0.782799
  H      -2.147512      0.016857     -1.545861
  H      -2.704004      1.210663     -0.538201
  H       1.797127     -1.189186      0.554547
  O      -3.684389     -1.196274      1.704815
  C      -4.068863     -1.244792      0.606752
  O      -4.634125     -1.436530     -0.398252
14
Coordinates from ORCA-job ./scants E -399.091373959870
  O       1.273334     -0.384012      0.459110
  N      -2.197237      0.295490     -0.537165
  C      -0.835937      0.554299     -0.058790
  C      -0.043620     -0.731416      0.046170
  H      -0.902052      1.009787      0.929317
  H      -0.286314      1.246014     -0.704808
  H      -0.018502     -1.234869     -0.924602
  H      -0.503328     -1.404705      0.772198
  H      -2.142083      0.012426     -1.507778
  H      -2.692040      1.178815     -0.553575
  H       1.784160     -1.192542      0.543605
  O      -3.664948     -1.160811      1.693061
  C      -4.068073     -1.250414      0.609631
  O      -4.598044     -1.433605     -0.406670
14
Coordinates from ORCA-job ./scants E -399.091661612749
  O       1.268812     -0.390843      0.461852
  N      -2.195879      0.292958     -0.537276
  C      -0.838002      0.558382     -0.053561
  C      -0.048695     -0.728558      0.044091
  H      -0.907324      1.009958      0.935995
  H      -0.287196      1.253670     -0.695073
  H      -0.024093     -1.224662     -0.930685
  H      -0.514502     -1.406699      0.761456
  H      -2.139463     -0.000774     -1.504368
  H      -2.697505      1.171347     -0.560601
  H       1.775920     -1.202254      0.541501
  O      -3.649383     -1.139286      1.689261
  C      -4.064989     -1.250909      0.615065
  O      -4.572385     -1.437871     -0.407953
14
Coordinates from ORCA-job ./scants E -399.091725850180
  O       1.265644     -0.398323      0.466662
  N      -2.192831      0.292717     -0.539143
  C      -0.838364      0.563213     -0.051158
  C      -0.051782     -0.725367      0.041081
  H      -0.911805      1.009939      0.940239
  H      -0.285969      1.262543     -0.687342
  H      -0.026144     -1.214383     -0.937464
  H      -0.525953     -1.407394      0.749977
  H      -2.137065     -0.011480     -1.504311
  H      -2.703671      1.166463     -0.566203
  H       1.768103     -1.212913      0.543285
  O      -3.641840     -1.122167      1.690491
  C      -4.054421     -1.256210      0.618568
  O      -4.558587     -1.442178     -0.404976
14
Coordinates from ORCA-job ./scants E -399.091776601901
  O       1.260748     -0.408573      0.475089
  N      -2.188070      0.294114     -0.542693
  C      -0.838134      0.569778     -0.049787
  C      -0.055356     -0.721322      0.036384
  H      -0.917111      1.010332      0.943928
  H      -0.283454      1.274078     -0.678922
  H      -0.026356     -1.200587     -0.947104
  H      -0.542152     -1.407916      0.732986
  H      -2.134374     -0.023057     -1.504560
  H      -2.710846      1.161125     -0.573165
  H       1.756687     -1.227397      0.548615
  O      -3.629195     -1.110014      1.693669
  C      -4.047322     -1.250002      0.625156
  O      -4.539750     -1.456101     -0.399890
14
Coordinates from ORCA-job ./scants E -399.091802035601
  O       1.259381     -0.410506      0.478136
  N      -2.186457      0.295940     -0.544746
  C      -0.837539      0.570919     -0.051103
  C      -0.055401     -0.720917      0.034862
  H      -0.917885      1.009657      0.943378
  H      -0.282228      1.276348     -0.678355
  H      -0.024201     -1.198287     -0.949461
  H      -0.545707     -1.407548      0.728871
  H      -2.134887     -0.023258     -1.505115
  H      -2.712659      1.160228     -0.573418
  H       1.753925     -1.230096      0.552200
  O      -3.628326     -1.108998      1.696058
  C      -4.042083     -1.250698      0.625532
  O      -4.540619     -1.458326     -0.397135
14
Coordinates from ORCA-job ./scants E -399.091814082621
  O       1.257020     -0.412485      0.482223
  N      -2.184883      0.298458     -0.547520
  C      -0.837169      0.571757     -0.052738
  C      -0.055837     -0.720942      0.033143
  H      -0.918678      1.008404      0.942639
  H      -0.280877      1.278247     -0.677911
  H      -0.021386     -1.196105     -0.952108
  H      -0.550244     -1.407567      0.724089
  H      -2.136453     -0.023117     -1.506609
  H      -2.715653      1.159452     -0.572687
  H       1.750396     -1.232693      0.557080
  O      -3.624577     -1.107869      1.697871
  C      -4.036457     -1.250356      0.626293
  O      -4.539889     -1.460725     -0.394059
14
Coordinates from ORCA-job ./scants E -399.091824341633
  O       1.256115     -0.412356      0.483382
  N      -2.184905      0.299447     -0.548517
  C      -0.837295      0.571365     -0.053505
  C      -0.056124     -0.721496      0.033002
  H      -0.918535      1.007883      0.941955
  H      -0.280470      1.277580     -0.678556
  H      -0.020457     -1.196745     -0.952133
  H      -0.551059     -1.407819      0.723809
  H      -2.137862     -0.021757     -1.507673
  H      -2.716806      1.159681     -0.571149
  H       1.749818     -1.232325      0.558800
  O      -3.622227     -1.108311      1.697569
  C      -4.035096     -1.250287      0.626262
  O      -4.539782     -1.460402     -0.393540
14
Coordinates from ORCA-job ./scants E -399.091826164152
  O       1.254666     -0.411642      0.484858
  N      -2.185354      0.301027     -0.550095
  C      -0.837661      0.570399     -0.054958
  C      -0.056892     -0.722682      0.033348
  H      -0.917987      1.007518      0.940300
  H      -0.279631      1.275408     -0.680400
  H      -0.019513     -1.199104     -0.951094
  H      -0.551866     -1.408151      0.724884
  H      -2.140627     -0.018026     -1.509969
  H      -2.718569      1.160419     -0.567441
  H       1.749304     -1.230964      0.561321
  O      -3.617601     -1.110045      1.696294
  C      -4.033227     -1.250559      0.625886
  O      -4.539727     -1.459140     -0.393229
14
Coordinates from ORCA-job ./scants E -399.091821551623
  O       1.254199     -0.411505      0.485142
  N      -2.185568      0.301522     -0.550642
  C      -0.837791      0.570200     -0.055564
  C      -0.057444     -0.723041      0.033830
  H      -0.917781      1.008050      0.939385
  H      -0.279094      1.274382     -0.681378
  H      -0.019854     -1.200438     -0.950112
  H      -0.552235     -1.407953      0.726046
  H      -2.141506     -0.015799     -1.511120
  H      -2.719120      1.160747     -0.565641
  H       1.749052     -1.230674      0.561879
  O      -3.615584     -1.111150      1.695585
  C      -4.032438     -1.251049      0.625614
  O      -4.539520     -1.458836     -0.393316
14
Coordinates from ORCA-job ./scants E -399.087602984230
  O       1.253958     -0.387987      0.483923
  N      -2.225570      0.281724     -0.541226
  C      -0.866049      0.532835     -0.047655
  C      -0.053081     -0.745107      0.040978
  H      -0.944413      0.964444      0.950170
  H      -0.318480      1.245424     -0.673946
  H      -0.006018     -1.225767     -0.941019
  H      -0.512940     -1.443523      0.746333
  H      -2.156752     -0.011134     -1.547202
  H      -2.730007      1.195774     -0.558606
  H       1.775865     -1.190694      0.561939
  O      -3.584372     -1.096102      1.694689
  C      -3.974716     -1.190345      0.594305
  O      -4.552109     -1.425084     -0.402977
14
Coordinates from ORCA-job ./scants E -399.090388738493
  O       1.244019     -0.390946      0.480228
  N      -2.219332      0.279409     -0.543527
  C      -0.866184      0.538989     -0.043490
  C      -0.062287     -0.741212      0.037987
  H      -0.948085      0.969195      0.954798
  H      -0.316941      1.251556     -0.666399
  H      -0.017572     -1.216767     -0.946167
  H      -0.525247     -1.440299      0.737099
  H      -2.150370     -0.008402     -1.511953
  H      -2.712182      1.162949     -0.573451
  H       1.761681     -1.196196      0.553845
  O      -3.583126     -1.080804      1.682829
  C      -3.969157     -1.190687      0.593513
  O      -4.529901     -1.432327     -0.395606
14
Coordinates from ORCA-job ./scants E -399.090645778390
  O       1.240257     -0.397833      0.483566
  N      -2.216419      0.278805     -0.545482
  C      -0.866823      0.543457     -0.039444
  C      -0.066366     -0.738131      0.035814
  H      -0.952156      0.970065      0.959888
  H      -0.316619      1.259040     -0.658171
  H      -0.021419     -1.206882     -0.951729
  H      -0.535974     -1.440781      0.726744
  H      -2.146918     -0.019012     -1.510577
  H      -2.716740      1.157577     -0.580093
  H       1.753912     -1.206054      0.553185
  O      -3.573926     -1.065594      1.681228
  C      -3.962709     -1.191207      0.597086
  O      -4.512784     -1.438995     -0.392310
14
Coordinates from ORCA-job ./scants E -399.090948905697
  O       1.231224     -0.414465      0.494770
  N      -2.210469      0.278315     -0.550906
  C      -0.869454      0.552431     -0.032353
  C      -0.074151     -0.731885      0.029228
  H      -0.964673      0.968230      0.970370
  H      -0.317158      1.277372     -0.638877
  H      -0.025039     -1.183082     -0.966601
  H      -0.560775     -1.443643      0.699496
  H      -2.140352     -0.043127     -1.509104
  H      -2.729193      1.146523     -0.594905
  H       1.735899     -1.229014      0.555816
  O      -3.548339     -1.028051      1.681678
  C      -3.946704     -1.191161      0.607565
  O      -4.475500     -1.453983     -0.386473
14
Coordinates from ORCA-job ./scants E -399.090989168498
  O       1.227419     -0.419168      0.500932
  N      -2.209441      0.279421     -0.553849
  C      -0.870865      0.553875     -0.032481
  C      -0.075664     -0.731072      0.026188
  H      -0.969876      0.964657      0.972082
  H      -0.317407      1.282614     -0.633647
  H      -0.022251     -1.176297     -0.972153
  H      -0.568472     -1.445510      0.689375
  H      -2.140720     -0.048157     -1.509992
  H      -2.734048      1.143912     -0.598127
  H       1.729928     -1.235097      0.560668
  O      -3.536860     -1.016792      1.683055
  C      -3.940490     -1.190426      0.611891
  O      -4.465938     -1.457501     -0.384239
14
Coordinates from ORCA-job ./scants E -399.091002784487
  O       1.224664     -0.420331      0.505464
  N      -2.209567      0.281010     -0.556364
  C      -0.871800      0.553401     -0.034279
  C      -0.076037     -0.731751      0.024401
  H      -0.972358      0.961171      0.971537
  H      -0.317034      1.283731     -0.632416
  H      -0.018534     -1.174559     -0.974765
  H      -0.571839     -1.446956      0.684532
  H      -2.142908     -0.047482     -1.512242
  H      -2.736732      1.143900     -0.597901
  H       1.727031     -1.236283      0.565798
  O      -3.529394     -1.013520      1.683909
  C      -3.936619     -1.189780      0.614104
  O      -4.463557     -1.458093     -0.382074
14
Coordinates from ORCA-job ./scants E -399.091009885317
  O       1.222060     -0.420532      0.509118
  N      -2.209826      0.282749     -0.558963
  C      -0.872544      0.552659     -0.036233
  C      -0.076637     -0.732738      0.023347
  H      -0.973676      0.958544      0.970398
  H      -0.316155      1.283378     -0.632454
  H      -0.015556     -1.174599     -0.975986
  H      -0.574379     -1.447987      0.681897
  H      -2.145247     -0.044628     -1.515236
  H      -2.738600      1.144653     -0.596598
  H       1.724830     -1.236158      0.570453
  O      -3.522987     -1.013194      1.684220
  C      -3.933030     -1.189485      0.615355
  O      -4.462939     -1.458204     -0.379612
14
Coordinates from ORCA-job ./scants E -399.091017228624
  O       1.217664     -0.421164      0.514640
  N      -2.210043      0.285624     -0.563480
  C      -0.873668      0.551931     -0.039002
  C      -0.078388     -0.734123      0.022204
  H      -0.975422      0.955758      0.968457
  H      -0.314366      1.282482     -0.632798
  H      -0.012089     -1.175064     -0.977128
  H      -0.579128     -1.449284      0.678465
  H      -2.148266     -0.038878     -1.520713
  H      -2.741297      1.146035     -0.594422
  H       1.720956     -1.236395      0.577228
  O      -3.512472     -1.013662      1.684367
  C      -3.926538     -1.189543      0.616966
  O      -4.461628     -1.459261     -0.375079
14
Coordinates from ORCA-job ./scants E -399.091023118050
  O       1.213240     -0.422750      0.519725
  N      -2.209973      0.288392     -0.568167
  C      -0.874716      0.552010     -0.041058
  C      -0.080985     -0.735014      0.021656
  H      -0.977318      0.954849      0.966672
  H      -0.312508      1.281933     -0.632962
  H      -0.010442     -1.175320     -0.977610
  H      -0.584846     -1.450122      0.675523
  H      -2.149776     -0.032563     -1.526511
  H      -2.743698      1.147299     -0.592848
  H       1.716491     -1.237981      0.582725
  O      -3.501671     -1.014197      1.684352
  C      -3.919242     -1.190243      0.618410
  O      -4.459242     -1.461835     -0.370201
14
Coordinates from ORCA-job ./scants E -399.091027516889
  O       1.208128     -0.425918      0.525167
  N      -2.209626      0.291430     -0.573750
  C      -0.875903      0.552983     -0.042602
  C      -0.084851     -0.735472      0.021627
  H      -0.980251      0.955635      0.964916
  H      -0.310521      1.282075     -0.632584
  H      -0.010664     -1.175104     -0.977642
  H      -0.592612     -1.450540      0.672512
  H      -2.149460     -0.024780     -1.533516
  H      -2.746179      1.148604     -0.592125
  H       1.710539     -1.241716      0.587514
  O      -3.488551     -1.014156      1.684306
  C      -3.909820     -1.191759      0.620159
  O      -4.454915     -1.466823     -0.364275
14
Coordinates from ORCA-job ./scants E -399.091036284495
  O       1.202715     -0.430672      0.530351
  N      -2.209107      0.294503     -0.579934
  C      -0.877258      0.554727     -0.043369
  C      -0.089778     -0.735509      0.022254
  H      -0.984661      0.957850      0.963510
  H      -0.308759      1.283130     -0.631234
  H      -0.013297     -1.174442     -0.977162
  H      -0.601935     -1.450349      0.670003
  H      -2.146705     -0.015727     -1.541430
  H      -2.748431      1.149986     -0.592815
  H       1.703428     -1.247645      0.590757
  O      -3.473676     -1.012888      1.684249
  C      -3.898723     -1.194078      0.622253
  O      -4.448498     -1.474427     -0.357726
14
Coordinates from ORCA-job ./scants E -399.091048843856
  O       1.196269     -0.437387      0.536009
  N      -2.208629      0.297877     -0.587570
  C      -0.879171      0.556993     -0.043517
  C      -0.096084     -0.735402      0.023418
  H      -0.991703      0.960611      0.962482
  H      -0.307328      1.285266     -0.628261
  H      -0.018261     -1.173199     -0.976447
  H      -0.613589     -1.449783      0.667533
  H      -2.141102     -0.004052     -1.551390
  H      -2.750501      1.151851     -0.595441
  H       1.694446     -1.256121      0.592976
  O      -3.454992     -1.009344      1.684214
  C      -3.884775     -1.197270      0.625277
  O      -4.439265     -1.485582     -0.349577
14
Coordinates from ORCA-job ./scants E -399.091056542791
  O       1.191776     -0.442544      0.539436
  N      -2.208751      0.299818     -0.593251
  C      -0.881052      0.558186     -0.042929
  C      -0.100577     -0.735534      0.024412
  H      -0.998652      0.961406      0.962631
  H      -0.307243      1.287354     -0.624512
  H      -0.022872     -1.172021     -0.976096
  H      -0.621580     -1.449539      0.666202
  H      -2.135004      0.005263     -1.559026
  H      -2.750975      1.153692     -0.599313
  H       1.688166     -1.262568      0.593110
  O      -3.441274     -1.004268      1.684261
  C      -3.874840     -1.199617      0.628129
  O      -4.431808     -1.495167     -0.343347
14
Coordinates from ORCA-job ./scants E -399.091065744578
  O       1.186807     -0.446843      0.543516
  N      -2.209676      0.301283     -0.599438
  C      -0.883837      0.557941     -0.042289
  C      -0.104311     -0.736465      0.024406
  H      -1.007259      0.958271      0.963811
  H      -0.308150      1.289454     -0.618891
  H      -0.025394     -1.170123     -0.977275
  H      -0.628440     -1.450971      0.663100
  H      -2.128730      0.014786     -1.567244
  H      -2.750514      1.156190     -0.604757
  H       1.682492     -1.267498      0.593965
  O      -3.427332     -0.995708      1.684574
  C      -3.865671     -1.200949      0.632190
  O      -4.424670     -1.504908     -0.335962
14
Coordinates from ORCA-job ./scants E -399.091072969845
  O       1.183893     -0.447451      0.546466
  N      -2.210957      0.301439     -0.602868
  C      -0.886124      0.556120     -0.042004
  C      -0.105065     -0.737775      0.022941
  H      -1.012436      0.952195      0.965508
  H      -0.309520      1.290142     -0.614391
  H      -0.023189     -1.168243     -0.979856
  H      -0.630068     -1.454093      0.658801
  H      -2.126224      0.018852     -1.571609
  H      -2.749281      1.158027     -0.608699
  H       1.680776     -1.267458      0.595807
  O      -3.421385     -0.988151      1.685230
  C      -3.862674     -1.200064      0.635377
  O      -4.422431     -1.509080     -0.330998
14
Coordinates from ORCA-job ./scants E -399.091080231178
  O       1.180022     -0.446986      0.551132
  N      -2.212531      0.301398     -0.606916
  C      -0.889069      0.553220     -0.041876
  C      -0.105200     -0.739525      0.019812
  H      -1.017695      0.942787      0.967944
  H      -0.311202      1.290546     -0.608681
  H      -0.017062     -1.164875     -0.984574
  H      -0.630956     -1.459721      0.650546
  H      -2.124965      0.021601     -1.576283
  H      -2.747799      1.159958     -0.613207
  H       1.679331     -1.265568      0.599935
  O      -3.416116     -0.978158      1.686605
  C      -3.860329     -1.197592      0.639568
  O      -4.421115     -1.512628     -0.324298
14
Coordinates from ORCA-job ./scants E -399.091085652573
  O       1.177706     -0.446038      0.554458
  N      -2.213437      0.300917     -0.609171
  C      -0.891033      0.551017     -0.041392
  C      -0.104614     -0.740490      0.016779
  H      -1.020472      0.935478      0.970265
  H      -0.312561      1.290918     -0.604253
  H      -0.010885     -1.161314     -0.988949
  H      -0.630316     -1.464875      0.642679
  H      -2.124557      0.020935     -1.578354
  H      -2.746631      1.160765     -0.616732
  H       1.679090     -1.263373      0.603093
  O      -3.415606     -0.970266      1.688270
  C      -3.860254     -1.194774      0.642560
  O      -4.421117     -1.514442     -0.319547
14
Coordinates from ORCA-job ./scants E -399.091084834032
  O       1.171630     -0.447090      0.562408
  N      -2.214378      0.300751     -0.615188
  C      -0.894949      0.548131     -0.040048
  C      -0.105238     -0.741616      0.011124
  H      -1.027797      0.923294      0.974594
  H      -0.314902      1.293207     -0.594472
  H      -0.000695     -1.152718     -0.997501
  H      -0.632733     -1.474293      0.625792
  H      -2.121694      0.020958     -1.584075
  H      -2.745460      1.161897     -0.624766
  H       1.675519     -1.263004      0.609141
  O      -3.410752     -0.953261      1.691832
  C      -3.856002     -1.190032      0.649157
  O      -4.417237     -1.521765     -0.308292
14
Coordinates from ORCA-job ./scants E -399.091091320520
  O       1.171188     -0.447610      0.563556
  N      -2.214166      0.300048     -0.615789
  C      -0.895617      0.547658     -0.038609
  C      -0.104709     -0.741304      0.009269
  H      -1.029608      0.920264      0.976784
  H      -0.316023      1.294807     -0.590740
  H       0.002084     -1.148829     -1.000581
  H      -0.632056     -1.477285      0.620119
  H      -2.119726      0.017847     -1.583770
  H      -2.744973      1.161312     -0.628240
  H       1.675417     -1.263376      0.609002
  O      -3.413894     -0.946729      1.693647
  C      -3.856568     -1.187891      0.650893
  O      -4.416035     -1.524452     -0.305836
14
Coordinates from ORCA-job ./scants E -399.091091421606
  O       1.169140     -0.450404      0.566474
  N      -2.213378      0.299387     -0.618612
  C      -0.897286      0.547202     -0.035631
  C      -0.104894     -0.740688      0.006043
  H      -1.035535      0.914503      0.981106
  H      -0.318062      1.298859     -0.582032
  H       0.005583     -1.140799     -1.006435
  H      -0.633223     -1.482453      0.609123
  H      -2.114399      0.013878     -1.585198
  H      -2.744620      1.160277     -0.635788
  H       1.673243     -1.266421      0.608311
  O      -3.416401     -0.931912      1.697050
  C      -3.854407     -1.184225      0.654906
  O      -4.410447     -1.532747     -0.299612
14
Coordinates from ORCA-job ./scants E -399.091092848891
  O       1.169008     -0.451212      0.566466
  N      -2.213127      0.299365     -0.619284
  C      -0.897582      0.547137     -0.034900
  C      -0.104961     -0.740657      0.005756
  H      -1.037333      0.913354      0.982044
  H      -0.318428      1.299830     -0.579923
  H       0.005166     -1.139531     -1.007273
  H      -0.633470     -1.482980      0.607995
  H      -2.112959      0.013558     -1.585645
  H      -2.744613      1.160084     -0.637235
  H       1.672932     -1.267394      0.607266
  O      -3.417088     -0.928285      1.697576
  C      -3.853719     -1.183600      0.655549
  O      -4.408511     -1.535210     -0.298685
14
Coordinates from ORCA-job ./scants E -399.086369296304
  O       1.176901     -0.432714      0.551971
  N      -2.250753      0.275930     -0.597783
  C      -0.915948      0.523397     -0.020758
  C      -0.104065     -0.754889      0.018666
  H      -1.027190      0.896410      0.995991
  H      -0.349187      1.272957     -0.583277
  H      -0.005465     -1.165178     -0.991122
  H      -0.601516     -1.499439      0.647252
  H      -2.121605      0.011193     -1.613847
  H      -2.759773      1.190003     -0.622735
  H       1.697297     -1.238638      0.594540
  O      -3.408257     -0.928865      1.690582
  C      -3.805623     -1.132739      0.610326
  O      -4.419502     -1.512969     -0.320099
14
Coordinates from ORCA-job ./scants E -399.089361175149
  O       1.168316     -0.433861      0.551230
  N      -2.243908      0.275421     -0.598852
  C      -0.917769      0.525106     -0.022354
  C      -0.109322     -0.753917      0.014228
  H      -1.040011      0.897935      0.993939
  H      -0.354018      1.276915     -0.582057
  H      -0.008288     -1.159786     -0.996545
  H      -0.609076     -1.499995      0.635531
  H      -2.120003      0.018024     -1.570517
  H      -2.738309      1.158669     -0.632539
  H       1.687443     -1.240480      0.592454
  O      -3.405991     -0.917779      1.681120
  C      -3.801472     -1.130718      0.608733
  O      -4.402278     -1.511076     -0.314666
14
Coordinates from ORCA-job ./scants E -399.089597501728
  O       1.165521     -0.438317      0.555110
  N      -2.241768      0.275985     -0.599706
  C      -0.918307      0.526346     -0.021062
  C      -0.110678     -0.752654      0.012411
  H      -1.046718      0.896184      0.995703
  H      -0.355067      1.281314     -0.577257
  H      -0.007284     -1.153200     -1.000369
  H      -0.614952     -1.501589      0.626313
  H      -2.121364      0.009385     -1.569334
  H      -2.742386      1.155252     -0.634630
  H       1.682909     -1.246206      0.594339
  O      -3.398106     -0.906829      1.679208
  C      -3.796912     -1.129834      0.611367
  O      -4.389574     -1.511379     -0.312387
14
Coordinates from ORCA-job ./scants E -399.089911348984
  O       1.158091     -0.450197      0.565594
  N      -2.236838      0.277602     -0.602791
  C      -0.919785      0.530015     -0.017899
  C      -0.114046     -0.749130      0.007275
  H      -1.062680      0.889919      1.000689
  H      -0.355859      1.293176     -0.562955
  H      -0.004111     -1.135604     -1.010659
  H      -0.630522     -1.505012      0.602694
  H      -2.126933     -0.014408     -1.567225
  H      -2.755238      1.146608     -0.640164
  H       1.670695     -1.261350      0.599648
  O      -3.375314     -0.876128      1.676119
  C      -3.784258     -1.127191      0.619316
  O      -4.357887     -1.513844     -0.309936
14
Coordinates from ORCA-job ./scants E -399.089949281531
  O       1.155628     -0.453039      0.568571
  N      -2.235636      0.278413     -0.604470
  C      -0.920517      0.531138     -0.017482
  C      -0.115033     -0.748353      0.005399
  H      -1.066245      0.886570      1.002313
  H      -0.354929      1.296479     -0.557923
  H      -0.002795     -1.131160     -1.013697
  H      -0.634713     -1.505544      0.596643
  H      -2.129727     -0.021027     -1.566610
  H      -2.759217      1.143935     -0.641690
  H       1.667161     -1.264882      0.601402
  O      -3.368347     -0.866971      1.675684
  C      -3.780190     -1.125908      0.621797
  O      -4.350127     -1.515192     -0.310232
14
Coordinates from ORCA-job ./scants E -399.089958009551
  O       1.154486     -0.453411      0.569727
  N      -2.235261      0.279137     -0.605703
  C      -0.921109      0.531374     -0.017741
  C      -0.115357     -0.748412      0.004439
  H      -1.066868      0.883994      1.003044
  H      -0.353852      1.297403     -0.555504
  H      -0.001749     -1.130228     -1.014816
  H      -0.635830     -1.505672      0.594975
  H      -2.131528     -0.023270     -1.566936
  H      -2.760915      1.143279     -0.642024
  H       1.666128     -1.265177      0.602236
  O      -3.365963     -0.863869      1.675671
  C      -3.778477     -1.124913      0.622557
  O      -4.348389     -1.515777     -0.310220
14
Coordinates from ORCA-job ./scants E -399.089960290251
  O       1.153802     -0.453106      0.570419
  N      -2.235063      0.279773     -0.606599
  C      -0.921552      0.531240     -0.018111
  C      -0.115444     -0.748680      0.003862
  H      -1.066836      0.882098      1.003360
  H      -0.353065      1.297522     -0.554264
  H      -0.000702     -1.130188     -1.015319
  H      -0.636039     -1.505909      0.594312
  H      -2.132629     -0.024042     -1.567372
  H      -2.761685      1.143247     -0.642057
  H       1.665952     -1.264567      0.602712
  O      -3.365350     -0.862885      1.675782
  C      -3.777668     -1.124082      0.622652
  O      -4.348404     -1.515965     -0.309673
14
Coordinates from ORCA-job ./scants E -399.089965592255
  O       1.153049     -0.452783      0.571398
  N      -2.234800      0.280487     -0.607493
  C      -0.921944      0.530969     -0.018462
  C      -0.115460     -0.748974      0.003275
  H      -1.066889      0.880298      1.003598
  H      -0.352407      1.297520     -0.553188
  H       0.000747     -1.129984     -1.015872
  H      -0.636214     -1.506470      0.593199
  H      -2.133522     -0.024738     -1.567839
  H      -2.762351      1.143320     -0.642175
  H       1.665916     -1.263819      0.603146
  O      -3.365212     -0.862085      1.676060
  C      -3.776933     -1.123112      0.622642
  O      -4.348665     -1.516170     -0.308582
14
Coordinates from ORCA-job ./scants E -399.089961868654
  O       1.152683     -0.452829      0.572088
  N      -2.234621      0.280773     -0.607819
  C      -0.922005      0.530828     -0.018483
  C      -0.115426     -0.749033      0.003041
  H      -1.067126      0.879807      1.003681
  H      -0.352300      1.297559     -0.552812
  H       0.001571     -1.129543     -1.016203
  H      -0.636390     -1.506967      0.592205
  H      -2.133659     -0.025149     -1.567957
  H      -2.762587      1.143318     -0.642409
  H       1.665924     -1.263655      0.603205
  O      -3.365402     -0.861612      1.676330
  C      -3.776641     -1.122642      0.622668
  O      -4.348706     -1.516397     -0.307828
14
Coordinates from ORCA-job ./scants E -399.085278685423
  O       1.153094     -0.445784      0.561517
  N      -2.265236      0.257380     -0.586282
  C      -0.939401      0.516938     -0.001961
  C      -0.122074     -0.758642      0.014857
  H      -1.059960      0.874934      1.018771
  H      -0.378985      1.280242     -0.551112
  H      -0.018480     -1.143927     -1.004142
  H      -0.622726     -1.519930      0.616243
  H      -2.129247     -0.034165     -1.593720
  H      -2.779486      1.168750     -0.636059
  H       1.675318     -1.251073      0.588748
  O      -3.354177     -0.855528      1.674318
  C      -3.715176     -1.074475      0.582275
  O      -4.338151     -1.510262     -0.323747
14
Coordinates from ORCA-job ./scants E -399.088199383269
  O       1.146988     -0.445538      0.562203
  N      -2.261350      0.259156     -0.588975
  C      -0.940967      0.515972     -0.005086
  C      -0.124565     -0.758703      0.010568
  H      -1.071245      0.873004      1.015671
  H      -0.385316      1.281697     -0.552762
  H      -0.017036     -1.141077     -1.008933
  H      -0.627274     -1.521420      0.608925
  H      -2.134329     -0.022589     -1.553526
  H      -2.759463      1.139503     -0.642938
  H       1.669480     -1.250614      0.589999
  O      -3.350271     -0.847766      1.664157
  C      -3.712639     -1.072041      0.578657
  O      -4.326699     -1.505126     -0.318255
14
Coordinates from ORCA-job ./scants E -399.088402984640
  O       1.144746     -0.447924      0.566072
  N      -2.260379      0.260907     -0.590493
  C      -0.941406      0.515116     -0.004642
  C      -0.124744     -0.758687      0.008977
  H      -1.077189      0.868987      1.016622
  H      -0.387327      1.283814     -0.549885
  H      -0.013808     -1.137332     -1.011550
  H      -0.630119     -1.523300      0.602807
  H      -2.138837     -0.028791     -1.553501
  H      -2.763282      1.138155     -0.642959
  H       1.667009     -1.253202      0.593176
  O      -3.341499     -0.839721      1.661247
  C      -3.709241     -1.070701      0.579683
  O      -4.318609     -1.502863     -0.315848
14
Coordinates from ORCA-job ./scants E -399.088639736949
  O       1.138339     -0.454322      0.575758
  N      -2.257743      0.264752     -0.594560
  C      -0.942626      0.514636     -0.003586
  C      -0.126206     -0.758023      0.004679
  H      -1.090327      0.859425      1.019243
  H      -0.389387      1.289978     -0.540834
  H      -0.006799     -1.127104     -1.018428
  H      -0.638655     -1.527227      0.586652
  H      -2.149554     -0.045675     -1.553450
  H      -2.773507      1.134840     -0.643911
  H       1.659426     -1.260414      0.600684
  O      -3.318781     -0.818224      1.656537
  C      -3.699443     -1.067431      0.583778
  O      -4.299422     -1.500754     -0.312857
14
Coordinates from ORCA-job ./scants E -399.088680661621
  O       1.135536     -0.456814      0.579201
  N      -2.256525      0.265968     -0.596469
  C      -0.943399      0.515578     -0.003335
  C      -0.127350     -0.757375      0.002771
  H      -1.094171      0.855969      1.020560
  H      -0.388279      1.292898     -0.535943
  H      -0.004809     -1.122769     -1.021295
  H      -0.642561     -1.528244      0.580126
  H      -2.153048     -0.052649     -1.552740
  H      -2.777027      1.132846     -0.645390
  H       1.655959     -1.263361      0.602842
  O      -3.311109     -0.809784      1.655810
  C      -3.695126     -1.065930      0.585972
  O      -4.292777     -1.501876     -0.312403
14
Coordinates from ORCA-job ./scants E -399.088690928476
  O       1.134094     -0.457875      0.580638
  N      -2.255699      0.266556     -0.597719
  C      -0.944127      0.516517     -0.003202
  C      -0.128097     -0.756905      0.001660
  H      -1.095497      0.853850      1.021654
  H      -0.386594      1.294637     -0.532183
  H      -0.004057     -1.120393     -1.022900
  H      -0.644485     -1.528655      0.576769
  H      -2.154365     -0.057034     -1.552236
  H      -2.778703      1.131710     -0.647131
  H       1.654303     -1.264582      0.603098
  O      -3.308698     -0.805543      1.656070
  C      -3.692862     -1.064682      0.587210
  O      -4.289898     -1.503143     -0.312023
14
Coordinates from ORCA-job ./scants E -399.088692271952
  O       1.133781     -0.457876      0.580794
  N      -2.255275      0.266814     -0.598244
  C      -0.944573      0.516791     -0.003043
  C      -0.128226     -0.756767      0.001242
  H      -1.095727      0.852626      1.022363
  H      -0.385627      1.295208     -0.530145
  H      -0.003789     -1.119596     -1.023496
  H      -0.644639     -1.528912      0.575788
  H      -2.154515     -0.059200     -1.551851
  H      -2.779083      1.131339     -0.648458
  H       1.654238     -1.264447      0.602404
  O      -3.309340     -0.804284      1.656543
  C      -3.692421     -1.063753      0.587460
  O      -4.289489     -1.503483     -0.311651
14
Coordinates from ORCA-job ./scants E -399.088694373799
  O       1.133744     -0.457497      0.580721
  N      -2.254786      0.267118     -0.598676
  C      -0.945018      0.516734     -0.002673
  C      -0.128032     -0.756725      0.000835
  H      -1.095932      0.850973      1.023323
  H      -0.384803      1.295597     -0.527851
  H      -0.003277     -1.118809     -1.024117
  H      -0.644080     -1.529449      0.574925
  H      -2.154487     -0.061966     -1.551187
  H      -2.779207      1.131106     -0.650317
  H       1.654874     -1.263669      0.601082
  O      -3.311318     -0.803292      1.657298
  C      -3.692583     -1.062367      0.587453
  O      -4.289780     -1.503296     -0.311112
14
Coordinates from ORCA-job ./scants E -399.088701894425
  O       1.133918     -0.457130      0.580692
  N      -2.254547      0.267246     -0.598699
  C      -0.945102      0.516427     -0.002293
  C      -0.127643     -0.756755      0.000633
  H      -1.096102      0.850027      1.023914
  H      -0.384777      1.295665     -0.526850
  H      -0.002698     -1.118302     -1.024484
  H      -0.643320     -1.529996      0.574380
  H      -2.154453     -0.063799     -1.550534
  H      -2.779030      1.131092     -0.651510
  H       1.655673     -1.262923      0.600168
  O      -3.312980     -0.802972      1.657806
  C      -3.693174     -1.061437      0.587322
  O      -4.290450     -1.502684     -0.310838
14
Coordinates from ORCA-job ./scants E -399.088700544763
  O       1.134153     -0.456873      0.580793
  N      -2.254430      0.267231     -0.598481
  C      -0.944979      0.516105     -0.001902
  C      -0.127194     -0.756756      0.000499
  H      -1.096254      0.849522      1.024327
  H      -0.385137      1.295676     -0.526489
  H      -0.002059     -1.117769     -1.024784
  H      -0.642589     -1.530524      0.573809
  H      -2.154477     -0.065381     -1.549808
  H      -2.778681      1.131139     -0.652411
  H       1.656447     -1.262336      0.599523
  O      -3.314296     -0.802918      1.658170
  C      -3.693937     -1.060773      0.587232
  O      -4.291252     -1.501886     -0.310772
14
Coordinates from ORCA-job ./scants E -399.088698375926
  O       1.134364     -0.456748      0.581040
  N      -2.254373      0.267092     -0.598114
  C      -0.944774      0.515903     -0.001546
  C      -0.126765     -0.756674      0.000359
  H      -1.096336      0.849309      1.024637
  H      -0.385606      1.295759     -0.526413
  H      -0.001382     -1.117102     -1.025101
  H      -0.642014     -1.530979      0.573096
  H      -2.154552     -0.066992     -1.548938
  H      -2.778200      1.131168     -0.653239
  H       1.657092     -1.261945      0.599054
  O      -3.315331     -0.803006      1.658471
  C      -3.694741     -1.060289      0.587250
  O      -4.292068     -1.501038     -0.310849
14
Coordinates from ORCA-job ./scants E -399.084230459694
  O       1.134684     -0.450050      0.570830
  N      -2.284325      0.243788     -0.576436
  C      -0.961754      0.502365      0.015336
  C      -0.133535     -0.766144      0.012059
  H      -1.088735      0.844413      1.040342
  H      -0.411734      1.279035     -0.524010
  H      -0.021713     -1.130982     -1.013509
  H      -0.628912     -1.543999      0.596590
  H      -2.150061     -0.077451     -1.574894
  H      -2.796356      1.157087     -0.647699
  H       1.665945     -1.249802      0.584604
  O      -3.304023     -0.796767      1.656329
  C      -3.633417     -1.011563      0.546308
  O      -4.280749     -1.495472     -0.326144
14
Coordinates from ORCA-job ./scants E -399.087249559090
  O       1.129006     -0.449138      0.571305
  N      -2.280001      0.245528     -0.579339
  C      -0.962907      0.501054      0.012102
  C      -0.135360     -0.766484      0.007881
  H      -1.099710      0.842241      1.037002
  H      -0.418639      1.280007     -0.526496
  H      -0.019664     -1.128758     -1.017971
  H      -0.632561     -1.545326      0.589998
  H      -2.155888     -0.064518     -1.535549
  H      -2.776353      1.124564     -0.651459
  H       1.660971     -1.248390      0.586062
  O      -3.300853     -0.789743      1.645169
  C      -3.631621     -1.008385      0.541971
  O      -4.271106     -1.488194     -0.320970
14
Coordinates from ORCA-job ./scants E -399.087432306446
  O       1.127151     -0.451196      0.575062
  N      -2.278754      0.247175     -0.580830
  C      -0.962930      0.500045      0.012268
  C      -0.135054     -0.766582      0.006342
  H      -1.105234      0.838285      1.037508
  H      -0.420711      1.281837     -0.524383
  H      -0.015963     -1.125441     -1.020297
  H      -0.634869     -1.546934      0.584325
  H      -2.160720     -0.070752     -1.535425
  H      -2.780492      1.123983     -0.650639
  H       1.659089     -1.250507      0.589522
  O      -3.292870     -0.782938      1.642231
  C      -3.628633     -1.006885      0.542411
  O      -4.264694     -1.485632     -0.318389
14
Coordinates from ORCA-job ./scants E -399.087621953991
  O       1.122047     -0.456570      0.583925
  N      -2.275775      0.250682     -0.584487
  C      -0.963085      0.499619      0.012541
  C      -0.135412     -0.765887      0.002363
  H      -1.116376      0.829840      1.038903
  H      -0.422542      1.287269     -0.517680
  H      -0.008392     -1.116462     -1.026171
  H      -0.641908     -1.549728      0.569949
  H      -2.171586     -0.086386     -1.534859
  H      -2.789698      1.121129     -0.649997
  H       1.653138     -1.256461      0.597163
  O      -3.273884     -0.765978      1.638318
  C      -3.620506     -1.003425      0.544861
  O      -4.250707     -1.483185     -0.315124
14
Coordinates from ORCA-job ./scants E -399.087659836715
  O       1.119491     -0.459058      0.587574
  N      -2.274344      0.251961     -0.586304
  C      -0.963417      0.500638      0.012458
  C      -0.136136     -0.765068      0.000335
  H      -1.119942      0.826565      1.039740
  H      -0.421483      1.290266     -0.513497
  H      -0.005699     -1.111963     -1.029019
  H      -0.645647     -1.550445      0.563151
  H      -2.175560     -0.093747     -1.533651
  H      -2.793113      1.119236     -0.651334
  H       1.649898     -1.259403      0.599769
  O      -3.267171     -0.758858      1.638165
  C      -3.616444     -1.001699      0.546662
  O      -4.245119     -1.483968     -0.314344
14
Coordinates from ORCA-job ./scants E -399.087673637027
  O       1.117741     -0.460557      0.589726
  N      -2.273242      0.252812     -0.587633
  C      -0.963933      0.501876      0.012405
  C      -0.136783     -0.764273     -0.001209
  H      -1.121492      0.824233      1.040698
  H      -0.419708      1.292578     -0.509576
  H      -0.004104     -1.108607     -1.031135
  H      -0.648105     -1.550794      0.558379
  H      -2.177657     -0.099751     -1.532420
  H      -2.794914      1.117808     -0.653728
  H       1.647763     -1.261162      0.600614
  O      -3.264798     -0.754744      1.639151
  C      -3.613714     -1.000037      0.548154
  O      -4.241741     -1.484924     -0.313719
14
Coordinates from ORCA-job ./scants E -399.087677926862
  O       1.117226     -0.460782      0.590288
  N      -2.272700      0.253237     -0.588131
  C      -0.964312      0.502375      0.012517
  C      -0.136875     -0.763923     -0.001907
  H      -1.121661      0.822899      1.041454
  H      -0.418611      1.293492     -0.507306
  H      -0.003371     -1.107130     -1.032099
  H      -0.648531     -1.551079      0.556480
  H      -2.178228     -0.103315     -1.531326
  H      -2.795239      1.117417     -0.655931
  H       1.647444     -1.261268      0.600083
  O      -3.265811     -0.753793      1.640232
  C      -3.613051     -0.998804      0.548691
  O      -4.240964     -1.484868     -0.313339
14
Coordinates from ORCA-job ./scants E -399.087686026496
  O       1.117158     -0.460423      0.590445
  N      -2.272202      0.253685     -0.588257
  C      -0.964647      0.502487      0.012929
  C      -0.136538     -0.763691     -0.002507
  H      -1.121430      0.821349      1.042514
  H      -0.417764      1.294052     -0.505018
  H      -0.002459     -1.105784     -1.032987
  H      -0.647918     -1.551669      0.554980
  H      -2.178554     -0.107760     -1.529573
  H      -2.794909      1.117421     -0.659004
  H       1.648131     -1.260432      0.598646
  O      -3.268779     -0.753836      1.641675
  C      -3.613415     -0.997138      0.548889
  O      -4.241361     -1.483804     -0.313026
14
Coordinates from ORCA-job ./scants E -399.087685609602
  O       1.117547     -0.459780      0.590298
  N      -2.272045      0.253861     -0.587853
  C      -0.964636      0.502149      0.013439
  C      -0.135931     -0.763674     -0.002686
  H      -1.121056      0.820551      1.043243
  H      -0.417806      1.293998     -0.504173
  H      -0.001743     -1.105165     -1.033346
  H      -0.646695     -1.552273      0.554503
  H      -2.178705     -0.110813     -1.527956
  H      -2.794122      1.117777     -0.661096
  H       1.649388     -1.259230      0.597324
  O      -3.271438     -0.754698      1.642468
  C      -3.614631     -0.996053      0.548672
  O      -4.242810     -1.482191     -0.313132
14
Coordinates from ORCA-job ./scants E -399.087689165809
  O       1.118157     -0.459052      0.590175
  N      -2.272047      0.253840     -0.587017
  C      -0.964380      0.501673      0.014065
  C      -0.135136     -0.763666     -0.002712
  H      -1.120585      0.820214      1.043866
  H      -0.418373      1.293761     -0.504067
  H      -0.000943     -1.104611     -1.033550
  H      -0.645180     -1.552926      0.554219
  H      -2.178924     -0.113861     -1.526002
  H      -2.792924      1.118268     -0.662970
  H       1.650955     -1.257877      0.596045
  O      -3.273830     -0.756082      1.642937
  C      -3.616434     -0.995218      0.548319
  O      -4.245039     -1.480005     -0.313601
14
Coordinates from ORCA-job ./scants E -399.087691397831
  O       1.118908     -0.458258      0.590205
  N      -2.272159      0.253594     -0.585775
  C      -0.963945      0.501236      0.014750
  C      -0.134200     -0.763552     -0.002648
  H      -1.119965      0.820263      1.044428
  H      -0.419208      1.293502     -0.504431
  H       0.000030     -1.103904     -1.033674
  H      -0.643514     -1.553547      0.553924
  H      -2.179354     -0.117566     -1.523480
  H      -2.791287      1.118810     -0.665026
  H       1.652766     -1.256388      0.594747
  O      -3.275852     -0.758274      1.643228
  C      -3.618753     -0.994534      0.547968
  O      -4.248152     -1.476923     -0.314510
14
Coordinates from ORCA-job ./scants E -399.087690285324
  O       1.119324     -0.457995      0.590446
  N      -2.272319      0.253255     -0.584763
  C      -0.963584      0.501278      0.015046
  C      -0.133721     -0.763290     -0.002566
  H      -1.119438      0.820849      1.044578
  H      -0.419788      1.293517     -0.505112
  H       0.000604     -1.103321     -1.033688
  H      -0.642865     -1.553629      0.553676
  H      -2.179737     -0.119940     -1.521702
  H      -2.790160      1.119049     -0.666212
  H       1.653553     -1.255880      0.594277
  O      -3.276170     -0.760173      1.643194
  C      -3.620172     -0.994510      0.547882
  O      -4.250212     -1.474752     -0.315350
14
Coordinates from ORCA-job ./scants E -399.087692957738
  O       1.119798     -0.457664      0.590951
  N      -2.272615      0.252679     -0.583253
  C      -0.963142      0.501690      0.015173
  C      -0.133194     -0.762740     -0.002392
  H      -1.118405      0.822043      1.044559
  H      -0.420316      1.293689     -0.506284
  H       0.001369     -1.102533     -1.033566
  H      -0.642351     -1.553317      0.553490
  H      -2.180491     -0.123560     -1.519025
  H      -2.788571      1.119277     -0.668082
  H       1.654321     -1.255350      0.593900
  O      -3.275661     -0.764092      1.643140
  C      -3.622015     -0.994757      0.547911
  O      -4.253413     -1.470907     -0.316816
14
Coordinates from ORCA-job ./scants E -399.087694243623
  O       1.119781     -0.457587      0.591088
  N      -2.272719      0.252542     -0.582952
  C      -0.963127      0.502043      0.014919
  C      -0.133268     -0.762529     -0.002257
  H      -1.117938      0.822614      1.044320
  H      -0.420144      1.293784     -0.506751
  H       0.001333     -1.102610     -1.033330
  H      -0.642636     -1.552812      0.553831
  H      -2.180739     -0.124196     -1.518544
  H      -2.788402      1.119246     -0.668483
  H       1.654134     -1.255387      0.594113
  O      -3.274607     -0.766067      1.643090
  C      -3.622127     -0.995100      0.547975
  O      -4.254228     -1.469482     -0.317313
14
Coordinates from ORCA-job ./scants E -399.083996924039
  O       1.114650     -0.457377      0.580789
  N      -2.298343      0.230400     -0.562376
  C      -0.979047      0.495722      0.032745
  C      -0.147499     -0.767659      0.009407
  H      -1.107575      0.825204      1.061077
  H      -0.442975      1.282456     -0.503716
  H      -0.029007     -1.113425     -1.021894
  H      -0.646665     -1.555555      0.578232
  H      -2.170583     -0.135978     -1.545253
  H      -2.807943      1.143533     -0.665924
  H       1.650293     -1.254329      0.579753
  O      -3.251712     -0.763041      1.640174
  C      -3.549307     -0.951520      0.507255
  O      -4.228973     -1.473973     -0.330564
14
Coordinates from ORCA-job ./scants E -399.087084287821
  O       1.111745     -0.454945      0.582610
  N      -2.296660      0.233663     -0.565898
  C      -0.980653      0.491753      0.027835
  C      -0.145776     -0.770485      0.006133
  H      -1.120197      0.821295      1.055498
  H      -0.452099      1.281381     -0.508507
  H      -0.022212     -1.114741     -1.024835
  H      -0.644076     -1.560258      0.572823
  H      -2.181145     -0.118419     -1.508527
  H      -2.789703      1.112203     -0.665827
  H       1.650453     -1.249865      0.583905
  O      -3.248593     -0.758737      1.627790
  C      -3.550305     -0.946964      0.502019
  O      -4.225465     -1.461422     -0.325312
14
Coordinates from ORCA-job ./scants E -399.087270480132
  O       1.110243     -0.455121      0.586593
  N      -2.296091      0.235807     -0.567625
  C      -0.980519      0.489161      0.027036
  C      -0.144366     -0.771960      0.005088
  H      -1.126248      0.816565      1.054650
  H      -0.454477      1.281282     -0.508113
  H      -0.016962     -1.113632     -1.026216
  H      -0.643545     -1.563474      0.568490
  H      -2.187991     -0.122615     -1.509049
  H      -2.794038      1.112648     -0.662922
  H       1.650420     -1.249071      0.588741
  O      -3.239692     -0.754654      1.624170
  C      -3.548513     -0.944936      0.501600
  O      -4.222905     -1.455542     -0.322738
14
Coordinates from ORCA-job ./scants E -399.087423661956
  O       1.106291     -0.456423      0.594391
  N      -2.294226      0.239105     -0.571265
  C      -0.980238      0.486334      0.025932
  C      -0.143185     -0.773203      0.002367
  H      -1.136345      0.808015      1.053915
  H      -0.455849      1.282653     -0.504903
  H      -0.008314     -1.108957     -1.029900
  H      -0.645206     -1.568214      0.558186
  H      -2.200143     -0.133395     -1.509570
  H      -2.802074      1.111544     -0.659225
  H       1.648179     -1.249222      0.597380
  O      -3.222017     -0.744712      1.620173
  C      -3.543615     -0.940999      0.502204
  O      -4.217945     -1.448067     -0.319979
14
Coordinates from ORCA-job ./scants E -399.087460850675
  O       1.104484     -0.457617      0.597660
  N      -2.292817      0.239679     -0.573150
  C      -0.980432      0.486330      0.025945
  C      -0.143028     -0.772709      0.000408
  H      -1.140044      0.803889      1.054678
  H      -0.454963      1.284612     -0.500927
  H      -0.004611     -1.104740     -1.032595
  H      -0.646562     -1.569910      0.551686
  H      -2.204264     -0.140807     -1.508390
  H      -2.805079      1.109350     -0.660227
  H       1.646641     -1.250230      0.599904
  O      -3.216846     -0.738429      1.620218
  C      -3.541391     -0.938367      0.503525
  O      -4.215774     -1.446594     -0.319028
14
Coordinates from ORCA-job ./scants E -399.087479343276
  O       1.103427     -0.458741      0.599916
  N      -2.291127      0.239193     -0.574693
  C      -0.980980      0.486853      0.026683
  C      -0.142579     -0.771592     -0.001956
  H      -1.142567      0.799430      1.056652
  H      -0.453680      1.287299     -0.495059
  H      -0.001056     -1.099266     -1.035935
  H      -0.647060     -1.571514      0.544525
  H      -2.206060     -0.150076     -1.506229
  H      -2.806755      1.106225     -0.663986
  H       1.645813     -1.251188      0.600196
  O      -3.217086     -0.731594      1.621916
  C      -3.540540     -0.934783      0.505448
  O      -4.214436     -1.445789     -0.317775
14
Coordinates from ORCA-job ./scants E -399.087483847928
  O       1.103600     -0.458909      0.600454
  N      -2.290129      0.238244     -0.575098
  C      -0.981412      0.486910      0.027612
  C      -0.141670     -0.770850     -0.003474
  H      -1.143308      0.796354      1.058512
  H      -0.453321      1.288903     -0.490953
  H       0.001239     -1.095679     -1.038160
  H      -0.646029     -1.572714      0.540339
  H      -2.205641     -0.156442     -1.504194
  H      -2.806693      1.104214     -0.667809
  H       1.646467     -1.251018      0.598888
  O      -3.221194     -0.727790      1.623729
  C      -3.541654     -0.932006      0.506639
  O      -4.214942     -1.444759     -0.316779
14
Coordinates from ORCA-job ./scants E -399.087489655480
  O       1.104346     -0.458437      0.600417
  N      -2.289404      0.237104     -0.574918
  C      -0.981676      0.486501      0.028669
  C      -0.140300     -0.770341     -0.004692
  H      -1.143443      0.793490      1.060364
  H      -0.453627      1.289970     -0.487672
  H       0.003395     -1.092781     -1.040012
  H      -0.644040     -1.573952      0.537216
  H      -2.204593     -0.162224     -1.501937
  H      -2.805838      1.102642     -0.671746
  H       1.648044     -1.249972      0.597067
  O      -3.226661     -0.725467      1.625475
  C      -3.543940     -0.929359      0.507423
  O      -4.216948     -1.442714     -0.315947
14
Coordinates from ORCA-job ./scants E -399.087488654530
  O       1.105029     -0.457785      0.600386
  N      -2.289137      0.236306     -0.574425
  C      -0.981632      0.485967      0.029334
  C      -0.139135     -0.770146     -0.005298
  H      -1.143237      0.791877      1.061400
  H      -0.454313      1.290325     -0.486377
  H       0.004925     -1.091266     -1.040976
  H      -0.642356     -1.574780      0.535638
  H      -2.203918     -0.165772     -1.500254
  H      -2.804921      1.101935     -0.674188
  H       1.649506     -1.248788      0.596022
  O      -3.229994     -0.725195      1.626371
  C      -3.546023     -0.927850      0.507672
  O      -4.219478     -1.440369     -0.315599
14
Coordinates from ORCA-job ./scants E -399.087492249684
  O       1.105649     -0.457022      0.600499
  N      -2.289063      0.235624     -0.573754
  C      -0.981400      0.485476      0.029778
  C      -0.138070     -0.770010     -0.005596
  H      -1.142850      0.790976      1.062005
  H      -0.455176      1.290408     -0.486143
  H       0.006261     -1.090326     -1.041486
  H      -0.640896     -1.575319      0.534747
  H      -2.203594     -0.168695     -1.498633
  H      -2.803925      1.101530     -0.676077
  H       1.650883     -1.247506      0.595509
  O      -3.231676     -0.726541      1.626786
  C      -3.548023     -0.926911      0.507674
  O      -4.222807     -1.437225     -0.315603
14
Coordinates from ORCA-job ./scants E -399.084978251861
  O       1.087107     -0.461298      0.606311
  N      -2.311867      0.219346     -0.562849
  C      -1.004812      0.473276      0.040311
  C      -0.155755     -0.778238      0.000496
  H      -1.166852      0.775487      1.073419
  H      -0.482661      1.282001     -0.473848
  H      -0.010943     -1.094892     -1.036459
  H      -0.654371     -1.587418      0.538987
  H      -2.204165     -0.177595     -1.534415
  H      -2.824782      1.130001     -0.679218
  H       1.635963     -1.249266      0.598511
  O      -3.164914     -0.708521      1.627712
  C      -3.454469     -0.878776      0.475717
  O      -4.182164     -1.439648     -0.314968
14
Coordinates from ORCA-job ./scants E -399.088107123071
  O       1.088021     -0.458090      0.604831
  N      -2.313103      0.220544     -0.565414
  C      -1.003084      0.471647      0.039940
  C      -0.152586     -0.779436     -0.001242
  H      -1.166777      0.774471      1.071805
  H      -0.487338      1.280637     -0.477232
  H      -0.007111     -1.094869     -1.038430
  H      -0.648985     -1.589839      0.537193
  H      -2.214930     -0.163565     -1.497631
  H      -2.808333      1.096687     -0.679672
  H       1.639337     -1.244376      0.597395
  O      -3.174617     -0.704928      1.611044
  C      -3.462721     -0.875232      0.467873
  O      -4.182459     -1.429194     -0.310756
14
Coordinates from ORCA-job ./scants E -399.088277043379
  O       1.088897     -0.457567      0.605747
  N      -2.312947      0.221037     -0.564884
  C      -1.001410      0.470377      0.041605
  C      -0.150497     -0.780152     -0.001708
  H      -1.165909      0.772838      1.073107
  H      -0.489441      1.280191     -0.477840
  H      -0.004237     -1.093631     -1.039303
  H      -0.646375     -1.591793      0.535297
  H      -2.218363     -0.170076     -1.495301
  H      -2.811577      1.096455     -0.676863
  H       1.641513     -1.242974      0.598080
  O      -3.175517     -0.701707      1.606324
  C      -3.465972     -0.873730      0.465672
  O      -4.182851     -1.424813     -0.310227
14
Coordinates from ORCA-job ./scants E -399.088347246976
  O       1.089689     -0.457554      0.607220
  N      -2.311753      0.221443     -0.563693
  C      -0.999394      0.469622      0.043148
  C      -0.148376     -0.780260     -0.002868
  H      -1.165232      0.771203      1.074462
  H      -0.491450      1.280501     -0.478616
  H      -0.000670     -1.090860     -1.041048
  H      -0.644408     -1.593522      0.531522
  H      -2.222343     -0.180008     -1.490906
  H      -2.815219      1.094945     -0.673334
  H       1.643349     -1.242248      0.599188
  O      -3.176056     -0.696839      1.603260
  C      -3.469249     -0.871530      0.463750
  O      -4.183573     -1.420434     -0.312379
14
Coordinates from ORCA-job ./scants E -399.088381862915
  O       1.090470     -0.457876      0.608183
  N      -2.310313      0.221411     -0.562540
  C      -0.998033      0.469779      0.043650
  C      -0.146912     -0.779681     -0.003978
  H      -1.164612      0.770439      1.075092
  H      -0.491995      1.281392     -0.478852
  H       0.002026     -1.088238     -1.042561
  H      -0.643434     -1.594029      0.528307
  H      -2.225465     -0.188099     -1.486462
  H      -2.817428      1.092699     -0.671468
  H       1.644336     -1.242422      0.599745
  O      -3.177908     -0.694001      1.602885
  C      -3.471269     -0.869577      0.463107
  O      -4.184147     -1.417337     -0.315404
14
Coordinates from ORCA-job ./scants E -399.088398338754
  O       1.091659     -0.458085      0.608615
  N      -2.308573      0.220958     -0.561102
  C      -0.996805      0.470446      0.043595
  C      -0.145371     -0.778664     -0.005074
  H      -1.163437      0.770122      1.075424
  H      -0.491469      1.282694     -0.478621
  H       0.004581     -1.085675     -1.043965
  H      -0.642384     -1.593818      0.525552
  H      -2.228757     -0.196486     -1.481546
  H      -2.819038      1.089813     -0.670728
  H       1.645341     -1.242738      0.599624
  O      -3.182239     -0.693138      1.604013
  C      -3.473249     -0.867411      0.463110
  O      -4.184944     -1.413560     -0.319191
14
Coordinates from ORCA-job ./scants E -399.088407895877
  O       1.092944     -0.457686      0.608137
  N      -2.307422      0.220300     -0.559857
  C      -0.996072      0.471022      0.043281
  C      -0.144179     -0.777893     -0.005532
  H      -1.161945      0.770266      1.075505
  H      -0.490404      1.283534     -0.478212
  H       0.005854     -1.084635     -1.044503
  H      -0.641180     -1.593207      0.524901
  H      -2.230874     -0.201824     -1.478177
  H      -2.819427      1.087806     -0.671290
  H       1.646478     -1.242430      0.598705
  O      -3.187235     -0.694946      1.605505
  C      -3.474950     -0.865990      0.463315
  O      -4.186274     -1.409859     -0.322071
14
Coordinates from ORCA-job ./scants E -399.088412383094
  O       1.094189     -0.456730      0.607127
  N      -2.306901      0.219658     -0.558774
  C      -0.995639      0.471276      0.043042
  C      -0.143268     -0.777523     -0.005411
  H      -1.160372      0.770688      1.075512
  H      -0.489491      1.283742     -0.478068
  H       0.006099     -1.084909     -1.044301
  H      -0.639801     -1.592557      0.525923
  H      -2.231905     -0.204713     -1.476122
  H      -2.818989      1.086805     -0.672384
  H       1.647840     -1.241385      0.597447
  O      -3.191326     -0.698453      1.606521
  C      -3.476609     -0.865338      0.463279
  O      -4.188512     -1.406104     -0.324085
14
Coordinates from ORCA-job ./scants E -399.088414685355
  O       1.095140     -0.455628      0.606168
  N      -2.306857      0.219190     -0.557946
  C      -0.995387      0.471238      0.043007
  C      -0.142673     -0.777472     -0.004961
  H      -1.159159      0.771222      1.075512
  H      -0.489157      1.283469     -0.478392
  H       0.005799     -1.085812     -1.043700
  H      -0.638574     -1.592087      0.527611
  H      -2.232093     -0.205972     -1.475006
  H      -2.818245      1.086584     -0.673361
  H       1.649139     -1.240043      0.596445
  O      -3.193194     -0.702291      1.606728
  C      -3.478056     -0.865303      0.462934
  O      -4.191369     -1.402638     -0.325333
14
Coordinates from ORCA-job ./scants E -399.088418043282
  O       1.096388     -0.453916      0.604947
  N      -2.306978      0.218577     -0.556845
  C      -0.995050      0.471064      0.043060
  C      -0.141939     -0.777490     -0.004096
  H      -1.157689      0.772168      1.075446
  H      -0.489144      1.282825     -0.479379
  H       0.005230     -1.087374     -1.042562
  H      -0.636860     -1.591434      0.530392
  H      -2.232071     -0.207511     -1.473571
  H      -2.817106      1.086499     -0.674607
  H       1.651022     -1.237891      0.595362
  O      -3.193802     -0.708630      1.606390
  C      -3.480122     -0.865563      0.462175
  O      -4.196564     -1.396865     -0.327006
14
Coordinates from ORCA-job ./scants E -399.088420419815
  O       1.097295     -0.452435      0.604303
  N      -2.307174      0.217979     -0.555987
  C      -0.994788      0.470933      0.043142
  C      -0.141378     -0.777436     -0.003246
  H      -1.156742      0.773203      1.075299
  H      -0.489567      1.282223     -0.480680
  H       0.004910     -1.088568     -1.041465
  H      -0.635529     -1.590871      0.532685
  H      -2.231773     -0.209132     -1.472276
  H      -2.816116      1.086369     -0.675858
  H       1.652517     -1.236001      0.594944
  O      -3.192108     -0.715190      1.605635
  C      -3.481870     -0.865974      0.461443
  O      -4.202362     -1.390642     -0.328233
14
Coordinates from ORCA-job ./scants E -399.088421235456
  O       1.098334     -0.450359      0.604151
  N      -2.307426      0.216883     -0.555041
  C      -0.994496      0.470837      0.043171
  C      -0.140579     -0.777123     -0.002030
  H      -1.155966      0.774789      1.074896
  H      -0.490586      1.281510     -0.482848
  H       0.005097     -1.089676     -1.039915
  H      -0.633843     -1.590049      0.535395
  H      -2.231209     -0.212461     -1.470293
  H      -2.814878      1.085709     -0.678188
  H       1.654359     -1.233359      0.595231
  O      -3.186710     -0.726330      1.604169
  C      -3.484229     -0.866508      0.460551
  O      -4.212552     -1.379406     -0.329543
14
Coordinates from ORCA-job ./scants E -399.088425390253
  O       1.098644     -0.449083      0.604942
  N      -2.307499      0.215846     -0.554968
  C      -0.994504      0.470828      0.043029
  C      -0.140046     -0.776674     -0.001385
  H      -1.156253      0.775593      1.074455
  H      -0.491507      1.281310     -0.484133
  H       0.006094     -1.089570     -1.039107
  H      -0.632984     -1.589610      0.536238
  H      -2.230726     -0.215620     -1.469164
  H      -2.814373      1.084627     -0.680492
  H       1.655114     -1.231764      0.596427
  O      -3.180369     -0.735028      1.603030
  C      -3.485445     -0.866560      0.460349
  O      -4.220831     -1.369837     -0.329514
14
Coordinates from ORCA-job ./scants E -399.088427502368
  O       1.098365     -0.448162      0.606792
  N      -2.307400      0.214502     -0.555786
  C      -0.994852      0.470783      0.042737
  C      -0.139528     -0.776033     -0.001213
  H      -1.157649      0.775540      1.073989
  H      -0.492512      1.281585     -0.484550
  H       0.008231     -1.088187     -1.038941
  H      -0.632538     -1.589572      0.535330
  H      -2.230063     -0.219414     -1.468730
  H      -2.814405      1.082799     -0.683625
  H       1.655135     -1.230626      0.598698
  O      -3.172089     -0.743252      1.602083
  C      -3.485989     -0.865975      0.460837
  O      -4.229390     -1.359529     -0.327914
14
Coordinates from ORCA-job ./scants E -399.088430931144
  O       1.097678     -0.447064      0.609644
  N      -2.307062      0.212433     -0.557573
  C      -0.995627      0.470450      0.042372
  C      -0.138694     -0.775201     -0.001516
  H      -1.160240      0.774173      1.073628
  H      -0.493734      1.282281     -0.483751
  H       0.011862     -1.085442     -1.039426
  H      -0.631874     -1.590087      0.532709
  H      -2.228938     -0.224627     -1.468885
  H      -2.814753      1.079796     -0.688439
  H       1.654888     -1.229210      0.602024
  O      -3.161657     -0.752311      1.601264
  C      -3.486430     -0.864368      0.462043
  O      -4.240105     -1.346365     -0.324387
14
Coordinates from ORCA-job ./scants E -399.088432151930
  O       1.097218     -0.446020      0.611781
  N      -2.306626      0.210467     -0.559318
  C      -0.996428      0.469768      0.042291
  C      -0.137674     -0.774669     -0.002167
  H      -1.162619      0.771779      1.073794
  H      -0.494657      1.282973     -0.481841
  H       0.015247     -1.082772     -1.040374
  H      -0.630752     -1.591068      0.529773
  H      -2.227736     -0.228969     -1.469399
  H      -2.815036      1.076993     -0.692797
  H       1.655037     -1.227737      0.604389
  O      -3.155249     -0.757516      1.601048
  C      -3.487119     -0.862287      0.463258
  O      -4.248294     -1.336485     -0.320734
14
Coordinates from ORCA-job ./scants E -399.088433819885
  O       1.097426     -0.442630      0.614730
  N      -2.305913      0.206195     -0.561574
  C      -0.997605      0.468092      0.042352
  C      -0.134961     -0.773759     -0.002925
  H      -1.165900      0.767496      1.074275
  H      -0.496722      1.283662     -0.478976
  H       0.021372     -1.078818     -1.041529
  H      -0.626913     -1.592724      0.525997
  H      -2.225259     -0.238445     -1.469003
  H      -2.814627      1.071528     -0.701530
  H       1.657104     -1.223029      0.607953
  O      -3.144792     -0.771038      1.599960
  C      -3.490474     -0.858383      0.464837
  O      -4.267423     -1.313689     -0.314862
14
Coordinates from ORCA-job ./scants E -399.088431796193
  O       1.097742     -0.443554      0.613064
  N      -2.306025      0.207457     -0.560736
  C      -0.997207      0.468217      0.042742
  C      -0.135501     -0.774290     -0.002949
  H      -1.164699      0.767833      1.074735
  H      -0.496036      1.283381     -0.478939
  H       0.019281     -1.080137     -1.041550
  H      -0.627404     -1.592678      0.527000
  H      -2.225791     -0.235050     -1.469264
  H      -2.814525      1.073301     -0.698459
  H       1.657113     -1.224174      0.605916
  O      -3.151378     -0.763556      1.600769
  C      -3.490027     -0.859161      0.464200
  O      -4.260228     -1.323132     -0.316823
14
Coordinates from ORCA-job ./scants E -399.088436014881
  O       1.098246     -0.443622      0.612014
  N      -2.305960      0.207601     -0.560275
  C      -0.997038      0.467979      0.043193
  C      -0.135339     -0.774537     -0.003099
  H      -1.164248      0.767256      1.075328
  H      -0.495968      1.283280     -0.478368
  H       0.018624     -1.080497     -1.041789
  H      -0.626845     -1.592965      0.527215
  H      -2.225624     -0.234272     -1.469129
  H      -2.814278      1.073665     -0.697512
  H       1.657746     -1.224149      0.604631
  O      -3.155431     -0.759647      1.601246
  C      -3.490586     -0.859046      0.463909
  O      -4.257985     -1.326587     -0.317658
14
Coordinates from ORCA-job ./scants E -399.085187208942
  O       1.115372     -0.443956      0.613967
  N      -2.272512      0.237550     -0.588899
  C      -0.966886      0.486141      0.026805
  C      -0.115416     -0.763719     -0.012757
  H      -1.140986      0.785885      1.057688
  H      -0.454049      1.297635     -0.489403
  H       0.045439     -1.070026     -1.050324
  H      -0.618797     -1.578430      0.512287
  H      -2.187638     -0.204160     -1.497430
  H      -2.772148      1.108101     -0.729981
  H       1.668247     -1.229273      0.610978
  O      -3.259962     -0.823380      1.658937
  C      -3.585550     -0.918841      0.518437
  O      -4.349798     -1.379070     -0.270598
14
Coordinates from ORCA-job ./scants E -399.086482994235
  O       1.109226     -0.448551      0.616046
  N      -2.275932      0.240015     -0.589597
  C      -0.971405      0.488975      0.025260
  C      -0.123975     -0.763198     -0.009902
  H      -1.142988      0.791041      1.056747
  H      -0.451854      1.297666     -0.490648
  H       0.035551     -1.073408     -1.046504
  H      -0.631253     -1.574509      0.516943
  H      -2.191209     -0.199924     -1.498089
  H      -2.780114      1.107339     -0.724817
  H       1.658207     -1.236515      0.614741
  O      -3.224350     -0.819707      1.645088
  C      -3.579619     -0.923553      0.521264
  O      -4.324970     -1.381212     -0.276826
14
Coordinates from ORCA-job ./scants E -399.082706975567
  O       1.110680     -0.442668      0.617249
  N      -2.281811      0.211881     -0.583473
  C      -0.984023      0.479704      0.029211
  C      -0.122479     -0.762155     -0.008946
  H      -1.153683      0.773926      1.064418
  H      -0.462787      1.295954     -0.476560
  H       0.039511     -1.068095     -1.046597
  H      -0.622499     -1.580262      0.514280
  H      -2.187906     -0.214775     -1.495964
  H      -2.809962      1.064877     -0.705147
  H       1.664958     -1.226700      0.611267
  O      -3.197047     -0.748778      1.610973
  C      -3.550493     -0.994030      0.522747
  O      -4.337142     -1.284421     -0.293752
14
Coordinates from ORCA-job ./scants E -399.087219428516
  O       1.105165     -0.449244      0.616753
  N      -2.281536      0.229068     -0.586927
  C      -0.980749      0.487722      0.024177
  C      -0.129998     -0.762264     -0.007829
  H      -1.148630      0.788711      1.057058
  H      -0.452983      1.296710     -0.485279
  H       0.029656     -1.074979     -1.043880
  H      -0.636457     -1.573445      0.519888
  H      -2.189503     -0.201066     -1.498787
  H      -2.797151      1.090991     -0.708235
  H       1.652925     -1.237923      0.614913
  O      -3.187345     -0.787485      1.626056
  C      -3.568565     -0.950817      0.526144
  O      -4.309514     -1.351520     -0.294346
14
Coordinates from ORCA-job ./scants E -399.087403416595
  O       1.105005     -0.450343      0.613786
  N      -2.283538      0.231666     -0.584349
  C      -0.980838      0.488774      0.023887
  C      -0.132380     -0.763227     -0.006332
  H      -1.146031      0.792652      1.056329
  H      -0.450967      1.295241     -0.487117
  H       0.024124     -1.079536     -1.041834
  H      -0.638621     -1.571834      0.525396
  H      -2.191766     -0.195120     -1.497839
  H      -2.796578      1.095246     -0.706568
  H       1.651255     -1.240072      0.612636
  O      -3.183364     -0.790657      1.625543
  C      -3.577997     -0.940500      0.528263
  O      -4.292991     -1.367833     -0.302094
14
Coordinates from ORCA-job ./scants E -399.087436341085
  O       1.109429     -0.447528      0.610612
  N      -2.282064      0.230613     -0.582720
  C      -0.977795      0.487645      0.024466
  C      -0.128393     -0.763842     -0.006487
  H      -1.142835      0.792415      1.056592
  H      -0.450964      1.294275     -0.488865
  H       0.026252     -1.080890     -1.041989
  H      -0.632268     -1.572483      0.527524
  H      -2.190591     -0.193340     -1.497906
  H      -2.792930      1.095582     -0.706623
  H       1.657202     -1.236247      0.609371
  O      -3.203169     -0.794781      1.631582
  C      -3.583115     -0.938107      0.525821
  O      -4.303446     -1.368853     -0.301673
14
Coordinates from ORCA-job ./scants E -399.087447615401
  O       1.109601     -0.447698      0.609790
  N      -2.282323      0.230354     -0.581828
  C      -0.977979      0.487875      0.024409
  C      -0.129048     -0.763862     -0.005938
  H      -1.142202      0.793342      1.056494
  H      -0.450578      1.293934     -0.489415
  H       0.024562     -1.082036     -1.041250
  H      -0.632828     -1.571789      0.529228
  H      -2.190712     -0.191798     -1.497878
  H      -2.793983      1.095011     -0.704885
  H       1.656946     -1.236705      0.608757
  O      -3.202243     -0.793432      1.629826
  C      -3.583301     -0.939346      0.525763
  O      -4.300598     -1.369393     -0.303367
14
Coordinates from ORCA-job ./scants E -399.087448135235
  O       1.110749     -0.447377      0.608082
  N      -2.282335      0.229991     -0.580560
  C      -0.977492      0.487979      0.024381
  C      -0.129012     -0.764059     -0.005249
  H      -1.140733      0.794642      1.056291
  H      -0.450089      1.293296     -0.490646
  H       0.022896     -1.083929     -1.040285
  H      -0.632211     -1.571006      0.531941
  H      -2.190697     -0.189211     -1.498049
  H      -2.794474      1.094622     -0.702423
  H       1.657814     -1.236577      0.607393
  O      -3.205288     -0.792827      1.629281
  C      -3.584492     -0.940256      0.525067
  O      -4.299321     -1.370828     -0.305516
14
Coordinates from ORCA-job ./scants E -399.087450782224
  O       1.112647     -0.446913      0.605207
  N      -2.282279      0.229680     -0.578766
  C      -0.976542      0.488201      0.024214
  C      -0.128931     -0.764464     -0.004073
  H      -1.138324      0.797010      1.055732
  H      -0.449234      1.292219     -0.492932
  H       0.020113     -1.087321     -1.038596
  H      -0.631238     -1.569624      0.536622
  H      -2.190754     -0.184470     -1.498684
  H      -2.795224      1.094365     -0.697825
  H       1.659173     -1.236487      0.605272
  O      -3.210744     -0.792047      1.628839
  C      -3.586049     -0.941763      0.523688
  O      -4.297299     -1.373928     -0.308993
14
Coordinates from ORCA-job ./scants E -399.087451189107
  O       1.113409     -0.446915      0.603778
  N      -2.282244      0.229917     -0.578180
  C      -0.976041      0.488432      0.023981
  C      -0.129119     -0.764734     -0.003413
  H      -1.137213      0.798511      1.055206
  H      -0.448669      1.291667     -0.494300
  H       0.018419     -1.089311     -1.037616
  H      -0.631174     -1.568768      0.539182
  H      -2.190959     -0.181476     -1.499385
  H      -2.795772      1.094632     -0.694804
  H       1.659467     -1.236812      0.604439
  O      -3.213162     -0.791461      1.628687
  C      -3.586140     -0.942720      0.522856
  O      -4.295487     -1.376503     -0.310725
14
Coordinates from ORCA-job ./scants E -399.087452158144
  O       1.113724     -0.447276      0.602648
  N      -2.282230      0.230641     -0.578056
  C      -0.975650      0.488781      0.023618
  C      -0.129645     -0.765035     -0.002813
  H      -1.136457      0.800095      1.054511
  H      -0.447986      1.291209     -0.495602
  H       0.016584     -1.091245     -1.036689
  H      -0.631775     -1.567880      0.541461
  H      -2.191386     -0.178224     -1.500410
  H      -2.796495      1.095341     -0.691497
  H       1.659118     -1.237629      0.604060
  O      -3.214607     -0.790434      1.628505
  C      -3.585285     -0.943791      0.522061
  O      -4.292594     -1.380096     -0.312091
14
Coordinates from ORCA-job ./scants E -399.087451769883
  O       1.113563     -0.447896      0.602015
  N      -2.282251      0.231617     -0.578268
  C      -0.975485      0.489124      0.023307
  C      -0.130355     -0.765295     -0.002471
  H      -1.136198      0.801224      1.053960
  H      -0.447349      1.290969     -0.496355
  H       0.015056     -1.092542     -1.036135
  H      -0.632786     -1.567270      0.542796
  H      -2.191889     -0.175584     -1.501356
  H      -2.797153      1.096257     -0.688956
  H       1.658302     -1.238699      0.604050
  O      -3.215129     -0.788802      1.628356
  C      -3.583889     -0.944649      0.521567
  O      -4.289122     -1.383997     -0.312803
14
Coordinates from ORCA-job ./scants E -399.087454072714
  O       1.113122     -0.448361      0.602135
  N      -2.282298      0.232244     -0.578592
  C      -0.975579      0.489261      0.023200
  C      -0.130798     -0.765381     -0.002537
  H      -1.136436      0.801356      1.053829
  H      -0.447087      1.291013     -0.496269
  H       0.014655     -1.092609     -1.036202
  H      -0.633532     -1.567243      0.542616
  H      -2.192204     -0.174838     -1.501727
  H      -2.797377      1.096848     -0.688470
  H       1.657583     -1.239355      0.604367
  O      -3.214705     -0.787591      1.628352
  C      -3.582865     -0.944878      0.521594
  O      -4.287164     -1.386010     -0.312592
14
Coordinates from ORCA-job ./scants E -399.087454270815
  O       1.113122     -0.448361      0.602135
  N      -2.282298      0.232244     -0.578592
  C      -0.975579      0.489261      0.023200
  C      -0.130798     -0.765381     -0.002537
  H      -1.136436      0.801356      1.053829
  H      -0.447087      1.291013     -0.496269
  H       0.014655     -1.092609     -1.036202
  H      -0.633532     -1.567243      0.542616
  H      -2.192204     -0.174838     -1.501727
  H      -2.797377      1.096848     -0.688470
  H       1.657583     -1.239355      0.604367
  O      -3.214705     -0.787591      1.628352
  C      -3.582865     -0.944878      0.521594
  O      -4.287164     -1.386010     -0.312592
14
Coordinates from ORCA-job ./scants E -399.087376477021
  O       1.110477     -0.449480      0.598874
  N      -2.288143      0.235317     -0.575997
  C      -0.980490      0.487330      0.027486
  C      -0.136324     -0.767475      0.000680
  H      -1.132576      0.809897      1.055814
  H      -0.450702      1.284133     -0.498239
  H       0.004246     -1.097082     -1.032904
  H      -0.636772     -1.567946      0.549964
  H      -2.184032     -0.172471     -1.502572
  H      -2.804422      1.103900     -0.685136
  H       1.654702     -1.240638      0.600377
  O      -3.206058     -0.785722      1.623162
  C      -3.570302     -0.943628      0.514827
  O      -4.274288     -1.391678     -0.316632
14
Coordinates from ORCA-job ./scants E -399.087180438570
  O       1.101438     -0.446730      0.596859
  N      -2.297086      0.242200     -0.579400
  C      -0.986395      0.483169      0.029704
  C      -0.144960     -0.772428      0.005079
  H      -1.125617      0.814679      1.055413
  H      -0.450835      1.274298     -0.502076
  H      -0.008835     -1.103891     -1.028320
  H      -0.638941     -1.573774      0.559604
  H      -2.177709     -0.157994     -1.504943
  H      -2.808337      1.110958     -0.681009
  H       1.647710     -1.236469      0.600604
  O      -3.188688     -0.784923      1.621950
  C      -3.552206     -0.943783      0.507446
  O      -4.264223     -1.400853     -0.321205
14
Coordinates from ORCA-job ./scants E -399.086574088673
  O       1.096968     -0.434533      0.586196
  N      -2.304909      0.243623     -0.580813
  C      -0.992131      0.471749      0.036834
  C      -0.148848     -0.780449      0.007599
  H      -1.123223      0.809476      1.060067
  H      -0.453150      1.261702     -0.494873
  H      -0.022895     -1.111470     -1.027626
  H      -0.622764     -1.588823      0.569036
  H      -2.168356     -0.153872     -1.504272
  H      -2.804501      1.117344     -0.681487
  H       1.651503     -1.218655      0.595213
  O      -3.189412     -0.774904      1.622689
  C      -3.546547     -0.936476      0.499386
  O      -4.266419     -1.400254     -0.328243
14
Coordinates from ORCA-job ./scants E -399.085992026022
  O       1.097229     -0.420982      0.574850
  N      -2.311627      0.239407     -0.582595
  C      -0.995680      0.461690      0.043750
  C      -0.148457     -0.786174      0.007143
  H      -1.123868      0.794108      1.068289
  H      -0.456748      1.255108     -0.483228
  H      -0.032954     -1.116874     -1.029911
  H      -0.601925     -1.602175      0.573927
  H      -2.160989     -0.158605     -1.503011
  H      -2.796068      1.119459     -0.686941
  H       1.660444     -1.198976      0.591704
  O      -3.198378     -0.764768      1.623036
  C      -3.547462     -0.925969      0.493130
  O      -4.278201     -1.390792     -0.330439
14
Coordinates from ORCA-job ./scants E -399.085515204115
  O       1.101577     -0.407387      0.563140
  N      -2.317549      0.232279     -0.582463
  C      -0.997212      0.453428      0.049343
  C      -0.145214     -0.790502      0.006846
  H      -1.126003      0.777780      1.076051
  H      -0.461871      1.250159     -0.474166
  H      -0.039154     -1.124354     -1.030533
  H      -0.579206     -1.611999      0.580305
  H      -2.157607     -0.164961     -1.501607
  H      -2.787640      1.119067     -0.692087
  H       1.672943     -1.179205      0.590059
  O      -3.206638     -0.762534      1.621048
  C      -3.552401     -0.915477      0.486539
  O      -4.298711     -1.371834     -0.332771
14
Coordinates from ORCA-job ./scants E -399.085079111979
  O       1.108434     -0.394052      0.550835
  N      -2.322264      0.224863     -0.579835
  C      -0.996520      0.445254      0.054558
  C      -0.139946     -0.794649      0.006074
  H      -1.128833      0.760303      1.083488
  H      -0.467344      1.245150     -0.466717
  H      -0.041613     -1.133541     -1.030548
  H      -0.555362     -1.620030      0.586791
  H      -2.155488     -0.171364     -1.498627
  H      -2.783513      1.116782     -0.697421
  H       1.688393     -1.158909      0.588711
  O      -3.217432     -0.762172      1.618753
  C      -3.560699     -0.904522      0.480237
  O      -4.322498     -1.348655     -0.336593
14
Coordinates from ORCA-job ./scants E -399.084639601093
  O       1.115495     -0.379743      0.537611
  N      -2.326085      0.217072     -0.575761
  C      -0.994500      0.435635      0.059210
  C      -0.134040     -0.799652      0.003928
  H      -1.132647      0.741065      1.090049
  H      -0.474271      1.240253     -0.459549
  H      -0.040947     -1.145351     -1.030765
  H      -0.530696     -1.627972      0.592536
  H      -2.153319     -0.178482     -1.494458
  H      -2.779603      1.114049     -0.700687
  H       1.705930     -1.135643      0.588076
  O      -3.230882     -0.761740      1.616621
  C      -3.570949     -0.892667      0.474291
  O      -4.348171     -1.322367     -0.341395
14
Coordinates from ORCA-job ./scants E -399.084027843492
  O       1.122146     -0.367093      0.526937
  N      -2.329289      0.209024     -0.570607
  C      -0.990953      0.426063      0.063090
  C      -0.127638     -0.804254     -0.000319
  H      -1.137991      0.721584      1.095539
  H      -0.483634      1.236619     -0.455786
  H      -0.034553     -1.155361     -1.032726
  H      -0.509038     -1.635542      0.593348
  H      -2.151484     -0.186799     -1.488824
  H      -2.776429      1.110279     -0.703011
  H       1.722797     -1.113607      0.591240
  O      -3.244484     -0.761552      1.615297
  C      -3.580824     -0.880494      0.470096
  O      -4.373311     -1.294410     -0.344568
14
Coordinates from ORCA-job ./scants E -399.083354370971
  O       1.123393     -0.359782      0.530473
  N      -2.333604      0.200410     -0.565957
  C      -0.986582      0.417385      0.062356
  C      -0.120879     -0.806892     -0.010108
  H      -1.139222      0.704836      1.096090
  H      -0.495585      1.235802     -0.457157
  H      -0.013563     -1.153818     -1.041861
  H      -0.496983     -1.645420      0.576105
  H      -2.153206     -0.197086     -1.483403
  H      -2.775904      1.104898     -0.705756
  H       1.731915     -1.098316      0.608943
  O      -3.251190     -0.759447      1.617961
  C      -3.586978     -0.868960      0.471461
  O      -4.396297     -1.269152     -0.339442
14
Coordinates from ORCA-job ./scants E -399.082829605533
  O       1.123744     -0.356674      0.536755
  N      -2.337172      0.191367     -0.562631
  C      -0.984003      0.410916      0.061124
  C      -0.114924     -0.806571     -0.020249
  H      -1.138282      0.691496      1.096557
  H      -0.509523      1.239733     -0.456330
  H       0.008683     -1.146974     -1.051683
  H      -0.491166     -1.651881      0.556000
  H      -2.153830     -0.210468     -1.477897
  H      -2.777075      1.097236     -0.711482
  H       1.734658     -1.091690      0.626901
  O      -3.252661     -0.756205      1.620824
  C      -3.589318     -0.858525      0.474047
  O      -4.413818     -1.247302     -0.332229
14
Coordinates from ORCA-job ./scants E -399.082570492855
  O       1.123842     -0.357320      0.543966
  N      -2.339024      0.182199     -0.559788
  C      -0.982957      0.407608      0.059911
  C      -0.109801     -0.803575     -0.029930
  H      -1.136560      0.682306      1.097284
  H      -0.524674      1.247798     -0.453775
  H       0.029660     -1.136024     -1.061476
  H      -0.491176     -1.654206      0.535310
  H      -2.152538     -0.226822     -1.471688
  H      -2.779276      1.087493     -0.719486
  H       1.731641     -1.093630      0.643044
  O      -3.250063     -0.752489      1.623541
  C      -3.588447     -0.849538      0.477332
  O      -4.425311     -1.229342     -0.324539
14
Coordinates from ORCA-job ./scants E -399.082346071527
  O       1.124186     -0.360383      0.550325
  N      -2.339479      0.173273     -0.557223
  C      -0.982374      0.406471      0.058745
  C      -0.105622     -0.799095     -0.038810
  H      -1.134391      0.676187      1.098045
  H      -0.541603      1.258996     -0.450190
  H       0.048136     -1.122984     -1.070660
  H      -0.495196     -1.653639      0.515324
  H      -2.148963     -0.243924     -1.465426
  H      -2.781464      1.076998     -0.728913
  H       1.724430     -1.101603      0.657953
  O      -3.245409     -0.748707      1.626702
  C      -3.584247     -0.841783      0.480686
  O      -4.432690     -1.215351     -0.316853
14
Coordinates from ORCA-job ./scants E -399.082008001359
  O       1.125103     -0.366010      0.555706
  N      -2.338622      0.164483     -0.555023
  C      -0.982086      0.407587      0.058018
  C      -0.102667     -0.792857     -0.046426
  H      -1.132136      0.673556      1.099125
  H      -0.559624      1.272632     -0.445680
  H       0.063526     -1.107752     -1.078844
  H      -0.503737     -1.649667      0.496437
  H      -2.142678     -0.261060     -1.459324
  H      -2.783607      1.065657     -0.740033
  H       1.713262     -1.115780      0.670580
  O      -3.238998     -0.744703      1.630621
  C      -3.576273     -0.835478      0.484123
  O      -4.436148     -1.206152     -0.309573
14
Coordinates from ORCA-job ./scants E -399.081494526500
  O       1.126759     -0.374522      0.560892
  N      -2.336903      0.155648     -0.553309
  C      -0.982268      0.411186      0.058015
  C      -0.100455     -0.784802     -0.052492
  H      -1.130185      0.674682      1.100674
  H      -0.577954      1.288272     -0.440300
  H       0.076465     -1.089900     -1.085947
  H      -0.516074     -1.642563      0.478413
  H      -2.134047     -0.278183     -1.453250
  H      -2.786331      1.053026     -0.753157
  H       1.698544     -1.136284      0.680038
  O      -3.230871     -0.739893      1.635129
  C      -3.565140     -0.830527      0.487870
  O      -4.436225     -1.201683     -0.302870
14
Coordinates from ORCA-job ./scants E -399.080795797300
  O       1.128065     -0.385628      0.566833
  N      -2.334940      0.146920     -0.552485
  C      -0.982961      0.416840      0.058867
  C      -0.098758     -0.775776     -0.057461
  H      -1.128247      0.678448      1.102825
  H      -0.596107      1.305295     -0.433830
  H       0.087229     -1.068990     -1.092836
  H      -0.530873     -1.633941      0.460146
  H      -2.123572     -0.294862     -1.447392
  H      -2.789869      1.039073     -0.768799
  H       1.680326     -1.161630      0.687348
  O      -3.221198     -0.733109      1.640099
  C      -3.550928     -0.826348      0.491993
  O      -4.432850     -1.201832     -0.295601
14
Coordinates from ORCA-job ./scants E -399.079988527618
  O       1.127294     -0.399818      0.574906
  N      -2.332775      0.137788     -0.552680
  C      -0.984067      0.423876      0.061085
  C      -0.097815     -0.766422     -0.062704
  H      -1.125675      0.682493      1.106428
  H      -0.614951      1.323969     -0.424688
  H       0.096686     -1.043949     -1.101065
  H      -0.548374     -1.624893      0.439071
  H      -2.112414     -0.310910     -1.442463
  H      -2.792465      1.023751     -0.786920
  H       1.658853     -1.190856      0.692383
  O      -3.213531     -0.718293      1.646070
  C      -3.532636     -0.821926      0.496502
  O      -4.422816     -1.210352     -0.286218
14
Coordinates from ORCA-job ./scants E -399.079487524054
  O       1.123802     -0.414023      0.584178
  N      -2.331608      0.130703     -0.553620
  C      -0.985794      0.429178      0.065308
  C      -0.098158     -0.760134     -0.066922
  H      -1.123117      0.683462      1.111973
  H      -0.628302      1.337779     -0.413667
  H       0.102436     -1.019650     -1.109017
  H      -0.562745     -1.620885      0.418336
  H      -2.104284     -0.321859     -1.439469
  H      -2.791836      1.012962     -0.800550
  H       1.643504     -1.214905      0.688953
  O      -3.218612     -0.687628      1.652081
  C      -3.516867     -0.816439      0.500139
  O      -4.403104     -1.234103     -0.278018
14
Coordinates from ORCA-job ./scants E -399.078646194297
  O       1.118614     -0.432421      0.594914
  N      -2.331230      0.125594     -0.555723
  C      -0.986051      0.440139      0.070456
  C      -0.100221     -0.754330     -0.066218
  H      -1.118430      0.690933      1.117506
  H      -0.636712      1.353743     -0.403976
  H       0.099072     -0.996256     -1.113226
  H      -0.578670     -1.615082      0.406367
  H      -2.096903     -0.331193     -1.438606
  H      -2.793987      1.003604     -0.814350
  H       1.629494     -1.241925      0.677985
  O      -3.219323     -0.660226      1.656713
  C      -3.499457     -0.815318      0.501404
  O      -4.380881     -1.262804     -0.273540
14
Coordinates from ORCA-job ./scants E -399.079386378413
  O       1.127469     -0.414010      0.586057
  N      -2.330033      0.129198     -0.554519
  C      -0.984202      0.429143      0.065762
  C      -0.096372     -0.758146     -0.067069
  H      -1.123756      0.687980      1.115911
  H      -0.631963      1.346528     -0.412511
  H       0.104516     -1.015513     -1.104018
  H      -0.577589     -1.616053      0.411238
  H      -2.100606     -0.325837     -1.440488
  H      -2.788354      1.007201     -0.803320
  H       1.633823     -1.224293      0.683049
  O      -3.218127     -0.685329      1.651502
  C      -3.512281     -0.817040      0.501741
  O      -4.397210     -1.239371     -0.273630
14
Coordinates from ORCA-job ./scants E -399.079655128727
  O       1.125568     -0.408542      0.595989
  N      -2.331836      0.136639     -0.558354
  C      -0.986471      0.426650      0.057246
  C      -0.096148     -0.757773     -0.069454
  H      -1.120100      0.694093      1.106161
  H      -0.631032      1.343012     -0.428126
  H       0.122325     -1.021242     -1.100932
  H      -0.591926     -1.614887      0.398120
  H      -2.103902     -0.312217     -1.446064
  H      -2.792020      1.013310     -0.799231
  H       1.618804     -1.227015      0.705409
  O      -3.197858     -0.711237      1.650305
  C      -3.508456     -0.823550      0.506241
  O      -4.401634     -1.232782     -0.257606
14
Coordinates from ORCA-job ./scants E -399.078549747416
  O       1.127317     -0.406158      0.584734
  N      -2.328682      0.127807     -0.552944
  C      -0.979355      0.421391      0.065711
  C      -0.095513     -0.759023     -0.068409
  H      -1.121858      0.685368      1.117311
  H      -0.635990      1.337788     -0.414319
  H       0.104512     -1.016957     -1.103247
  H      -0.572586     -1.618813      0.409974
  H      -2.102022     -0.328006     -1.440121
  H      -2.785298      1.006266     -0.799813
  H       1.637672     -1.214183      0.683563
  O      -3.224275     -0.689755      1.651150
  C      -3.515250     -0.814844      0.503796
  O      -4.403357     -1.226422     -0.277680
14
Coordinates from ORCA-job ./scants E -399.078092118841
  O       1.135571     -0.402924      0.573784
  N      -2.327387      0.125004     -0.552537
  C      -0.980762      0.423112      0.067489
  C      -0.097827     -0.757559     -0.062659
  H      -1.125944      0.683793      1.119208
  H      -0.647906      1.345804     -0.408145
  H       0.098821     -1.035039     -1.093117
  H      -0.582494     -1.604344      0.431632
  H      -2.095033     -0.325225     -1.440909
  H      -2.786373      1.002000     -0.804213
  H       1.636331     -1.217638      0.669973
  O      -3.212654     -0.705539      1.643329
  C      -3.504001     -0.813773      0.495859
  O      -4.405026     -1.213214     -0.279990
14
Coordinates from ORCA-job ./scants E -399.078063974083
  O       1.138153     -0.398343      0.566056
  N      -2.328248      0.125170     -0.552947
  C      -0.982989      0.423441      0.068291
  C      -0.102722     -0.760306     -0.053168
  H      -1.131558      0.685123      1.119103
  H      -0.651326      1.345880     -0.407972
  H       0.085979     -1.056343     -1.080350
  H      -0.585019     -1.597220      0.459806
  H      -2.093527     -0.315855     -1.445064
  H      -2.789228      1.002704     -0.802522
  H       1.642159     -1.212024      0.655291
  O      -3.195760     -0.726603      1.633240
  C      -3.492945     -0.813989      0.485128
  O      -4.407655     -1.197178     -0.285184
14
Coordinates from ORCA-job ./scants E -399.079409307686
  O       1.137345     -0.403093      0.572492
  N      -2.326829      0.125025     -0.551945
  C      -0.983248      0.424746      0.067389
  C      -0.097742     -0.756916     -0.060747
  H      -1.129576      0.683145      1.119138
  H      -0.644454      1.345951     -0.408454
  H       0.097725     -1.036116     -1.091698
  H      -0.583550     -1.602944      0.434551
  H      -2.096454     -0.327218     -1.438644
  H      -2.784654      1.000437     -0.803374
  H       1.640219     -1.216784      0.666199
  O      -3.214117     -0.708993      1.638276
  C      -3.506705     -0.812825      0.494602
  O      -4.402647     -1.209958     -0.278079
14
Coordinates from ORCA-job ./scants E -399.078771761878
  O       1.138095     -0.394294      0.567345
  N      -2.328560      0.129466     -0.553378
  C      -0.985796      0.423182      0.066796
  C      -0.104097     -0.761669     -0.053050
  H      -1.131558      0.684303      1.117262
  H      -0.647130      1.344248     -0.410477
  H       0.089365     -1.063410     -1.077703
  H      -0.587847     -1.597401      0.460670
  H      -2.096821     -0.310026     -1.446045
  H      -2.791439      1.004999     -0.800716
  H       1.638095     -1.210763      0.656514
  O      -3.189985     -0.731828      1.630845
  C      -3.492580     -0.813794      0.484367
  O      -4.404427     -1.198555     -0.282724
14
Coordinates from ORCA-job ./scants E -399.077680380305
  O       1.136700     -0.381310      0.563528
  N      -2.330141      0.134487     -0.554908
  C      -0.988303      0.418343      0.065230
  C      -0.111532     -0.768963     -0.047814
  H      -1.131842      0.679738      1.115017
  H      -0.650672      1.339295     -0.412544
  H       0.081355     -1.091534     -1.065348
  H      -0.583122     -1.597337      0.486689
  H      -2.100369     -0.293130     -1.454783
  H      -2.797646      1.012124     -0.797186
  H       1.637749     -1.198457      0.650295
  O      -3.167858     -0.754464      1.625405
  C      -3.480314     -0.810466      0.475018
  O      -4.408689     -1.183868     -0.288894
14
Coordinates from ORCA-job ./scants E -399.076402812840
  O       1.132647     -0.368386      0.558101
  N      -2.330019      0.138497     -0.554827
  C      -0.990658      0.412396      0.062852
  C      -0.121631     -0.773394     -0.043260
  H      -1.132259      0.672501      1.112107
  H      -0.647421      1.331603     -0.416271
  H       0.071956     -1.111261     -1.049463
  H      -0.573102     -1.590208      0.514082
  H      -2.106982     -0.283845     -1.464113
  H      -2.803136      1.021254     -0.791576
  H       1.636614     -1.190251      0.642999
  O      -3.147958     -0.777993      1.619857
  C      -3.470050     -0.807728      0.466522
  O      -4.412686     -1.168729     -0.297303
14
Coordinates from ORCA-job ./scants E -399.076535189846
  O       1.141201     -0.363692      0.544325
  N      -2.328786      0.131734     -0.551250
  C      -0.983605      0.405584      0.066779
  C      -0.109592     -0.774087     -0.044926
  H      -1.135933      0.661508      1.116120
  H      -0.653356      1.331708     -0.406120
  H       0.071596     -1.109137     -1.055361
  H      -0.562583     -1.597195      0.505100
  H      -2.100455     -0.294144     -1.454593
  H      -2.790778      1.017377     -0.790682
  H       1.655697     -1.177584      0.638770
  O      -3.184684     -0.756742      1.623307
  C      -3.492061     -0.805353      0.470722
  O      -4.421346     -1.165519     -0.302486
14
Coordinates from ORCA-job ./scants E -399.076499917873
  O       1.151853     -0.353544      0.527474
  N      -2.328183      0.125379     -0.546986
  C      -0.978539      0.395781      0.069945
  C      -0.096649     -0.776683     -0.048093
  H      -1.139478      0.643868      1.120311
  H      -0.658658      1.329538     -0.394817
  H       0.076941     -1.113928     -1.060420
  H      -0.545412     -1.605166      0.498885
  H      -2.096998     -0.303127     -1.446349
  H      -2.778240      1.015975     -0.787923
  H       1.676678     -1.158920      0.635052
  O      -3.225097     -0.736028      1.627693
  C      -3.518370     -0.801140      0.473290
  O      -4.434532     -1.157545     -0.308357
14
Coordinates from ORCA-job ./scants E -399.076593615855
  O       1.163317     -0.345922      0.509644
  N      -2.326470      0.118744     -0.542130
  C      -0.974836      0.388415      0.074143
  C      -0.085151     -0.777971     -0.051093
  H      -1.142275      0.627833      1.126040
  H      -0.662609      1.328595     -0.382366
  H       0.079623     -1.116418     -1.065605
  H      -0.528096     -1.610261      0.496010
  H      -2.093984     -0.314372     -1.437996
  H      -2.767735      1.012965     -0.785482
  H       1.695637     -1.144345      0.628726
  O      -3.264282     -0.713332      1.632012
  C      -3.543979     -0.797412      0.475303
  O      -4.443846     -1.152061     -0.317500
14
Coordinates from ORCA-job ./scants E -399.076863328864
  O       1.174801     -0.339938      0.491095
  N      -2.323846      0.112571     -0.537105
  C      -0.972515      0.382965      0.079326
  C      -0.075473     -0.778268     -0.053748
  H      -1.144616      0.613573      1.132895
  H      -0.664488      1.327991     -0.369622
  H       0.079111     -1.117124     -1.070669
  H      -0.511640     -1.613173      0.495649
  H      -2.089798     -0.326074     -1.429247
  H      -2.758390      1.009011     -0.783541
  H       1.712035     -1.133023      0.620281
  O      -3.301781     -0.689731      1.635468
  C      -3.568434     -0.794523      0.476736
  O      -4.449653     -1.149799     -0.327813
14
Coordinates from ORCA-job ./scants E -399.077212186138
  O       1.186186     -0.334877      0.472231
  N      -2.320662      0.106772     -0.531972
  C      -0.971142      0.378748      0.085266
  C      -0.067227     -0.777879     -0.056175
  H      -1.146731      0.600419      1.140552
  H      -0.664562      1.327348     -0.356754
  H       0.076168     -1.116531     -1.075617
  H      -0.495316     -1.614729      0.497127
  H      -2.084701     -0.337800     -1.420247
  H      -2.750153      1.004305     -0.781974
  H       1.726435     -1.123938      0.610330
  O      -3.337960     -0.665496      1.637863
  C      -3.591835     -0.792126      0.477705
  O      -4.453184     -1.149755     -0.338628
14
Coordinates from ORCA-job ./scants E -399.077587332369
  O       1.197465     -0.330161      0.453097
  N      -2.317234      0.101359     -0.526873
  C      -0.970454      0.375262      0.091858
  C      -0.059992     -0.777135     -0.058408
  H      -1.148632      0.587693      1.148865
  H      -0.663098      1.326486     -0.343635
  H       0.071419     -1.115190     -1.080375
  H      -0.478382     -1.615631      0.500067
  H      -2.079096     -0.349278     -1.411238
  H      -2.743011      0.999049     -0.780864
  H       1.739339     -1.116181      0.599342
  O      -3.373192     -0.640819      1.639057
  C      -3.614407     -0.789840      0.478308
  O      -4.455410     -1.151159     -0.349495
14
Coordinates from ORCA-job ./scants E -399.077971955554
  O       1.208556     -0.325282      0.433612
  N      -2.313750      0.096425     -0.521923
  C      -0.970236      0.372095      0.099054
  C      -0.053431     -0.776312     -0.060471
  H      -1.150247      0.574766      1.157770
  H      -0.660309      1.325272     -0.330047
  H       0.065319     -1.113644     -1.084865
  H      -0.460474     -1.616360      0.504131
  H      -2.073491     -0.360343     -1.402483
  H      -2.736643      0.993470     -0.780567
  H       1.751164     -1.108837      0.587800
  O      -3.407658     -0.616109      1.639013
  C      -3.636410     -0.787290      0.478668
  O      -4.457075     -1.153393     -0.359985
14
Coordinates from ORCA-job ./scants E -399.078362914807
  O       1.219284     -0.320222      0.413898
  N      -2.310166      0.092004     -0.517334
  C      -0.970297      0.369160      0.106707
  C      -0.047381     -0.775476     -0.062343
  H      -1.151571      0.561547      1.167085
  H      -0.656423      1.323817     -0.315969
  H       0.058172     -1.112131     -1.088999
  H      -0.442089     -1.616964      0.508847
  H      -2.068181     -0.370895     -1.394251
  H      -2.730686      0.987883     -0.781320
  H       1.762071     -1.101591      0.576207
  O      -3.441102     -0.591879      1.637894
  C      -3.657824     -0.784494      0.478913
  O      -4.458490     -1.156301     -0.369629
14
Coordinates from ORCA-job ./scants E -399.078751557955
  O       1.229448     -0.315040      0.394171
  N      -2.306394      0.088107     -0.513358
  C      -0.970579      0.366317      0.114601
  C      -0.041740     -0.774697     -0.064075
  H      -1.153054      0.547911      1.176541
  H      -0.651734      1.322184     -0.301368
  H       0.050315     -1.110747     -1.092800
  H      -0.423601     -1.617565      0.513725
  H      -2.063335     -0.380959     -1.386805
  H      -2.724828      0.982595     -0.783079
  H       1.772201     -1.094196      0.565071
  O      -3.473055     -0.568287      1.635970
  C      -3.678492     -0.781457      0.479187
  O      -4.459837     -1.159707     -0.378076
14
Coordinates from ORCA-job ./scants E -399.079143520377
  O       1.238906     -0.309665      0.374908
  N      -2.302513      0.084660     -0.510230
  C      -0.971177      0.363229      0.122473
  C      -0.036292     -0.774031     -0.065790
  H      -1.154808      0.533593      1.185892
  H      -0.646517      1.320248     -0.286107
  H       0.042290     -1.109283     -1.096454
  H      -0.404908     -1.618553      0.518077
  H      -2.059277     -0.390821     -1.380275
  H      -2.718904      0.977726     -0.785795
  H       1.781788     -1.086275      0.554939
  O      -3.503245     -0.545142      1.633477
  C      -3.698526     -0.777976      0.479644
  O      -4.461502     -1.163252     -0.385054
14
Coordinates from ORCA-job ./scants E -399.079539445345
  O       1.247602     -0.304081      0.356622
  N      -2.298587      0.081468     -0.508001
  C      -0.972082      0.359723      0.130036
  C      -0.030843     -0.773501     -0.067575
  H      -1.156995      0.518414      1.194831
  H      -0.640921      1.318034     -0.270092
  H       0.034764     -1.107336     -1.100168
  H      -0.385981     -1.620276      0.521260
  H      -2.056264     -0.400749     -1.374650
  H      -2.712828      0.973155     -0.789426
  H       1.790992     -1.077690      0.546099
  O      -3.531694     -0.522136      1.630672
  C      -3.718077     -0.773884      0.480469
  O      -4.463771     -1.166686     -0.390371
14
Coordinates from ORCA-job ./scants E -399.079883749814
  O       1.255590     -0.298305      0.339331
  N      -2.294631      0.078453     -0.506551
  C      -0.973228      0.355746      0.137283
  C      -0.025340     -0.773106     -0.069526
  H      -1.159695      0.502430      1.203341
  H      -0.635266      1.315531     -0.253436
  H       0.027974     -1.105016     -1.104002
  H      -0.366966     -1.622602      0.523260
  H      -2.054110     -0.410702     -1.369868
  H      -2.706490      0.968871     -0.793834
  H       1.799865     -1.068470      0.538473
  O      -3.558553     -0.499186      1.627727
  C      -3.737146     -0.769215      0.481672
  O      -4.466689     -1.169970     -0.394164
14
Coordinates from ORCA-job ./scants E -399.080260946152
  O       1.262911     -0.292465      0.323207
  N      -2.290670      0.075536     -0.505840
  C      -0.974578      0.351366      0.144131
  C      -0.019774     -0.772769     -0.071688
  H      -1.162839      0.485762      1.211319
  H      -0.629655      1.312832     -0.236211
  H       0.021984     -1.102102     -1.108062
  H      -0.348102     -1.625508      0.523847
  H      -2.052664     -0.420712     -1.365817
  H      -2.699907      0.964796     -0.798953
  H       1.808349     -1.058820      0.532156
  O      -3.583843     -0.476134      1.624732
  C      -3.755745     -0.764051      0.483307
  O      -4.470151     -1.173274     -0.396422
14
Coordinates from ORCA-job ./scants E -399.080537270111
  O       1.269781     -0.286389      0.307269
  N      -2.286730      0.072912     -0.505533
  C      -0.976013      0.346530      0.150962
  C      -0.014228     -0.772682     -0.074005
  H      -1.166480      0.468453      1.219132
  H      -0.624548      1.309664     -0.219053
  H       0.016527     -1.100130     -1.111862
  H      -0.329296     -1.628238      0.524530
  H      -2.051655     -0.429751     -1.362404
  H      -2.692730      0.961457     -0.804340
  H       1.816697     -1.048499      0.526333
  O      -3.607961     -0.453586      1.621652
  C      -3.773821     -0.758722      0.484926
  O      -4.474227     -1.176560     -0.397902
14
Coordinates from ORCA-job ./scants E -399.080786662091
  O       1.276137     -0.280313      0.292374
  N      -2.282906      0.070355     -0.505847
  C      -0.977567      0.341365      0.157379
  C      -0.008643     -0.772615     -0.076436
  H      -1.170424      0.450557      1.226343
  H      -0.619579      1.306370     -0.201388
  H       0.011806     -1.097594     -1.115776
  H      -0.310863     -1.631420      0.524012
  H      -2.051149     -0.438811     -1.359634
  H      -2.685253      0.958383     -0.810228
  H       1.824761     -1.037864      0.521537
  O      -3.630740     -0.430830      1.618486
  C      -3.791552     -0.753051      0.486900
  O      -4.478713     -1.180074     -0.398015
14
Coordinates from ORCA-job ./scants E -399.081003751005
  O       1.282079     -0.274256      0.278623
  N      -2.279170      0.067743     -0.506691
  C      -0.979225      0.335884      0.163463
  C      -0.002960     -0.772510     -0.079065
  H      -1.174697      0.432074      1.233070
  H      -0.615103      1.302996     -0.183314
  H       0.007962     -1.094286     -1.119994
  H      -0.292670     -1.635111      0.522054
  H      -2.050906     -0.448155     -1.357239
  H      -2.677530      0.955334     -0.816633
  H       1.832528     -1.027051      0.517741
  O      -3.652325     -0.407653      1.615277
  C      -3.809050     -0.746890      0.489294
  O      -4.483619     -1.183660     -0.396882
14
Coordinates from ORCA-job ./scants E -399.081199822481
  O       1.287637     -0.268268      0.266340
  N      -2.275489      0.065015     -0.508042
  C      -0.980991      0.330113      0.169216
  C       0.002894     -0.772284     -0.082006
  H      -1.179306      0.413095      1.239299
  H      -0.611198      1.299507     -0.165020
  H       0.005366     -1.089961     -1.124703
  H      -0.274871     -1.639252      0.518424
  H      -2.050775     -0.457824     -1.355140
  H      -2.669599      0.952143     -0.823559
  H       1.839965     -1.016258      0.514947
  O      -3.672758     -0.383993      1.612087
  C      -3.826565     -0.740262      0.492243
  O      -4.488996     -1.187313     -0.394381
14
Coordinates from ORCA-job ./scants E -399.081386886161
  O       1.292833     -0.262483      0.255972
  N      -2.271803      0.062157     -0.509938
  C      -0.982861      0.324152      0.174595
  C       0.008954     -0.771835     -0.085301
  H      -1.184294      0.393876      1.244952
  H      -0.607788      1.295901     -0.146734
  H       0.004270     -1.084238     -1.130052
  H      -0.257673     -1.643814      0.512891
  H      -2.050783     -0.467809     -1.353243
  H      -2.661539      0.948667     -0.831050
  H       1.847043     -1.005823      0.513159
  O      -3.691943     -0.359853      1.608959
  C      -3.844280     -0.733287      0.495869
  O      -4.494821     -1.191154     -0.390374
14
Coordinates from ORCA-job ./scants E -399.081589282376
  O       1.297667     -0.257089      0.247961
  N      -2.268035      0.059228     -0.512471
  C      -0.984797      0.318215      0.179475
  C       0.015175     -0.771055     -0.088929
  H      -1.189635      0.374684      1.249901
  H      -0.604790      1.292319     -0.128747
  H       0.004787     -1.076805     -1.136090
  H      -0.241388     -1.648699      0.505365
  H      -2.051002     -0.478047     -1.351618
  H      -2.653487      0.944841     -0.839148
  H       1.853640     -0.996182      0.512457
  O      -3.709611     -0.335474      1.605959
  C      -3.862202     -0.726160      0.500328
  O      -4.501006     -1.195317     -0.384739
14
Coordinates from ORCA-job ./scants E -399.081770340639
  O       1.302155     -0.251913      0.242092
  N      -2.264281      0.056109     -0.515556
  C      -0.986755      0.312152      0.183948
  C       0.021511     -0.769993     -0.092916
  H      -1.195146      0.355298      1.254262
  H      -0.602547      1.288748     -0.110988
  H       0.006830     -1.067822     -1.142762
  H      -0.225903     -1.653862      0.496010
  H      -2.051160     -0.488647     -1.350326
  H      -2.645435      0.940765     -0.847938
  H       1.859744     -0.987195      0.512791
  O      -3.725847     -0.310792      1.603213
  C      -3.880109     -0.718777      0.505565
  O      -4.507743     -1.199615     -0.377690
14
Coordinates from ORCA-job ./scants E -399.081966048456
  O       1.306186     -0.247287      0.239163
  N      -2.260496      0.053063     -0.519438
  C      -0.988754      0.306333      0.187585
  C       0.027901     -0.768508     -0.097312
  H      -1.200709      0.336421      1.257607
  H      -0.600679      1.285319     -0.094237
  H       0.010896     -1.056933     -1.150194
  H      -0.212048     -1.659210      0.484409
  H      -2.051388     -0.499191     -1.349549
  H      -2.637541      0.936524     -0.857341
  H       1.864906     -0.979510      0.514867
  O      -3.740052     -0.286616      1.600914
  C      -3.898036     -0.711649      0.511883
  O      -4.514874     -1.204298     -0.368652
14
Coordinates from ORCA-job ./scants E -399.082208061923
  O       1.309669     -0.243743      0.240093
  N      -2.256525      0.050361     -0.524351
  C      -0.990707      0.301316      0.190002
  C       0.034212     -0.766459     -0.101965
  H      -1.206359      0.319038      1.259529
  H      -0.598764      1.282329     -0.079344
  H       0.017170     -1.043779     -1.158310
  H      -0.200437     -1.664556      0.470572
  H      -2.052057     -0.509231     -1.349461
  H      -2.630223      0.932048     -0.867208
  H       1.868913     -0.974048      0.518862
  O      -3.751523     -0.263900      1.599243
  C      -3.915943     -0.705331      0.519566
  O      -4.522111     -1.209587     -0.357522
14
Coordinates from ORCA-job ./scants E -399.082707271715
  O       1.311039     -0.244865      0.251650
  N      -2.252294      0.050004     -0.531838
  C      -0.993216      0.300822      0.188578
  C       0.039116     -0.762949     -0.105980
  H      -1.212020      0.310287      1.257320
  H      -0.593212      1.280981     -0.072402
  H       0.027279     -1.025754     -1.166945
  H      -0.197107     -1.669278      0.453176
  H      -2.055399     -0.515952     -1.352371
  H      -2.626241      0.928562     -0.876487
  H       1.868966     -0.976645      0.527658
  O      -3.753811     -0.249296      1.599296
  C      -3.931442     -0.703465      0.529706
  O      -4.526342     -1.217994     -0.341655
14
Coordinates from ORCA-job ./scants E -399.082932836441
  O       1.305763     -0.254139      0.263425
  N      -2.254788      0.056387     -0.531445
  C      -0.993397      0.311736      0.181254
  C       0.032467     -0.762560     -0.101084
  H      -1.208336      0.336300      1.250064
  H      -0.585721      1.284775     -0.094696
  H       0.026355     -1.030660     -1.161234
  H      -0.217648     -1.664260      0.460104
  H      -2.060305     -0.502628     -1.356324
  H      -2.636032      0.933980     -0.866549
  H       1.860543     -0.990979      0.531566
  O      -3.733573     -0.278382      1.601544
  C      -3.915538     -0.715530      0.526033
  O      -4.514474     -1.219582     -0.342954
14
Coordinates from ORCA-job ./scants E -399.083222560471
  O       1.305860     -0.255880      0.277785
  N      -2.250564      0.055840     -0.539582
  C      -0.995412      0.311268      0.179485
  C       0.036901     -0.758986     -0.105420
  H      -1.213859      0.327828      1.247647
  H      -0.582114      1.284308     -0.088341
  H       0.037976     -1.010892     -1.170120
  H      -0.215661     -1.669220      0.440933
  H      -2.062221     -0.509875     -1.359916
  H      -2.632569      0.930782     -0.877175
  H       1.859612     -0.995038      0.540557
  O      -3.733771     -0.263514      1.603254
  C      -3.929442     -0.713737      0.537615
  O      -4.519420     -1.228426     -0.327017
14
Coordinates from ORCA-job ./scants E -399.083299921826
  O       1.301329     -0.262848      0.282092
  N      -2.253096      0.060276     -0.536542
  C      -0.994936      0.319991      0.175610
  C       0.029803     -0.759954     -0.098947
  H      -1.212113      0.348983      1.243707
  H      -0.578383      1.287954     -0.104838
  H       0.030238     -1.020812     -1.161669
  H      -0.229997     -1.663461      0.455208
  H      -2.065690     -0.498760     -1.362770
  H      -2.641824      0.935294     -0.866622
  H       1.855388     -1.004881      0.535883
  O      -3.716875     -0.287687      1.603639
  C      -3.911047     -0.722097      0.530780
  O      -4.507481     -1.227541     -0.335825
14
Coordinates from ORCA-job ./scants E -399.083573770422
  O       1.300847     -0.264682      0.297970
  N      -2.248902      0.058622     -0.544432
  C      -0.996350      0.318860      0.174174
  C       0.034329     -0.756100     -0.103981
  H      -1.217667      0.338747      1.241769
  H      -0.577792      1.288608     -0.097163
  H       0.043597     -0.999104     -1.171189
  H      -0.228409     -1.668591      0.433889
  H      -2.066056     -0.508281     -1.365494
  H      -2.638065      0.931352     -0.878903
  H       1.854503     -1.009476      0.543827
  O      -3.717179     -0.270062      1.606334
  C      -3.924114     -0.719050      0.543255
  O      -4.513428     -1.236385     -0.320351
14
Coordinates from ORCA-job ./scants E -399.083794931369
  O       1.293689     -0.274048      0.312050
  N      -2.250165      0.064141     -0.545630
  C      -0.996914      0.328976      0.168241
  C       0.026987     -0.756037     -0.097993
  H      -1.218592      0.360939      1.235405
  H      -0.571985      1.292505     -0.114936
  H       0.040174     -1.001721     -1.164822
  H      -0.246398     -1.664459      0.441618
  H      -2.071310     -0.497404     -1.371069
  H      -2.648408      0.936125     -0.871573
  H       1.847713     -1.023252      0.542981
  O      -3.693039     -0.292732      1.608469
  C      -3.905228     -0.728349      0.540300
  O      -4.501208     -1.240227     -0.323336
14
Coordinates from ORCA-job ./scants E -399.084017142287
  O       1.291423     -0.276718      0.330675
  N      -2.246503      0.063651     -0.554113
  C      -0.998058      0.328488      0.165236
  C       0.030706     -0.752452     -0.103107
  H      -1.222806      0.353941      1.232056
  H      -0.570953      1.293203     -0.111091
  H       0.055917     -0.980588     -1.173768
  H      -0.248227     -1.669442      0.419082
  H      -2.070852     -0.504480     -1.374969
  H      -2.645359      0.933670     -0.883195
  H       1.844705     -1.028944      0.553035
  O      -3.690563     -0.279739      1.612660
  C      -3.916919     -0.727402      0.553710
  O      -4.507195     -1.248730     -0.306506
14
Coordinates from ORCA-job ./scants E -399.084385050777
  O       1.281484     -0.286773      0.359150
  N      -2.245334      0.069556     -0.563100
  C      -0.999311      0.336568      0.156416
  C       0.026364     -0.750198     -0.102439
  H      -1.225466      0.370103      1.222717
  H      -0.565064      1.296382     -0.126576
  H       0.067915     -0.967900     -1.174877
  H      -0.268081     -1.669864      0.406762
  H      -2.073894     -0.497888     -1.384698
  H      -2.652251      0.937698     -0.886120
  H       1.833302     -1.044975      0.564105
  O      -3.664428     -0.293732      1.619491
  C      -3.907676     -0.736326      0.562563
  O      -4.502244     -1.258192     -0.293687
14
Coordinates from ORCA-job ./scants E -399.084736760494
  O       1.271873     -0.296211      0.387549
  N      -2.243700      0.074649     -0.573004
  C      -1.000158      0.342936      0.148088
  C       0.023361     -0.747461     -0.103613
  H      -1.227957      0.382312      1.213882
  H      -0.561006      1.299550     -0.139002
  H       0.083227     -0.952614     -1.177667
  H      -0.285530     -1.670977      0.390127
  H      -2.074904     -0.493265     -1.394295
  H      -2.656951      0.940757     -0.892349
  H       1.821798     -1.059889      0.576785
  O      -3.641893     -0.303562      1.627158
  C      -3.902371     -0.743967      0.574173
  O      -4.500475     -1.267800     -0.278126
14
Coordinates from ORCA-job ./scants E -399.085060905715
  O       1.261227     -0.306472      0.415270
  N      -2.242620      0.080524     -0.582377
  C      -1.000642      0.350155      0.139235
  C       0.019252     -0.745073     -0.104115
  H      -1.229539      0.397347      1.204475
  H      -0.556660      1.303014     -0.153713
  H       0.097594     -0.939956     -1.178867
  H      -0.304475     -1.671027      0.375644
  H      -2.075616     -0.486338     -1.404331
  H      -2.662349      0.944798     -0.897284
  H       1.809174     -1.075187      0.589442
  O      -3.617799     -0.317308      1.635039
  C      -3.894683     -0.753049      0.584946
  O      -4.497547     -1.276970     -0.263658
14
Coordinates from ORCA-job ./scants E -399.085363477914
  O       1.249633     -0.317495      0.441885
  N      -2.242090      0.087138     -0.590874
  C      -1.000806      0.358413      0.129992
  C       0.013865     -0.743142     -0.103541
  H      -1.230450      0.415382      1.194579
  H      -0.551794      1.306735     -0.170674
  H       0.110006     -0.930538     -1.178141
  H      -0.324973     -1.669861      0.364425
  H      -2.076504     -0.477068     -1.414640
  H      -2.668686      0.949782     -0.900330
  H       1.795838     -1.090692      0.601278
  O      -3.591749     -0.335049      1.642678
  C      -3.884062     -0.763482      0.594225
  O      -4.492912     -1.285666     -0.251155
14
Coordinates from ORCA-job ./scants E -399.085624842435
  O       1.237436     -0.328819      0.467020
  N      -2.242019      0.094331     -0.598507
  C      -1.000711      0.367370      0.120546
  C       0.007492     -0.741664     -0.102034
  H      -1.230750      0.435586      1.184363
  H      -0.546384      1.310421     -0.189237
  H       0.120438     -0.924213     -1.175785
  H      -0.346484     -1.667689      0.356249
  H      -2.077636     -0.465846     -1.425048
  H      -2.675641      0.955567     -0.901614
  H       1.782146     -1.105883      0.612350
  O      -3.564347     -0.355913      1.649816
  C      -3.871265     -0.774933      0.602043
  O      -4.486961     -1.293857     -0.240457
14
Coordinates from ORCA-job ./scants E -399.085881237150
  O       1.224888     -0.340187      0.490533
  N      -2.242335      0.101955     -0.605282
  C      -1.000400      0.376822      0.111037
  C       0.000312     -0.740605     -0.099644
  H      -1.230531      0.457413      1.173938
  H      -0.540500      1.313933     -0.208939
  H       0.128801     -0.920794     -1.171993
  H      -0.368703     -1.664619      0.351011
  H      -2.079105     -0.453016     -1.435425
  H      -2.683062      0.961989     -0.901219
  H       1.768369     -1.120514      0.622593
  O      -3.535866     -0.379269      1.656231
  C      -3.856663     -0.787125      0.608386
  O      -4.479891     -1.301526     -0.231521
14
Coordinates from ORCA-job ./scants E -399.086112454580
  O       1.212273     -0.351226      0.511936
  N      -2.243082      0.109945     -0.611006
  C      -0.999922      0.386581      0.101649
  C      -0.007682     -0.740077     -0.096222
  H      -1.229817      0.480647      1.163457
  H      -0.534160      1.317017     -0.229577
  H       0.134543     -0.920721     -1.166703
  H      -0.391340     -1.660688      0.349357
  H      -2.081107     -0.438636     -1.445569
  H      -2.690956      0.969011     -0.898845
  H       1.754902     -1.134172      0.631636
  O      -3.506452     -0.404991      1.661574
  C      -3.840201     -0.799812      0.612797
  O      -4.471685     -1.308419     -0.224778
14
Coordinates from ORCA-job ./scants E -399.086310434244
  O       1.200058     -0.361423      0.530517
  N      -2.244344      0.118119     -0.615402
  C      -0.999330      0.396338      0.092654
  C      -0.016412     -0.740210     -0.091624
  H      -1.228618      0.504859      1.153174
  H      -0.527504      1.319384     -0.250768
  H       0.137031     -0.924475     -1.159881
  H      -0.413865     -1.655963      0.352054
  H      -2.083899     -0.422918     -1.455179
  H      -2.699318      0.976499     -0.894152
  H       1.742293     -1.146310      0.639022
  O      -3.476494     -0.432782      1.665409
  C      -3.821873     -0.812562      0.614672
  O      -4.462410     -1.314099     -0.220790
14
Coordinates from ORCA-job ./scants E -399.086473540650
  O       1.188653     -0.370444      0.546058
  N      -2.246080      0.126230     -0.618469
  C      -0.998687      0.405737      0.084278
  C      -0.025591     -0.740962     -0.085986
  H      -1.226981      0.529312      1.143311
  H      -0.520777      1.320861     -0.271912
  H       0.136330     -0.931680     -1.151803
  H      -0.435647     -1.650635      0.358871
  H      -2.087507     -0.406388     -1.464022
  H      -2.707934      0.984183     -0.887342
  H       1.730912     -1.156656      0.644639
  O      -3.446692     -0.461793      1.667564
  C      -3.802246     -0.824903      0.613991
  O      -4.452440     -1.318404     -0.219475
14
Coordinates from ORCA-job ./scants E -399.086615490253
  O       1.177929     -0.378516      0.559498
  N      -2.248099      0.134216     -0.620707
  C      -0.998025      0.414684      0.076404
  C      -0.034951     -0.742085     -0.079687
  H      -1.224999      0.553546      1.133752
  H      -0.514112      1.321555     -0.292701
  H       0.133494     -0.941000     -1.142940
  H      -0.456658     -1.644917      0.368318
  H      -2.091702     -0.389493     -1.472287
  H      -2.716548      0.991897     -0.879214
  H       1.720487     -1.165630      0.649061
  O      -3.417190     -0.491272      1.668354
  C      -3.782073     -0.836775      0.611632
  O      -4.442238     -1.321753     -0.219777
14
Coordinates from ORCA-job ./scants E -399.086745383298
  O       1.167571     -0.385967      0.571807
  N      -2.250264      0.142150     -0.622557
  C      -0.997351      0.423244      0.068807
  C      -0.044388     -0.743395     -0.072999
  H      -1.222728      0.577482      1.124269
  H      -0.507517      1.321607     -0.313166
  H       0.129440     -0.951458     -1.133577
  H      -0.477159     -1.638917      0.379201
  H      -2.096321     -0.372371     -1.480244
  H      -2.725038      0.999640     -0.870342
  H       1.710629     -1.173688      0.652845
  O      -3.387741     -0.520984      1.668114
  C      -3.761751     -0.848330      0.608358
  O      -4.432067     -1.324555     -0.220811
14
Coordinates from ORCA-job ./scants E -399.086864179682
  O       1.157893     -0.392582      0.582547
  N      -2.252624      0.149883     -0.623812
  C      -0.996687      0.431282      0.061639
  C      -0.053814     -0.744937     -0.065859
  H      -1.220188      0.600910      1.115031
  H      -0.501131      1.320959     -0.333117
  H       0.123891     -0.963272     -1.123669
  H      -0.496775     -1.632646      0.391917
  H      -2.101456     -0.355228     -1.487657
  H      -2.733391      1.007283     -0.860581
  H       1.701655     -1.180614      0.655691
  O      -3.358742     -0.550740      1.666681
  C      -3.741334     -0.859311      0.603841
  O      -4.421984     -1.326529     -0.222947
14
Coordinates from ORCA-job ./scants E -399.086956921197
  O       1.149442     -0.398000      0.590909
  N      -2.255236      0.157126     -0.624126
  C      -0.996064      0.438564      0.055215
  C      -0.063048     -0.746773     -0.058181
  H      -1.217396      0.623438      1.106382
  H      -0.495205      1.319524     -0.352165
  H       0.116375     -0.976730     -1.113179
  H      -0.514830     -1.626128      0.407073
  H      -2.107173     -0.338480     -1.494105
  H      -2.741555      1.014556     -0.849757
  H       1.694096     -1.186057      0.657062
  O      -3.331037     -0.580114      1.663816
  C      -3.720972     -0.869241      0.597553
  O      -4.412082     -1.327226     -0.226792
14
Coordinates from ORCA-job ./scants E -399.087032937982
  O       1.141940     -0.402553      0.597652
  N      -2.258018      0.163930     -0.623801
  C      -0.995479      0.445191      0.049385
  C      -0.072024     -0.748748     -0.050162
  H      -1.214351      0.645145      1.098170
  H      -0.489751      1.317454     -0.370419
  H       0.107605     -0.991051     -1.102303
  H      -0.531585     -1.619424      0.423716
  H      -2.113327     -0.322241     -1.499766
  H      -2.749493      1.021442     -0.838320
  H       1.687588     -1.190454      0.657377
  O      -3.304436     -0.609019      1.659821
  C      -3.700858     -0.878249      0.590045
  O      -4.402496     -1.326963     -0.231691
14
Coordinates from ORCA-job ./scants E -399.087105745327
  O       1.134304     -0.407114      0.604812
  N      -2.260826      0.170772     -0.623597
  C      -0.994880      0.451603      0.043521
  C      -0.080938     -0.750626     -0.042108
  H      -1.210992      0.666735      1.089715
  H      -0.484455      1.315007     -0.388636
  H       0.099024     -1.005012     -1.091272
  H      -0.548300     -1.612566      0.440008
  H      -2.119744     -0.306045     -1.505373
  H      -2.757271      1.028307     -0.826924
  H       1.681043     -1.194759      0.657796
  O      -3.277476     -0.638098      1.655310
  C      -3.680925     -0.887115      0.582582
  O      -4.393250     -1.326630     -0.236129
14
Coordinates from ORCA-job ./scants E -399.087176359526
  O       1.126305     -0.411885      0.612855
  N      -2.263606      0.177751     -0.623627
  C      -0.994223      0.457909      0.037497
  C      -0.089814     -0.752358     -0.034105
  H      -1.207278      0.688329      1.080889
  H      -0.479222      1.312261     -0.406954
  H       0.091001     -1.018330     -1.080171
  H      -0.565258     -1.605575      0.455512
  H      -2.126360     -0.289861     -1.511007
  H      -2.764856      1.035216     -0.815742
  H       1.674328     -1.199115      0.658461
  O      -3.249996     -0.667427      1.650423
  C      -3.661310     -0.896024      0.575490
  O      -4.384397     -1.326432     -0.239815
14
Coordinates from ORCA-job ./scants E -399.087233264193
  O       1.119148     -0.416005      0.619828
  N      -2.266490      0.184308     -0.623051
  C      -0.993529      0.463649      0.031994
  C      -0.098322     -0.754170     -0.025835
  H      -1.203179      0.709248      1.072440
  H      -0.474392      1.308947     -0.424658
  H       0.082294     -1.032086     -1.068751
  H      -0.580973     -1.598466      0.472024
  H      -2.133284     -0.274394     -1.515781
  H      -2.772120      1.041723     -0.804225
  H       1.668817     -1.202496      0.657918
  O      -3.224004     -0.696286      1.644616
  C      -3.642493     -0.904118      0.567550
  O      -4.376158     -1.325394     -0.244363
14
Coordinates from ORCA-job ./scants E -399.087277913547
  O       1.112890     -0.419497      0.625843
  N      -2.269443      0.190360     -0.621836
  C      -0.992767      0.468783      0.027096
  C      -0.106335     -0.756042     -0.017316
  H      -1.198588      0.729513      1.064446
  H      -0.470006      1.305052     -0.441715
  H       0.073114     -1.046035     -1.057060
  H      -0.595243     -1.591346      0.489359
  H      -2.140420     -0.259889     -1.519572
  H      -2.778964      1.047756     -0.792530
  H       1.664692     -1.204844      0.655906
  O      -3.200009     -0.724528      1.638008
  C      -3.624848     -0.911333      0.558868
  O      -4.368758     -1.323491     -0.249792
14
Coordinates from ORCA-job ./scants E -399.087313550014
  O       1.107060     -0.422806      0.632011
  N      -2.272343      0.196079     -0.620241
  C      -0.991839      0.473487      0.022620
  C      -0.113826     -0.757861     -0.008700
  H      -1.193287      0.749551      1.056670
  H      -0.465882      1.300641     -0.458452
  H       0.064349     -1.059355     -1.045300
  H      -0.608522     -1.584411      0.506400
  H      -2.147550     -0.246412     -1.522512
  H      -2.785267      1.053461     -0.781121
  H       1.661758     -1.206417      0.652543
  O      -3.178047     -0.752324      1.631069
  C      -3.608851     -0.918028      0.550200
  O      -4.362438     -1.321147     -0.255480
14
Coordinates from ORCA-job ./scants E -399.087343093641
  O       1.100850     -0.426636      0.640340
  N      -2.274893      0.201770     -0.618739
  C      -0.990498      0.478026      0.018187
  C      -0.120637     -0.759402     -0.000443
  H      -1.186825      0.769775      1.048712
  H      -0.461605      1.295900     -0.475265
  H       0.057877     -1.070485     -1.034043
  H      -0.621592     -1.578065      0.520861
  H      -2.154294     -0.234237     -1.524780
  H      -2.790639      1.059105     -0.770963
  H       1.659754     -1.207479      0.648122
  O      -3.158484     -0.779792      1.624773
  C      -3.595820     -0.924923      0.543159
  O      -4.357880     -1.319099     -0.260217
14
Coordinates from ORCA-job ./scants E -399.087362457145
  O       1.094327     -0.431138      0.652097
  N      -2.275308      0.206156     -0.619683
  C      -0.988931      0.481321      0.014249
  C      -0.123963     -0.759509      0.002566
  H      -1.181674      0.782191      1.042745
  H      -0.457714      1.293641     -0.485986
  H       0.060834     -1.071427     -1.029576
  H      -0.631620     -1.575807      0.520959
  H      -2.157057     -0.228046     -1.526827
  H      -2.792209      1.063311     -0.768454
  H       1.657717     -1.208771      0.646958
  O      -3.147999     -0.795718      1.624109
  C      -3.593140     -0.931340      0.544836
  O      -4.357947     -1.320405     -0.258288
14
Coordinates from ORCA-job ./scants E -399.087365550601
  O       1.098672     -0.428331      0.645940
  N      -2.277683      0.206288     -0.612037
  C      -0.987409      0.482284      0.014900
  C      -0.126273     -0.761576      0.011813
  H      -1.175189      0.794773      1.040739
  H      -0.456355      1.288191     -0.495553
  H       0.048262     -1.087315     -1.017784
  H      -0.631513     -1.569359      0.545353
  H      -2.163128     -0.224878     -1.521283
  H      -2.794921      1.064091     -0.756875
  H       1.666347     -1.202705      0.631363
  O      -3.149801     -0.814660      1.616156
  C      -3.588710     -0.931354      0.531342
  O      -4.356987     -1.310992     -0.274369
14
Coordinates from ORCA-job ./scants E -399.087381823438
  O       1.096365     -0.430378      0.651687
  N      -2.277423      0.207823     -0.610900
  C      -0.985766      0.484137      0.013249
  C      -0.127130     -0.761332      0.013575
  H      -1.170603      0.801767      1.038100
  H      -0.454180      1.286970     -0.501541
  H       0.050066     -1.087691     -1.015311
  H      -0.636077     -1.567660      0.545951
  H      -2.164405     -0.223978     -1.520021
  H      -2.794786      1.065626     -0.755495
  H       1.667330     -1.202098      0.627626
  O      -3.149446     -0.823462      1.616479
  C      -3.590315     -0.934648      0.531998
  O      -4.358316     -1.310618     -0.275691
14
Coordinates from ORCA-job ./scants E -399.087382857413
  O       1.101963     -0.427270      0.644825
  N      -2.278816      0.206528     -0.602431
  C      -0.983677      0.484867      0.014624
  C      -0.127445     -0.762409      0.020870
  H      -1.163149      0.811552      1.037568
  H      -0.453712      1.282789     -0.509142
  H       0.039979     -1.100174     -1.005916
  H      -0.633966     -1.561636      0.566105
  H      -2.169191     -0.225013     -1.512256
  H      -2.795844      1.064878     -0.746182
  H       1.676250     -1.196194      0.612011
  O      -3.158502     -0.838110      1.610965
  C      -3.590004     -0.933775      0.520400
  O      -4.358572     -1.301574     -0.291734
14
Coordinates from ORCA-job ./scants E -399.087384879666
  O       1.100849     -0.428256      0.647935
  N      -2.278270      0.207078     -0.602654
  C      -0.982976      0.485404      0.013867
  C      -0.126976     -0.761949      0.019887
  H      -1.161640      0.812230      1.036939
  H      -0.453012      1.283111     -0.510291
  H       0.043214     -1.097785     -1.007050
  H      -0.635111     -1.562164      0.562236
  H      -2.169134     -0.225797     -1.511870
  H      -2.795133      1.065323     -0.747406
  H       1.675988     -1.196445      0.612831
  O      -3.160156     -0.838668      1.612799
  C      -3.592537     -0.935029      0.522844
  O      -4.359792     -1.302596     -0.290361
14
Coordinates from ORCA-job ./scants E -399.087387849624
  O       1.105459     -0.425216      0.638712
  N      -2.280180      0.205457     -0.597270
  C      -0.983084      0.485147      0.016036
  C      -0.128336     -0.763217      0.025687
  H      -1.159650      0.817314      1.037681
  H      -0.454635      1.280240     -0.513274
  H       0.031262     -1.108761     -0.999753
  H      -0.632700     -1.557442      0.580155
  H      -2.172118     -0.224942     -1.507988
  H      -2.797481      1.064095     -0.739785
  H       1.680223     -1.193685      0.603574
  O      -3.161106     -0.846451      1.606350
  C      -3.585780     -0.932010      0.511366
  O      -4.356561     -1.296070     -0.301784
14
Coordinates from ORCA-job ./scants E -399.087393553872
  O       1.103954     -0.426446      0.643031
  N      -2.279306      0.206158     -0.598080
  C      -0.982264      0.485594      0.014977
  C      -0.127229     -0.762482      0.023269
  H      -1.158181      0.816595      1.037144
  H      -0.453805      1.281132     -0.513785
  H       0.037048     -1.104099     -1.002716
  H      -0.633495     -1.559140      0.572559
  H      -2.171912     -0.226525     -1.507712
  H      -2.796245      1.064593     -0.742402
  H       1.679398     -1.194343      0.606574
  O      -3.164134     -0.844947      1.609681
  C      -3.590091     -0.933458      0.515850
  O      -4.358423     -1.298175     -0.298684
14
Coordinates from ORCA-job ./scants E -399.087404913158
  O       1.105613     -0.425260      0.639006
  N      -2.280229      0.205502     -0.596226
  C      -0.982631      0.485376      0.015970
  C      -0.127989     -0.763027      0.025410
  H      -1.157995      0.818190      1.037596
  H      -0.454861      1.280084     -0.514576
  H       0.031894     -1.108345     -1.000048
  H      -0.632608     -1.557387      0.579482
  H      -2.173002     -0.225909     -1.506569
  H      -2.797480      1.064052     -0.739467
  H       1.680335     -1.193763      0.603902
  O      -3.163214     -0.847357      1.606904
  C      -3.586090     -0.931828      0.511029
  O      -4.356427     -1.295870     -0.302707
14
Coordinates from ORCA-job ./scants E -399.087395550502
  O       1.104047     -0.426533      0.643582
  N      -2.279147      0.206144     -0.597490
  C      -0.981802      0.485745      0.014793
  C      -0.126632     -0.762226      0.022594
  H      -1.156957      0.816688      1.037118
  H      -0.453736      1.281289     -0.514363
  H       0.038482     -1.102981     -1.003538
  H      -0.633124     -1.559472      0.570850
  H      -2.172435     -0.227646     -1.506657
  H      -2.795923      1.064524     -0.742630
  H       1.679530     -1.194402      0.607215
  O      -3.166657     -0.844712      1.610664
  C      -3.591537     -0.933564      0.516496
  O      -4.358793     -1.298398     -0.298929
14
Coordinates from ORCA-job ./scants E -399.087380865595
  O       1.104923     -0.425870      0.641266
  N      -2.279687      0.205727     -0.596530
  C      -0.982087      0.485531      0.015379
  C      -0.126917     -0.762467      0.023281
  H      -1.156990      0.817000      1.037546
  H      -0.454571      1.280911     -0.514485
  H       0.036029     -1.104681     -1.002726
  H      -0.632399     -1.558864      0.573677
  H      -2.173112     -0.227620     -1.505978
  H      -2.796624      1.064146     -0.741285
  H       1.679588     -1.194443      0.606828
  O      -3.166290     -0.845050      1.609444
  C      -3.589141     -0.932356      0.514052
  O      -4.357406     -1.297506     -0.300763
14
Coordinates from ORCA-job ./scants E -399.087397544498
  O       1.103411     -0.427114      0.645501
  N      -2.278531      0.206341     -0.598335
  C      -0.981467      0.485876      0.014279
  C      -0.125849     -0.761775      0.021035
  H      -1.156771      0.815448      1.037053
  H      -0.453177      1.282104     -0.513705
  H       0.041717     -1.100109     -1.005499
  H      -0.633130     -1.560572      0.566333
  H      -2.171771     -0.228519     -1.506913
  H      -2.795068      1.064624     -0.744430
  H       1.679044     -1.194866      0.609069
  O      -3.168538     -0.842585      1.612629
  C      -3.594542     -0.934495      0.519492
  O      -4.360014     -1.299900     -0.296803
14
Coordinates from ORCA-job ./scants E -399.087382222241
  O       1.104253     -0.426447      0.643218
  N      -2.279009      0.205873     -0.597560
  C      -0.981795      0.485555      0.014856
  C      -0.125891     -0.761920      0.021083
  H      -1.156983      0.814990      1.037670
  H      -0.454165      1.282020     -0.513353
  H       0.039978     -1.100939     -1.005520
  H      -0.632093     -1.560426      0.567789
  H      -2.172382     -0.228871     -1.506267
  H      -2.795639      1.064187     -0.743551
  H       1.678678     -1.195245      0.609835
  O      -3.168596     -0.841658      1.611926
  C      -3.592457     -0.933125      0.517631
  O      -4.358584     -1.299536     -0.298052
14
Coordinates from ORCA-job ./scants E -399.087397934243
  O       1.104436     -0.426340      0.642932
  N      -2.278963      0.205728     -0.597467
  C      -0.981759      0.485437      0.014889
  C      -0.125462     -0.761763      0.020251
  H      -1.156873      0.814130      1.037959
  H      -0.454438      1.282374     -0.512922
  H       0.040777     -1.099900     -1.006590
  H      -0.631454     -1.560926      0.566202
  H      -2.172509     -0.229595     -1.505916
  H      -2.795479      1.064027     -0.743924
  H       1.678227     -1.195686      0.611301
  O      -3.169824     -0.840086      1.612600
  C      -3.592942     -0.932818      0.518133
  O      -4.358422     -1.300125     -0.297743
14
Coordinates from ORCA-job ./scants E -399.087395819831
  O       1.104644     -0.426228      0.642521
  N      -2.278958      0.205567     -0.597347
  C      -0.981756      0.485320      0.014960
  C      -0.125097     -0.761628      0.019514
  H      -1.156816      0.813340      1.038258
  H      -0.454747      1.282700     -0.512489
  H       0.041341     -1.099009     -1.007553
  H      -0.630839     -1.561356      0.564874
  H      -2.172648     -0.230245     -1.505577
  H      -2.795382      1.063852     -0.744196
  H       1.677760     -1.196148      0.612671
  O      -3.170876     -0.838556      1.613142
  C      -3.593196     -0.932453      0.518461
  O      -4.358115     -1.300698     -0.297535
14
Coordinates from ORCA-job ./scants E -399.087405921917
  O       1.104809     -0.426133      0.642298
  N      -2.278923      0.205472     -0.597240
  C      -0.981696      0.485224      0.014954
  C      -0.124719     -0.761494      0.018794
  H      -1.156656      0.812649      1.038464
  H      -0.454949      1.282982     -0.512189
  H       0.042069     -1.098135     -1.008462
  H      -0.630286     -1.561776      0.563510
  H      -2.172822     -0.230839     -1.505251
  H      -2.795218      1.063765     -0.744457
  H       1.677379     -1.196519      0.613945
  O      -3.172007     -0.837257      1.613733
  C      -3.593692     -0.932227      0.518914
  O      -4.357975     -1.301256     -0.297308
14
Coordinates from ORCA-job ./scants E -399.087406225899
  O       1.104972     -0.426058      0.641998
  N      -2.278910      0.205372     -0.597146
  C      -0.981667      0.485142      0.014973
  C      -0.124394     -0.761367      0.018127
  H      -1.156554      0.811998      1.038681
  H      -0.455178      1.283271     -0.511868
  H       0.042634     -1.097334     -1.009318
  H      -0.629787     -1.562142      0.562285
  H      -2.172966     -0.231358     -1.504972
  H      -2.795101      1.063672     -0.744676
  H       1.676938     -1.196949      0.615199
  O      -3.172958     -0.835953      1.614245
  C      -3.594002     -0.931981      0.519277
  O      -4.357712     -1.301855     -0.297098
14
Coordinates from ORCA-job ./scants E -399.087407295251
  O       1.105116     -0.425982      0.641751
  N      -2.278890      0.205308     -0.597058
  C      -0.981620      0.485067      0.014968
  C      -0.124083     -0.761251      0.017496
  H      -1.156415      0.811408      1.038859
  H      -0.455353      1.283519     -0.511608
  H       0.043209     -1.096590     -1.010116
  H      -0.629318     -1.562492      0.561121
  H      -2.173118     -0.231819     -1.504712
  H      -2.794965      1.063626     -0.744871
  H       1.676543     -1.197321      0.616368
  O      -3.173908     -0.834773      1.614749
  C      -3.594383     -0.931796      0.519662
  O      -4.357500     -1.302446     -0.296903
14
Coordinates from ORCA-job ./scants E -399.087408566449
  O       1.105271     -0.425914      0.641465
  N      -2.278887      0.205247     -0.596960
  C      -0.981581      0.485001      0.014974
  C      -0.123805     -0.761146      0.016923
  H      -1.156286      0.810880      1.039031
  H      -0.455530      1.283749     -0.511368
  H       0.043677     -1.095926     -1.010847
  H      -0.628881     -1.562797      0.560095
  H      -2.173273     -0.232226     -1.504463
  H      -2.794855      1.063584     -0.745017
  H       1.676156     -1.197698      0.617463
  O      -3.174780     -0.833656      1.615194
  C      -3.594676     -0.931608      0.519973
  O      -4.357235     -1.303032     -0.296759
