14
Coordinates from ORCA-job ./scants E -399.092348047058
  O           1.28363361829376     -0.40584672223826      0.46657488400339
  N          -2.16063552855762      0.31944084803088     -0.54597199596914
  C          -0.80478085082529      0.58730846619122     -0.07254700628727
  C          -0.03821623165108     -0.71225708116499      0.04163383126397
  H          -0.86984486667756      1.05148794890031      0.91144506499816
  H          -0.24507121874170      1.26961402991816     -0.72145509522870
  H          -0.02020452021127     -1.21628061269030     -0.92947746730503
  H          -0.53216714864847     -1.37200345845812      0.75849530075691
  H          -2.13145615914601      0.00925127503120     -1.50905850081971
  H          -2.69576416165310      1.17765166522965     -0.54606269921123
  H           1.77015179493563     -1.22885106350566      0.55454904826913
  O          -3.70425685728091     -1.19962569261397      1.70888115772643
  C          -4.12846629705527     -1.30899950909177      0.63914179815509
  O          -4.61760686338087     -1.46643220773827     -0.39644269775201
