14
Coordinates from ORCA-job ./scants E -399.088698375926
  O           1.13436404310122     -0.45674773819189      0.58104027135300
  N          -2.25437251342054      0.26709242669100     -0.59811360837256
  C          -0.94477357646925      0.51590305855973     -0.00154649802023
  C          -0.12676534194513     -0.75667432426305      0.00035948632764
  H          -1.09633605776066      0.84930936853643      1.02463679525758
  H          -0.38560640459837      1.29575912912397     -0.52641317213294
  H          -0.00138159105615     -1.11710244566305     -1.02510122554643
  H          -0.64201398582778     -1.53097924077485      0.57309599617743
  H          -2.15455158809927     -0.06699214954733     -1.54893817952164
  H          -2.77820007541951      1.13116795963153     -0.65323944137535
  H           1.65709188488233     -1.26194544124599      0.59905359650803
  O          -3.31533066722745     -0.80300569520518      1.65847071030369
  C          -3.69474116851539     -1.06028859011157      0.58725034874364
  O          -4.29206824824377     -1.50103843173968     -0.31084945710185
