14
Coordinates from ORCA-job ./scants E -399.092658933836
  O           1.38828886968890     -0.28671323582311      0.51045632181745
  N          -2.04565380178092      0.28178177572431     -0.63197302440394
  C          -0.70141715698895      0.61679839776355     -0.16783162828019
  C           0.08344990774138     -0.65277313931660      0.07976719051194
  H          -0.78909846909357      1.16834364500452      0.76808740038460
  H          -0.14288525127277      1.24644011628240     -0.86895889764591
  H           0.13656643313233     -1.24086507546975     -0.84148470610775
  H          -0.42117176879738     -1.25507954450518      0.83893373000746
  H          -2.00133988543785     -0.08212682363809     -1.57552293852019
  H          -2.60757775031758      1.12066443141336     -0.68259788501209
  H           1.88950662531990     -1.08985977379998      0.67035616592863
  O          -3.86242078434895     -2.05369244975396      1.43930142372107
  C          -4.55589416054884     -1.43739937368511      0.75105892375360
  O          -5.26503809789556     -0.83106106439633      0.07011354644534
