14
Coordinates from ORCA-job ./scants E -399.092587329341
  O           1.42160471959037     -0.28654130045111      0.50150688293173
  N          -1.99578103022785      0.32933653351200     -0.66504169227631
  C          -0.65369410807220      0.64349073107364     -0.18139610563134
  C           0.11213179089379     -0.63645217521514      0.07166498601393
  H          -0.74655250714058      1.19372235110552      0.75482652660232
  H          -0.07657119916902      1.26725887350881     -0.87278249141134
  H           0.15706065164696     -1.22852001510687     -0.84749906785127
  H          -0.39999606731984     -1.22953732140491      0.83308556212125
  H          -1.94238195561797     -0.04729756277308     -1.60302196265606
  H          -2.53968503208857      1.17860767326265     -0.73504711660585
  H           1.91139448539473     -1.09577410801327      0.66614032039030
  O          -4.02581222337228     -2.14607141347227      1.50409397815461
  C          -4.71148567873688     -1.52632261257343      0.81123747191141
  O          -5.40491713638055     -0.91144176765252      0.12193833090661
