14
Coordinates from ORCA-job ./scants E -399.087492249684
  O           1.10564932992076     -0.45702190514982      0.60049927801345
  N          -2.28906271980434      0.23562354916921     -0.57375409006570
  C          -0.98140012195291      0.48547553659831      0.02977831779276
  C          -0.13806969023938     -0.77001037483815     -0.00559644869829
  H          -1.14284973077403      0.79097571748383      1.06200499198682
  H          -0.45517553437462      1.29040785545473     -0.48614297126779
  H           0.00626111113754     -1.09032602383331     -1.04148598307428
  H          -0.64089617226510     -1.57531855873788      0.53474661816133
  H          -2.20359374285257     -0.16869481877902     -1.49863256816523
  H          -2.80392470382745      1.10152976398088     -0.67607677277308
  H           1.65088328296784     -1.24750575975684      0.59550851506036
  O          -3.23167594163913     -0.72654099130777      1.62678621837194
  C          -3.54802334724295     -0.92691146496362      0.50767382122781
  O          -4.22280730965333     -1.43722463952048     -0.31560330397011
