14
Coordinates from ORCA-job ./scants E -399.091092848891
  O           1.16900796025465     -0.45121238405035      0.56646615788454
  N          -2.21312738864362      0.29936545772731     -0.61928389616851
  C          -0.89758232733302      0.54713719871154     -0.03490023836405
  C          -0.10496108970277     -0.74065743321528      0.00575576553125
  H          -1.03733268815537      0.91335436858017      0.98204376453178
  H          -0.31842835977407      1.29983002246007     -0.57992304145008
  H           0.00516633195852     -1.13953143230461     -1.00727300935792
  H          -0.63346975058378     -1.48297990145451      0.60799463063537
  H          -2.11295915642876      0.01355834391578     -1.58564499100512
  H          -2.74461260121009      1.16008390433655     -0.63723545300239
  H           1.67293249332335     -1.26739447319259      0.60726578130077
  O          -3.41708816464950     -0.92828544044827      1.69757585945048
  C          -3.85371919165359     -1.18360032498685      0.65554912475293
  O          -4.40851135800168     -1.53521002027890     -0.29868483213907
