14
Coordinates from ORCA-job ./scants E -399.092705409813
  O           1.36933481855272     -0.29183240556170      0.50760112558162
  N          -2.07052766403206      0.26435210924623     -0.62296295854063
  C          -0.72898491824228      0.60385353410836     -0.15454775291850
  C           0.06292702925784     -0.66267284571990      0.08571225752638
  H          -0.82132958644941      1.14979442970640      0.78421466039243
  H          -0.17226247959400      1.24049924058557     -0.85082625076309
  H           0.11175700942066     -1.24883201244965     -0.83702478387687
  H          -0.43291323215507     -1.26908404045701      0.84735729609668
  H          -2.02247638616139     -0.09269410790412     -1.56894477508185
  H          -2.63689942835540      1.10051002486435     -0.66894820411074
  H           1.87588813908936     -1.09319117680680      0.65944562893681
  O          -3.77002912557264     -1.98694589365406      1.42577628281747
  C          -4.46827563676086     -1.39357323288253      0.72223876308131
  O          -5.19089382959732     -0.81572573727510      0.03061433345897
