14
Coordinates from ORCA-job ./scants E -399.092567505316
  O           1.43141670972570     -0.29233064538159      0.51256738009214
  N          -1.96914938798603      0.35348201092991     -0.68754852120619
  C          -0.62798438205532      0.65699169317042     -0.19394539106320
  C           0.12407139568385     -0.62973296630459      0.06655377869877
  H          -0.72305075348325      1.20906788937934      0.74090248874721
  H          -0.04082724024594      1.27490051458181     -0.88201761172026
  H           0.17480862485364     -1.22124123515155     -0.85263782356124
  H          -0.40310896535900     -1.21861587855787      0.82102209758268
  H          -1.91295145902114     -0.00938146849190     -1.63078607879266
  H          -2.51061681714684      1.20506563832648     -0.74741094095996
  H           1.91270498100385     -1.10627295202565      0.67900794403680
  O          -4.08280703143105     -2.18034504472939      1.53311469718476
  C          -4.78201492079454     -1.57164982772105      0.84400087252276
  O          -5.48517604434384     -0.96547984222434      0.15688273103839
