14
Coordinates from ORCA-job ./scants E -399.091821551623
  O           1.25419930959236     -0.41150462730443      0.48514202594118
  N          -2.18556793375774      0.30152248602349     -0.55064248434921
  C          -0.83779140898117      0.57020014966367     -0.05556371272863
  C          -0.05744440159502     -0.72304126536169      0.03383021675125
  H          -0.91778107333540      1.00804999527833      0.93938521118448
  H          -0.27909436817878      1.27438227212397     -0.68137842545078
  H          -0.01985443075647     -1.20043775676737     -0.95011197239966
  H          -0.55223462967861     -1.40795254495120      0.72604564053243
  H          -2.14150551936415     -0.01579885781786     -1.51112049176286
  H          -2.71912015061457      1.16074689090776     -0.56564148374355
  H           1.74905245532551     -1.23067447167430      0.56187936215260
  O          -3.61558446230321     -1.11114967349764      1.69558457918000
  C          -4.03243838680991     -1.25104879044472      0.62561357846751
  O          -4.53952029014259     -1.45883592037796     -0.39331642117477
