14
Coordinates from ORCA-job ./scants E -399.087694243623
  O           1.11978096573224     -0.45758688722678      0.59108783931532
  N          -2.27271886110790      0.25254152975388     -0.58295247900884
  C          -0.96312699197787      0.50204317185087      0.01491907377537
  C          -0.13326763363343     -0.76252901866397     -0.00225662683009
  H          -1.11793766442657      0.82261437511123      1.04431978502985
  H          -0.42014406733953      1.29378396625997     -0.50675112864934
  H           0.00133300291370     -1.10261041283163     -1.03332984024997
  H          -0.64263580292154     -1.55281215700555      0.55383137837836
  H          -2.18073911410992     -0.12419642977049     -1.51854442728353
  H          -2.78840181850701      1.11924613355892     -0.66848311549309
  H           1.65413441513946     -1.25538713768722      0.59411319013204
  O          -3.27460667383649     -0.76606659661832      1.64309049481817
  C          -3.62212731999575     -0.99510032637229      0.54797462506986
  O          -4.25422772652910     -1.46948232455854     -0.31731314640414
