14
Coordinates from ORCA-job ./scants E -399.087408566449
  O           1.10527053910766     -0.42591404784005      0.64146546371005
  N          -2.27888654671516      0.20524739351263     -0.59695983841021
  C          -0.98158135845743      0.48500079083827      0.01497383255898
  C          -0.12380519067092     -0.76114643883163      0.01692302279502
  H          -1.15628584555233      0.81088012710864      1.03903115490941
  H          -0.45552950287708      1.28374948724529     -0.51136780925012
  H           0.04367716622183     -1.09592629344800     -1.01084657212409
  H          -0.62888090221438     -1.56279720724714      0.56009466926085
  H          -2.17327294269183     -0.23222574047177     -1.50446293467251
  H          -2.79485526116564      1.06358369918810     -0.74501654917723
  H           1.67615616043468     -1.19769832514422      0.61746331631751
  O          -3.17478018178772     -0.83365568692016      1.61519377995322
  C          -3.59467607535682     -0.93160805509489      0.51997318270327
  O          -4.35723534887444     -1.30303181709498     -0.29675909597418
