14
Coordinates from ORCA-job ./scants E -399.092618981268
  O           1.34646401095750     -0.29750123209592      0.51041963234704
  N          -2.09664684168302      0.24928066520648     -0.61530672410027
  C          -0.75653278920667      0.59173315486029     -0.14491618397532
  C           0.04135484369847     -0.67244771875141      0.08804394216507
  H          -0.85128538526840      1.13197972518137      0.79689582797712
  H          -0.20249471143658      1.23476330228443     -0.83747083997911
  H           0.09192540443233     -1.25362178117259     -0.83776434773348
  H          -0.45040319673599     -1.28519233791302      0.84713451750144
  H          -2.04701913731025     -0.10197526601848     -1.56343086835636
  H          -2.66649205178904      1.08332368944875     -0.65664194276670
  H           1.85591183535105     -1.09726834388896      0.66095457891164
  O          -3.68525539686531     -1.93320621705874      1.42058072620513
  C          -4.37481042404314     -1.35213466458231      0.69822163908687
  O          -5.09940145070078     -0.79327508969987     -0.00701433468308
