14
Coordinates from ORCA-job ./tsopt E -399.087459550739
  O       1.113122     -0.448361      0.602135
  N      -2.282298      0.232244     -0.578592
  C      -0.975579      0.489261      0.023200
  C      -0.130798     -0.765381     -0.002537
  H      -1.136436      0.801356      1.053829
  H      -0.447087      1.291013     -0.496269
  H       0.014655     -1.092609     -1.036202
  H      -0.633532     -1.567243      0.542616
  H      -2.192204     -0.174838     -1.501727
  H      -2.797377      1.096848     -0.688470
  H       1.657583     -1.239355      0.604367
  O      -3.214705     -0.787591      1.628352
  C      -3.582865     -0.944878      0.521594
  O      -4.287164     -1.386010     -0.312592
