14
Coordinates from ORCA-job ./tsopt
  O           1.15248717545826     -0.42310057768914      0.50993043452067
  N          -2.27415223026540      0.23519918752259     -0.57923783153533
  C          -0.97827867790068      0.48462667415632      0.04860515601268
  C          -0.13674376850734     -0.77233216551044      0.03097760527162
  H          -1.15762931629817      0.79083982147014      1.07794797889759
  H          -0.43779846174066      1.28798407751316     -0.45583497026292
  H          -0.07684237236904     -1.16347080700345     -0.98888484364640
  H          -0.59150375651257     -1.53703276374871      0.66449421374330
  H          -2.16788484097902     -0.16651308051426     -1.50300301528113
  H          -2.78460595248374      1.10197351499893     -0.69349113302505
  H           1.69638730935236     -1.21445857650098      0.51621933159020
  O          -3.25100863604176     -0.79541810546376      1.60359345408795
  C          -3.59871087154969     -0.94492364549907      0.48917960485892
  O          -4.28840089076220     -1.37891566793125     -0.36079036263211
