14
Coordinates from ORCA-job tsopt
  O   1.62421826238943     -0.24959311281551     -0.68929663146818
  N   -2.02442073479856     -0.10411246172159     -0.10178256131454
  C   -0.75014672120693     -0.10308302340308     -0.80953495806504
  C   0.44423918139737     -0.23790755458384      0.11593130481908
  H   -0.67093393252345      0.82475470781197     -1.37643469474916
  H   -0.75197922602998     -0.92880665256869     -1.52184810620104
  H   0.36805043692641     -1.16567078511013      0.68910038271795
  H   0.47221729104251      0.60133476195204      0.81527463205302
  H   -2.11847498236496     -0.94035466339694      0.46284623615600
  H   -2.08792430526290      0.68693975060365      0.52762638128538
  H   2.38527045909757     -0.31165075068466     -0.10510856469020
  O   -4.63677551816626      0.05916361669786     -0.49288797483457
  C   -3.82337460208776     -0.05928960414954     -1.32869831236533
  O   -3.37694765871234     -0.17303755613153     -2.40586747424332
