14
Coordinates from ORCA-job forward_opt E -399.091607259887
  O       1.670317     -0.238039     -0.711388
  N      -1.952633     -0.135364      0.002205
  C      -0.712534     -0.155310     -0.757385
  C       0.518614     -0.226928      0.121389
  H      -0.669052      0.741640     -1.375757
  H      -0.731797     -1.011288     -1.432344
  H       0.474411     -1.132649      0.733189
  H       0.534248      0.636713      0.792705
  H      -2.037358     -0.965848      0.573639
  H      -1.976700      0.657980      0.629540
  H       2.446882     -0.293042     -0.149608
  O      -4.735221     -0.001425     -0.557608
  C      -3.995358     -0.004823     -1.449734
  O      -3.401057      0.001207     -2.444573
14
Coordinates from ORCA-job forward_opt E -399.091845884738
  O       1.674473     -0.238326     -0.716701
  N      -1.953821     -0.135424      0.009008
  C      -0.710252     -0.155572     -0.747758
  C       0.528284     -0.227512      0.124822
  H      -0.667612      0.741084     -1.366118
  H      -0.730329     -1.010718     -1.423303
  H       0.490452     -1.133398      0.737001
  H       0.550669      0.635806      0.796522
  H      -2.041069     -0.965184      0.580633
  H      -1.980761      0.657655      0.636099
  H       2.456245     -0.293194     -0.161787
  O      -4.756290     -0.000482     -0.574450
  C      -4.012730     -0.003936     -1.463601
  O      -3.414497      0.002027     -2.456098
14
Coordinates from ORCA-job forward_opt E -399.092211644177
  O       1.677226     -0.238636     -0.727212
  N      -1.951632     -0.135791      0.021937
  C      -0.704114     -0.156065     -0.729148
  C       0.544251     -0.228483      0.132993
  H      -0.662332      0.740624     -1.347422
  H      -0.724933     -1.010643     -1.405294
  H       0.518253     -1.134793      0.745101
  H       0.579191      0.634346      0.804678
  H      -2.042333     -0.964854      0.594112
  H      -1.982746      0.657257      0.648921
  H       2.468845     -0.293333     -0.186551
  O      -4.795795      0.001346     -0.606749
  C      -4.048790     -0.001975     -1.492198
  O      -3.442328      0.003824     -2.478898
14
Coordinates from ORCA-job forward_opt E -399.092416024251
  O       1.678300     -0.238727     -0.731661
  N      -1.947463     -0.136182      0.029081
  C      -0.699273     -0.156375     -0.719928
  C       0.551921     -0.228940      0.137704
  H      -0.657112      0.740418     -1.338263
  H      -0.719584     -1.011095     -1.396167
  H       0.531125     -1.135519      0.749485
  H       0.592388      0.633704      0.809191
  H      -2.038477     -0.965012      0.601671
  H      -1.979318      0.656859      0.656152
  H       2.474533     -0.293348     -0.197850
  O      -4.818869      0.002488     -0.623259
  C      -4.073848     -0.000526     -1.509692
  O      -3.461561      0.005081     -2.492194
14
Coordinates from ORCA-job forward_opt E -399.092698981968
  O       1.682259     -0.238857     -0.733888
  N      -1.938995     -0.136883      0.037782
  C      -0.691469     -0.156858     -0.710899
  C       0.561108     -0.229474      0.143025
  H      -0.648075      0.739985     -1.329460
  H      -0.710336     -1.011998     -1.387074
  H       0.544512     -1.136359      0.754335
  H       0.606002      0.632982      0.814343
  H      -2.027908     -0.965513      0.611184
  H      -1.969308      0.656109      0.665178
  H       2.482136     -0.293348     -0.205613
  O      -4.850685      0.004163     -0.641371
  C      -4.113956      0.001848     -1.533699
  O      -3.492523      0.007028     -2.509573
14
Coordinates from ORCA-job forward_opt E -399.093065017631
  O       1.693544     -0.239174     -0.731133
  N      -1.924598     -0.137938      0.048286
  C      -0.679270     -0.157589     -0.703394
  C       0.573735     -0.230198      0.148413
  H      -0.634374      0.739195     -1.322287
  H      -0.696394     -1.013193     -1.379402
  H       0.558961     -1.137410      0.759236
  H       0.620467      0.631994      0.819899
  H      -2.007450     -0.966244      0.623284
  H      -1.949616      0.654839      0.676404
  H       2.494487     -0.293522     -0.204525
  O      -4.896533      0.006648     -0.661272
  C      -4.177375      0.005523     -1.566511
  O      -3.542822      0.009893     -2.532728
14
Coordinates from ORCA-job forward_opt E -399.093249274264
  O       1.711679     -0.239656     -0.723489
  N      -1.907003     -0.139157      0.058727
  C      -0.664352     -0.158551     -0.698611
  C       0.589129     -0.231082      0.152822
  H      -0.619323      0.738221     -1.317599
  H      -0.681225     -1.014312     -1.374475
  H       0.573191     -1.138541      0.763350
  H       0.634342      0.630840      0.824833
  H      -1.981179     -0.966919      0.635971
  H      -1.924049      0.653173      0.687960
  H       2.510728     -0.293871     -0.194025
  O      -4.950743      0.009794     -0.680959
  C      -4.252850      0.009801     -1.601710
  O      -3.605583      0.013087     -2.558526
14
Coordinates from ORCA-job forward_opt E -399.093305898086
  O       1.721539     -0.239782     -0.718236
  N      -1.898938     -0.139998      0.062380
  C      -0.657356     -0.159371     -0.698400
  C       0.596185     -0.231461      0.153844
  H      -0.613652      0.737506     -1.317193
  H      -0.675557     -1.015120     -1.374067
  H       0.578062     -1.138793      0.764607
  H       0.638431      0.630622      0.825954
  H      -1.968839     -0.967497      0.640811
  H      -1.911589      0.651982      0.692412
  H       2.518397     -0.293558     -0.185421
  O      -4.975096      0.011858     -0.688197
  C      -4.284204      0.011873     -1.614426
  O      -3.634621      0.014565     -2.569798
14
Coordinates from ORCA-job forward_opt E -399.093345965045
  O       1.731955     -0.239873     -0.712148
  N      -1.890629     -0.141098      0.065517
  C      -0.650027     -0.160430     -0.699067
  C       0.603219     -0.231775      0.154443
  H      -0.608722      0.736675     -1.317525
  H      -0.670572     -1.016196     -1.374432
  H       0.581900     -1.138783      0.765732
  H       0.641072      0.630696      0.826462
  H      -1.955935     -0.968306      0.645182
  H      -1.898362      0.650309      0.696602
  H       2.526093     -0.292981     -0.175173
  O      -4.999690      0.014468     -0.695230
  C      -4.312912      0.014028     -1.624819
  O      -3.664629      0.016090     -2.581275
14
Coordinates from ORCA-job forward_opt E -399.093373747435
  O       1.741587     -0.240015     -0.706642
  N      -1.882201     -0.142352      0.068919
  C      -0.642439     -0.161486     -0.699006
  C       0.610243     -0.231992      0.155464
  H      -0.603796      0.735868     -1.317195
  H      -0.665375     -1.017362     -1.374049
  H       0.586063     -1.138572      0.767416
  H       0.644054      0.630954      0.827221
  H      -1.942770     -0.969311      0.649721
  H      -1.885026      0.648302      0.701241
  H       2.533638     -0.292464     -0.166466
  O      -5.025135      0.017371     -0.703784
  C      -4.340260      0.016204     -1.634769
  O      -3.695820      0.017678     -2.593800
14
Coordinates from ORCA-job forward_opt E -399.093387904571
  O       1.747086     -0.240220     -0.704361
  N      -1.876246     -0.143322      0.072405
  C      -0.636894     -0.162091     -0.696987
  C       0.615591     -0.232060      0.157227
  H      -0.599545      0.735324     -1.315206
  H      -0.660628     -1.018123     -1.371850
  H       0.590943     -1.138333      0.769650
  H       0.648476      0.631186      0.828688
  H      -1.933608     -0.970196      0.653845
  H      -1.876124      0.646736      0.705657
  H       2.539045     -0.292354     -0.164019
  O      -5.045008      0.019502     -0.712413
  C      -4.360942      0.017829     -1.643776
  O      -3.719384      0.018945     -2.604590
14
Coordinates from ORCA-job forward_opt E -399.093400906617
  O       1.751846     -0.240489     -0.703598
  N      -1.870174     -0.144368      0.077246
  C      -0.631122     -0.162583     -0.692949
  C       0.621767     -0.232088      0.160011
  H      -0.594321      0.734750     -1.311398
  H      -0.654630     -1.018799     -1.367690
  H       0.598326     -1.138119      0.772821
  H       0.655802      0.631366      0.831138
  H      -1.924650     -0.971211      0.659173
  H      -1.867816      0.645129      0.711346
  H       2.544945     -0.292476     -0.164939
  O      -5.067380      0.021709     -0.723539
  C      -4.384905      0.019638     -1.655817
  O      -3.744927      0.020366     -2.617535
14
Coordinates from ORCA-job forward_opt E -399.093416048252
  O       1.755621     -0.240754     -0.704300
  N      -1.864524     -0.145408      0.083003
  C      -0.625726     -0.162934     -0.687475
  C       0.628247     -0.232086      0.163369
  H      -0.588919      0.734219     -1.306259
  H      -0.648248     -1.019308     -1.362161
  H       0.607362     -1.137987      0.776402
  H       0.665131      0.631454      0.834175
  H      -1.916904     -0.972269      0.665201
  H      -1.861050      0.643682      0.717688
  H       2.550784     -0.292791     -0.168737
  O      -5.089838      0.023855     -0.735848
  C      -4.409381      0.021434     -1.669438
  O      -3.769793      0.021715     -2.631350
14
Coordinates from ORCA-job forward_opt E -399.093413085460
  O       1.758606     -0.240884     -0.704467
  N      -1.860575     -0.146076      0.086835
  C      -0.622068     -0.163181     -0.684098
  C       0.632733     -0.232131      0.165410
  H      -0.585452      0.733901     -1.303022
  H      -0.644190     -1.019613     -1.358763
  H       0.613241     -1.138002      0.778505
  H       0.671156      0.631431      0.836068
  H      -1.911739     -0.972913      0.669210
  H      -1.856540      0.642846      0.721751
  H       2.554842     -0.292987     -0.170523
  O      -5.104752      0.025292     -0.743737
  C      -4.426057      0.022615     -1.678524
  O      -3.786443      0.022526     -2.640374
14
Coordinates from ORCA-job forward_opt E -399.093422488619
  O       1.761055     -0.240952     -0.704397
  N      -1.857570     -0.146526      0.089607
  C      -0.619361     -0.163351     -0.681829
  C       0.636081     -0.232200      0.166763
  H      -0.583018      0.733722     -1.300789
  H      -0.641386     -1.019789     -1.356500
  H       0.617388     -1.138096      0.779835
  H       0.675383      0.631346      0.837371
  H      -1.908011     -0.973331      0.672105
  H      -1.853308      0.642364      0.724564
  H       2.557886     -0.293153     -0.171354
  O      -5.115536      0.026308     -0.749237
  C      -4.438307      0.023436     -1.685065
  O      -3.798533      0.023046     -2.646806
14
Coordinates from ORCA-job forward_opt E -399.093439434502
  O       1.763684     -0.240684     -0.706421
  N      -1.854333     -0.146594      0.094880
  C      -0.617336     -0.162995     -0.677697
  C       0.641062     -0.232575      0.168125
  H      -0.581394      0.734317     -1.296202
  H      -0.639420     -1.018977     -1.352786
  H       0.624378     -1.139315      0.779962
  H       0.683202      0.630275      0.839352
  H      -1.908221     -0.973419      0.676730
  H      -1.855183      0.643793      0.727654
  H       2.561621     -0.294114     -0.175129
  O      -5.125183      0.026889     -0.755147
  C      -4.451907      0.023723     -1.694629
  O      -3.808207      0.022501     -2.654423
14
Coordinates from ORCA-job forward_opt E -399.093446346745
  O       1.767184     -0.240824     -0.705270
  N      -1.850051     -0.147325      0.097653
  C      -0.613356     -0.163399     -0.675579
  C       0.644937     -0.232629      0.169737
  H      -0.578031      0.733921     -1.294176
  H      -0.635689     -1.019491     -1.350617
  H       0.628500     -1.139155      0.781902
  H       0.687029      0.630405      0.840757
  H      -1.901736     -0.974035      0.679909
  H      -1.849015      0.642668      0.730958
  H       2.565523     -0.294076     -0.174578
  O      -5.139616      0.028426     -0.762229
  C      -4.467502      0.024927     -1.701921
  O      -3.825416      0.023410     -2.662276
14
Coordinates from ORCA-job forward_opt E -399.093459566040
  O       1.771972     -0.240836     -0.705224
  N      -1.844491     -0.147989      0.102968
  C      -0.608584     -0.163582     -0.671521
  C       0.651324     -0.232875      0.171976
  H      -0.573856      0.733829     -1.289979
  H      -0.630971     -1.019523     -1.346692
  H       0.636244     -1.139674      0.783749
  H       0.695041      0.629938      0.843127
  H      -1.896011     -0.974660      0.685308
  H      -1.844460      0.642451      0.735719
  H       2.571164     -0.294564     -0.175868
  O      -5.158535      0.030085     -0.771448
  C      -4.489717      0.026211     -1.713957
  O      -3.846357      0.024013     -2.673889
14
Coordinates from ORCA-job forward_opt E -399.093454434823
  O       1.775513     -0.240766     -0.703086
  N      -1.840398     -0.148610      0.104499
  C      -0.605118     -0.163952     -0.671035
  C       0.654027     -0.233078      0.172697
  H      -0.571415      0.733733     -1.289237
  H      -0.628618     -1.019852     -1.346336
  H       0.637967     -1.139736      0.784690
  H       0.696037      0.629849      0.843887
  H      -1.890454     -0.975110      0.687193
  H      -1.839227      0.641985      0.737045
  H       2.574295     -0.294472     -0.173112
  O      -5.168765      0.031430     -0.775655
  C      -4.500699      0.027001     -1.717967
  O      -3.860382      0.024403     -2.679314
14
Coordinates from ORCA-job forward_opt E -399.093456107831
  O       1.775241     -0.240696     -0.703077
  N      -1.840901     -0.148461      0.104046
  C      -0.605605     -0.163860     -0.671454
  C       0.653556     -0.233134      0.172425
  H      -0.571797      0.733874     -1.289551
  H      -0.629138     -1.019671     -1.346837
  H       0.637353     -1.139888      0.784275
  H       0.695423      0.629688      0.843756
  H      -1.891453     -0.974930      0.686701
  H      -1.840285      0.642339      0.736301
  H       2.573858     -0.294538     -0.172864
  O      -5.166654      0.031190     -0.774331
  C      -4.498675      0.026763     -1.716878
  O      -3.858161      0.024146     -2.678242
14
Coordinates from ORCA-job forward_opt E -399.093455541516
  O       1.775474     -0.240583     -0.702677
  N      -1.840908     -0.148324      0.103603
  C      -0.605633     -0.163765     -0.671924
  C       0.653391     -0.233265      0.172225
  H      -0.571783      0.734097     -1.289817
  H      -0.629358     -1.019421     -1.347479
  H       0.636840     -1.140155      0.783876
  H       0.694803      0.629397      0.843802
  H      -1.891855     -0.974694      0.686317
  H      -1.840886      0.642804      0.735404
  H       2.573808     -0.294672     -0.172067
  O      -5.165550      0.031051     -0.773216
  C      -4.497907      0.026535     -1.716079
  O      -3.857673      0.023820     -2.677698
14
Coordinates from ORCA-job forward_opt E -399.093454772469
  O       1.776016     -0.240446     -0.702033
  N      -1.840636     -0.148165      0.103087
  C      -0.605311     -0.163636     -0.672366
  C       0.653459     -0.233453      0.172160
  H      -0.571362      0.734400     -1.289990
  H      -0.629230     -1.019087     -1.348169
  H       0.636496     -1.140527      0.783537
  H       0.694323      0.628986      0.844073
  H      -1.891834     -0.974366      0.685984
  H      -1.841209      0.643352      0.734362
  H       2.574035     -0.294908     -0.170989
  O      -5.165267      0.030952     -0.772265
  C      -4.498185      0.026292     -1.715546
  O      -3.858533      0.023431     -2.677573
14
Coordinates from ORCA-job forward_opt E -399.093452287214
  O       1.776984     -0.240223     -0.700827
  N      -1.840170     -0.147837      0.101951
  C      -0.604569     -0.163345     -0.673076
  C       0.653638     -0.233792      0.172222
  H      -0.570251      0.735005     -1.290218
  H      -0.628641     -1.018419     -1.349350
  H       0.635998     -1.141226      0.783058
  H       0.693681      0.628207      0.844771
  H      -1.891580     -0.973676      0.685308
  H      -1.841676      0.644310      0.732385
  H       2.574498     -0.295453     -0.169100
  O      -5.165193      0.030738     -0.770642
  C      -4.499214      0.025827     -1.714700
  O      -3.860743      0.022709     -2.677513
14
Coordinates from ORCA-job forward_opt E -399.093454155148
  O       1.778362     -0.239939     -0.699014
  N      -1.839618     -0.147275      0.099914
  C      -0.603312     -0.162806     -0.674025
  C       0.653948     -0.234291      0.172550
  H      -0.568144      0.736013     -1.290434
  H      -0.627288     -1.017313     -1.351034
  H       0.635398     -1.142310      0.782501
  H       0.693045      0.627009      0.846070
  H      -1.891122     -0.972498      0.684118
  H      -1.842448      0.645725      0.729234
  H       2.575200     -0.296468     -0.166415
  O      -5.165425      0.030324     -0.768199
  C      -4.501221      0.025066     -1.713482
  O      -3.864613      0.021589     -2.677514
14
Coordinates from ORCA-job forward_opt E -399.093458403062
  O       1.781770     -0.239286     -0.694236
  N      -1.838532     -0.145738      0.093873
  C      -0.599928     -0.161248     -0.676480
  C       0.654654     -0.235527      0.173708
  H      -0.562055      0.738766     -1.290979
  H      -0.623032     -1.014312     -1.355378
  H       0.633851     -1.145107      0.781271
  H       0.691716      0.623933      0.849721
  H      -1.890035     -0.969271      0.680482
  H      -1.844724      0.649278      0.720583
  H       2.576892     -0.299404     -0.159469
  O      -5.166055      0.029139     -0.761446
  C      -4.506680      0.022998     -1.710047
  O      -3.875080      0.018603     -2.677333
14
Coordinates from ORCA-job forward_opt E -399.093459412007
  O       1.783842     -0.239007     -0.691127
  N      -1.838116     -0.144794      0.089357
  C      -0.597644     -0.160173     -0.678030
  C       0.655057     -0.236182      0.174740
  H      -0.557660      0.740547     -1.291354
  H      -0.619514     -1.012425     -1.358015
  H       0.632916     -1.146716      0.780813
  H       0.691247      0.622195      0.852167
  H      -1.889453     -0.967239      0.677563
  H      -1.846323      0.651216      0.714800
  H       2.577891     -0.301468     -0.155026
  O      -5.166660      0.028416     -0.756842
  C      -4.510551      0.021717     -1.707675
  O      -3.882270      0.016738     -2.677102
14
Coordinates from ORCA-job forward_opt E -399.093458572234
  O       1.784661     -0.239111     -0.689580
  N      -1.838343     -0.144503      0.086291
  C      -0.596477     -0.159640     -0.678840
  C       0.655104     -0.236244      0.175550
  H      -0.555082      0.741305     -1.291726
  H      -0.616822     -1.011719     -1.359100
  H       0.632402     -1.147080      0.781112
  H       0.691382      0.621865      0.853269
  H      -1.889561     -0.966537      0.675174
  H      -1.847337      0.651538      0.711752
  H       2.578199     -0.302551     -0.152822
  O      -5.166917      0.028225     -0.754095
  C      -4.512508      0.021264     -1.706094
  O      -3.885939      0.016011     -2.676620
14
Coordinates from ORCA-job forward_opt E -399.093447086736
  O       1.784906     -0.239400     -0.688998
  N      -1.838624     -0.144783      0.084707
  C      -0.596043     -0.159658     -0.679223
  C       0.655054     -0.235934      0.175980
  H      -0.554129      0.741189     -1.292210
  H      -0.615145     -1.011982     -1.359208
  H       0.632184     -1.146559      0.781823
  H       0.691616      0.622510      0.853222
  H      -1.890054     -0.966964      0.673411
  H      -1.847706      0.650779      0.710828
  H       2.578224     -0.302646     -0.151884
  O      -5.167049      0.028620     -0.752811
  C      -4.513225      0.021520     -1.705227
  O      -3.887248      0.016131     -2.676140
14
Coordinates from ORCA-job forward_opt E -399.093453145109
  O       1.785609     -0.239801     -0.687833
  N      -1.838725     -0.145412      0.082432
  C      -0.595280     -0.159915     -0.680030
  C       0.655061     -0.235438      0.176440
  H      -0.552931      0.740740     -1.293254
  H      -0.612811     -1.012636     -1.359546
  H       0.631732     -1.145601      0.782929
  H       0.691515      0.623636      0.852852
  H      -1.890864     -0.967983      0.670557
  H      -1.848110      0.649488      0.709433
  H       2.578442     -0.302383     -0.149915
  O      -5.167179      0.029586     -0.750672
  C      -4.514320      0.022135     -1.703768
  O      -3.889378      0.016409     -2.675353
14
Coordinates from ORCA-job forward_opt E -399.093461157083
  O       1.788875     -0.240624     -0.682933
  N      -1.838285     -0.146976      0.074658
  C      -0.592081     -0.160544     -0.683176
  C       0.655384     -0.234417      0.177804
  H      -0.548216      0.739814     -1.296700
  H      -0.605517     -1.013972     -1.361862
  H       0.629994     -1.143553      0.785695
  H       0.690243      0.626004      0.852519
  H      -1.892846     -0.970359      0.661467
  H      -1.849592      0.646731      0.703201
  H       2.579746     -0.301796     -0.141945
  O      -5.167641      0.032473     -0.742723
  C      -4.518913      0.023585     -1.698662
  O      -3.898388      0.016455     -2.673073
14
Coordinates from ORCA-job forward_opt E -399.093466634746
  O       1.794797     -0.241417     -0.674180
  N      -1.836916     -0.149083      0.062008
  C      -0.586414     -0.161520     -0.688599
  C       0.656110     -0.233331      0.179835
  H      -0.540094      0.738545     -1.302367
  H      -0.594318     -1.015623     -1.366502
  H       0.627063     -1.141220      0.789400
  H       0.687232      0.628629      0.852733
  H      -1.895464     -0.973385      0.647102
  H      -1.851974      0.643495      0.691886
  H       2.582250     -0.300700     -0.128000
  O      -5.168247      0.037032     -0.729276
  C      -4.526955      0.025543     -1.690204
  O      -3.914307      0.015857     -2.669567
14
Coordinates from ORCA-job forward_opt E -399.093457170276
  O       1.802099     -0.241788     -0.663086
  N      -1.834898     -0.151491      0.046830
  C      -0.579493     -0.163054     -0.695468
  C       0.656857     -0.232429      0.181939
  H      -0.530459      0.736550     -1.309718
  H      -0.581843     -1.017778     -1.372616
  H       0.623332     -1.138967      0.793303
  H       0.682228      0.630998      0.853217
  H      -1.898488     -0.976835      0.629850
  H      -1.854629      0.640222      0.677612
  H       2.585311     -0.298327     -0.110524
  O      -5.168036      0.042905     -0.712565
  C      -4.536006      0.027954     -1.679546
  O      -3.933214      0.014865     -2.664958
14
Coordinates from ORCA-job forward_opt E -399.093469123398
  O       1.808824     -0.241249     -0.652291
  N      -1.832919     -0.153315      0.032556
  C      -0.572998     -0.164763     -0.702075
  C       0.657343     -0.232236      0.183671
  H      -0.521263      0.734284     -1.316977
  H      -0.571442     -1.019817     -1.378822
  H       0.619861     -1.137971      0.796081
  H       0.676116      0.631825      0.854442
  H      -1.901235     -0.979318      0.613973
  H      -1.857207      0.638315      0.663174
  H       2.588101     -0.294948     -0.093890
  O      -5.166556      0.048578     -0.696332
  C      -4.543545      0.030035     -1.669056
  O      -3.950317      0.013405     -2.660185
14
Coordinates from ORCA-job forward_opt E -399.093463005037
  O       1.814751     -0.240159     -0.642289
  N      -1.831224     -0.154319      0.019238
  C      -0.566986     -0.166112     -0.708047
  C       0.657653     -0.232621      0.185378
  H      -0.512085      0.732483     -1.323398
  H      -0.562313     -1.021241     -1.384718
  H       0.616870     -1.138264      0.797795
  H       0.670236      0.631252      0.856628
  H      -1.903245     -0.980368      0.600076
  H      -1.859653      0.637767      0.649038
  H       2.590483     -0.291765     -0.078763
  O      -5.164837      0.053360     -0.681319
  C      -4.550530      0.031410     -1.659464
  O      -3.966357      0.011400     -2.655885
14
Coordinates from ORCA-job forward_opt E -399.093464165972
  O       1.820941     -0.238818     -0.631195
  N      -1.829738     -0.155199      0.003807
  C      -0.560405     -0.167480     -0.714739
  C       0.657688     -0.233144      0.187390
  H      -0.501472      0.730586     -1.330538
  H      -0.551905     -1.022752     -1.391214
  H       0.613368     -1.138922      0.799434
  H       0.663614      0.630331      0.859321
  H      -1.905850     -0.981112      0.584290
  H      -1.862852      0.637382      0.632718
  H       2.592701     -0.288229     -0.062018
  O      -5.161976      0.058491     -0.664099
  C      -4.557596      0.032738     -1.648294
  O      -3.983756      0.008952     -2.650593
14
Coordinates from ORCA-job forward_opt E -399.093478262600
  O       1.827102     -0.239056     -0.620498
  N      -1.828062     -0.156948     -0.011254
  C      -0.554020     -0.168590     -0.721505
  C       0.657753     -0.232507      0.189240
  H      -0.492077      0.729157     -1.337474
  H      -0.540128     -1.024281     -1.397342
  H       0.608935     -1.137332      0.802366
  H       0.658259      0.631993      0.859889
  H      -1.908978     -0.983459      0.567719
  H      -1.865915      0.634891      0.618321
  H       2.594541     -0.286397     -0.045300
  O      -5.159526      0.063333     -0.647530
  C      -4.564471      0.034443     -1.637269
  O      -4.000651      0.007576     -2.645095
14
Coordinates from ORCA-job forward_opt E -399.093471168981
  O       1.831670     -0.237653     -0.611472
  N      -1.826922     -0.156972     -0.023908
  C      -0.548781     -0.169308     -0.726826
  C       0.657501     -0.233378      0.190948
  H      -0.482952      0.728167     -1.342829
  H      -0.532223     -1.024907     -1.402756
  H       0.605993     -1.138874      0.802916
  H       0.652727      0.630173      0.862864
  H      -1.910397     -0.982848      0.555573
  H      -1.868433      0.635767      0.604270
  H       2.595899     -0.283926     -0.031914
  O      -5.156502      0.066753     -0.633520
  C      -4.569958      0.034852     -1.628236
  O      -4.014861      0.004977     -2.640840
14
Coordinates from ORCA-job forward_opt E -399.093486490145
  O       1.836325     -0.236813     -0.601773
  N      -1.826053     -0.157134     -0.038497
  C      -0.543206     -0.169734     -0.732687
  C       0.656949     -0.233886      0.193062
  H      -0.472859      0.727599     -1.348393
  H      -0.522394     -1.025502     -1.408294
  H       0.602195     -1.139916      0.803951
  H       0.647518      0.629141      0.865589
  H      -1.912603     -0.982500      0.541250
  H      -1.871613      0.636089      0.588783
  H       2.596876     -0.282155     -0.017300
  O      -5.152507      0.070086     -0.617669
  C      -4.575539      0.035200     -1.617910
  O      -4.030328      0.002348     -2.635843
14
Coordinates from ORCA-job forward_opt E -399.093478459480
  O       1.841635     -0.236782     -0.591205
  N      -1.824787     -0.158071     -0.053986
  C      -0.537113     -0.170358     -0.739343
  C       0.656443     -0.233704      0.195014
  H      -0.462875      0.726840     -1.354776
  H      -0.510975     -1.026394     -1.414422
  H       0.597401     -1.139431      0.805942
  H       0.642017      0.629720      0.866927
  H      -1.915535     -0.983499      0.525086
  H      -1.874969      0.634843      0.573372
  H       2.597847     -0.280728     -0.000996
  O      -5.148255      0.073976     -0.600764
  C      -4.581314      0.036105     -1.606581
  O      -4.046758      0.000307     -2.629998
14
Coordinates from ORCA-job forward_opt E -399.093497049758
  O       1.841284     -0.235412     -0.588148
  N      -1.827187     -0.155090     -0.063648
  C      -0.535713     -0.168410     -0.740935
  C       0.654634     -0.235587      0.197851
  H      -0.454377      0.729555     -1.354202
  H      -0.505589     -1.024900     -1.415295
  H       0.595924     -1.144708      0.803476
  H       0.641935      0.625324      0.872715
  H      -1.917222     -0.978109      0.519124
  H      -1.878457      0.640044      0.560987
  H       2.596388     -0.281548      0.003304
  O      -5.141851      0.072356     -0.591097
  C      -4.582223      0.033223     -1.601221
  O      -4.054783     -0.003914     -2.628641
14
Coordinates from ORCA-job forward_opt E -399.093487618716
  O       1.846725     -0.235954     -0.577046
  N      -1.825488     -0.157264     -0.078530
  C      -0.529810     -0.169941     -0.748536
  C       0.653824     -0.234630      0.198661
  H      -0.446681      0.727559     -1.362267
  H      -0.494912     -1.026476     -1.422574
  H       0.589806     -1.142011      0.806447
  H       0.634288      0.627748      0.871587
  H      -1.921292     -0.981331      0.501817
  H      -1.881946      0.636521      0.547323
  H       2.597057     -0.279257      0.020708
  O      -5.135743      0.077272     -0.573859
  C      -4.585072      0.035249     -1.588589
  O      -4.067995     -0.004661     -2.620872
14
Coordinates from ORCA-job forward_opt E -399.093497055247
  O       1.849746     -0.235660     -0.568853
  N      -1.825251     -0.157867     -0.091294
  C      -0.525778     -0.170672     -0.754008
  C       0.652427     -0.234662      0.199955
  H      -0.439418      0.726587     -1.367647
  H      -0.486886     -1.027427     -1.427537
  H       0.585250     -1.141881      0.807651
  H       0.628529      0.627869      0.872550
  H      -1.924831     -0.981998      0.488317
  H      -1.885296      0.635715      0.534465
  H       2.596727     -0.277090      0.033233
  O      -5.128407      0.080330     -0.559249
  C      -4.585963      0.035911     -1.578296
  O      -4.078087     -0.006330     -2.615017
14
Coordinates from ORCA-job forward_opt E -399.093496763017
  O       1.852571     -0.235467     -0.561168
  N      -1.824851     -0.158668     -0.103264
  C      -0.521880     -0.171580     -0.758920
  C       0.651272     -0.234642      0.201327
  H      -0.432621      0.725415     -1.372541
  H      -0.479116     -1.028616     -1.431844
  H       0.581199     -1.141573      0.809143
  H       0.623282      0.628191      0.873386
  H      -1.928509     -0.983082      0.475184
  H      -1.888314      0.634628      0.522488
  H       2.596519     -0.274473      0.044828
  O      -5.121070      0.083563     -0.545408
  C      -4.587101      0.036815     -1.568867
  O      -4.088620     -0.007688     -2.610074
14
Coordinates from ORCA-job forward_opt E -399.093501525911
  O       1.855295     -0.235325     -0.553002
  N      -1.824620     -0.159445     -0.116419
  C      -0.517722     -0.172541     -0.763894
  C       0.649977     -0.234717      0.203073
  H      -0.424991      0.724180     -1.377415
  H      -0.470688     -1.029890     -1.436128
  H       0.576949     -1.141417      0.810892
  H       0.617829      0.628391      0.874583
  H      -1.933137     -0.984242      0.460539
  H      -1.891990      0.633693      0.509107
  H       2.596207     -0.271320      0.056891
  O      -5.111480      0.087005     -0.529950
  C      -4.587952      0.037712     -1.558732
  O      -4.100916     -0.009260     -2.605276
14
Coordinates from ORCA-job forward_opt E -399.093492965785
  O       1.858712     -0.235340     -0.544326
  N      -1.823610     -0.160029     -0.129559
  C      -0.512733     -0.173250     -0.768680
  C       0.649303     -0.234915      0.205157
  H      -0.416203      0.723304     -1.381891
  H      -0.461504     -1.030790     -1.440386
  H       0.573140     -1.141497      0.812784
  H       0.613126      0.628350      0.876254
  H      -1.936570     -0.985051      0.446135
  H      -1.894970      0.633057      0.495527
  H       2.596483     -0.268699      0.069512
  O      -5.103284      0.090288     -0.514865
  C      -4.591755      0.038439     -1.549561
  O      -4.117374     -0.011043     -2.601831
14
Coordinates from ORCA-job forward_opt E -399.093501210530
  O       1.859889     -0.235843     -0.542698
  N      -1.822772     -0.160227     -0.131429
  C      -0.511229     -0.173185     -0.769032
  C       0.649914     -0.234814      0.205893
  H      -0.414076      0.723419     -1.382072
  H      -0.459172     -1.030708     -1.440696
  H       0.573005     -1.141178      0.813751
  H       0.613501      0.628717      0.876627
  H      -1.936506     -0.985528      0.443666
  H      -1.894886      0.632737      0.493700
  H       2.597233     -0.268763      0.071672
  O      -5.102856      0.090760     -0.512738
  C      -4.595053      0.038613     -1.549248
  O      -4.124231     -0.011177     -2.603126
14
Coordinates from ORCA-job forward_opt E -399.093499665563
  O       1.863455     -0.237064     -0.536504
  N      -1.820681     -0.160392     -0.139045
  C      -0.506582     -0.172806     -0.771416
  C       0.650854     -0.234677      0.207878
  H      -0.406820      0.723893     -1.383897
  H      -0.451887     -1.030222     -1.443032
  H       0.571153     -1.140601      0.816030
  H       0.612885      0.629334      0.877894
  H      -1.936254     -0.986196      0.434955
  H      -1.895212      0.632322      0.486123
  H       2.598733     -0.269255      0.080375
  O      -5.099538      0.091943     -0.504111
  C      -4.603441      0.038722     -1.546104
  O      -4.143904     -0.012177     -2.604877
14
Coordinates from ORCA-job forward_opt E -399.093503470924
  O       1.863591     -0.237192     -0.536721
  N      -1.820526     -0.160462     -0.138340
  C      -0.506631     -0.172760     -0.771378
  C       0.650999     -0.234486      0.207671
  H      -0.407314      0.723905     -1.383968
  H      -0.452041     -1.030188     -1.442977
  H       0.571212     -1.140222      0.816087
  H       0.613156      0.629694      0.877483
  H      -1.935613     -0.986344      0.435684
  H      -1.894712      0.631949      0.487269
  H       2.598815     -0.269768      0.080205
  O      -5.100792      0.091756     -0.505041
  C      -4.603919      0.038794     -1.546671
  O      -4.143461     -0.011853     -2.605033
14
Coordinates from ORCA-job forward_opt E -399.093499877731
  O       1.863448     -0.237108     -0.537463
  N      -1.820506     -0.160362     -0.136841
  C      -0.507060     -0.172664     -0.771064
  C       0.651108     -0.234361      0.207312
  H      -0.408343      0.723942     -1.383835
  H      -0.453045     -1.030096     -1.442700
  H       0.571548     -1.140047      0.815841
  H       0.613501      0.629822      0.877154
  H      -1.934614     -0.986201      0.437469
  H      -1.894011      0.631817      0.489151
  H       2.598817     -0.270447      0.079248
  O      -5.102304      0.091299     -0.506826
  C      -4.603971      0.038743     -1.547777
  O      -4.141805     -0.011514     -2.605399
14
Coordinates from ORCA-job forward_opt E -399.093498583181
  O       1.863448     -0.237085     -0.537436
  N      -1.820524     -0.160408     -0.136938
  C      -0.507049     -0.172700     -0.771070
  C       0.651102     -0.234309      0.207340
  H      -0.408357      0.723882     -1.383877
  H      -0.452958     -1.030172     -1.442643
  H       0.571543     -1.139964      0.815911
  H       0.613482      0.629918      0.877120
  H      -1.934750     -0.986306      0.437281
  H      -1.894050      0.631703      0.489154
  H       2.598809     -0.270431      0.079285
  O      -5.102070      0.091351     -0.506684
  C      -4.603919      0.038799     -1.547729
  O      -4.141945     -0.011453     -2.605444
