14
Coordinates from ORCA-job forward_opt E -399.093498583181
  O           1.86344797076843     -0.23708491430855     -0.53743616902688
  N          -1.82052394720916     -0.16040756007845     -0.13693817806986
  C          -0.50704870950937     -0.17270031924467     -0.77106974140469
  C           0.65110203388070     -0.23430935302249      0.20734045286303
  H          -0.40835669462733      0.72388187667925     -1.38387747081412
  H          -0.45295817658931     -1.03017212427905     -1.44264282696365
  H           0.57154292086731     -1.13996430154340      0.81591052724034
  H           0.61348163670874      0.62991825537544      0.87711994713764
  H          -1.93475038073712     -0.98630614063933      0.43728055867373
  H          -1.89405033097578      0.63170315093127      0.48915365635263
  H           2.59880942226410     -0.27043097570519      0.07928514784101
  O          -5.10207005868326      0.09135054721912     -0.50668373624877
  C          -4.60391882367033      0.03879872852078     -1.54772863028709
  O          -4.14194486248757     -0.01145286990472     -2.60544353729331
