14
Coordinates from ORCA-job ./irc_IRC_Full E -399.091599173974
  O       1.670317     -0.238039     -0.711388
  N      -1.952633     -0.135364      0.002205
  C      -0.712534     -0.155310     -0.757385
  C       0.518614     -0.226928      0.121389
  H      -0.669052      0.741640     -1.375757
  H      -0.731797     -1.011288     -1.432344
  H       0.474411     -1.132649      0.733189
  H       0.534248      0.636713      0.792705
  H      -2.037358     -0.965848      0.573639
  H      -1.976700      0.657980      0.629540
  H       2.446882     -0.293042     -0.149608
  O      -4.735221     -0.001425     -0.557608
  C      -3.995358     -0.004823     -1.449734
  O      -3.401057      0.001207     -2.444573
