18
Coordinates from ORCA-job ./orca E -1967.060341532541
  C      -2.781600      1.622250      1.415630
  C      -1.618540      2.388350      1.293080
  C      -0.565840      2.241090      2.211060
  C      -0.700740      1.305210      3.258090
  C      -1.866820      0.541780      3.376250
  C      -2.905890      0.699930      2.456650
  H      -3.586780      1.743900      0.702600
  H      -3.806810      0.107370      2.550290
  H      -1.539150      3.098870      0.479430
  H       0.085210      1.155620      3.985720
  H      -1.964310     -0.174370      4.182090
  C       0.666250      3.095850      2.021630
  N       1.695080      2.846550      3.026190
  H       1.356820      3.192240      3.953900
  H       2.537750      3.408140      2.768610
  H       0.379300      4.170820      2.046800
  H       0.589600      3.504910     -0.984430
  Cu      1.448930      2.685950      0.169450
18
Coordinates from ORCA-job ./orca E -1967.075828687480
  C      -2.783069      1.646514      1.422002
  C      -1.633523      2.411776      1.298905
  C      -0.572178      2.256454      2.208757
  C      -0.683182      1.302430      3.235924
  C      -1.838888      0.544521      3.358204
  C      -2.888390      0.711910      2.452412
  H      -3.594630      1.772585      0.718042
  H      -3.784326      0.112271      2.547612
  H      -1.557885      3.131350      0.494218
  H       0.117287      1.150161      3.945647
  H      -1.923531     -0.180979      4.156101
  C       0.627684      3.103901      2.045013
  N       1.667260      2.859944      3.003181
  H       1.355893      3.159475      3.928694
  H       2.472748      3.434608      2.761102
  H       0.357904      4.166972      1.986183
  H       0.625377      3.434156     -0.892185
  Cu      1.457909      2.616411      0.243228
18
Coordinates from ORCA-job ./orca E -1967.087759615005
  C      -2.790247      1.661144      1.424145
  C      -1.654650      2.432308      1.303211
  C      -0.584706      2.275380      2.207548
  C      -0.678393      1.305645      3.220392
  C      -1.823118      0.544157      3.341844
  C      -2.878941      0.714860      2.445557
  H      -3.606880      1.787124      0.726343
  H      -3.768651      0.105812      2.540034
  H      -1.581089      3.161577      0.507426
  H       0.134513      1.156563      3.915799
  H      -1.896709     -0.190827      4.132032
  C       0.588341      3.116535      2.065413
  N       1.649413      2.878847      2.961708
  H       1.391416      3.126123      3.911138
  H       2.439408      3.460673      2.717358
  H       0.335730      4.168084      1.929088
  H       0.666838      3.371608     -0.762801
  Cu      1.480186      2.558849      0.326805
18
Coordinates from ORCA-job ./orca E -1967.097030115591
  C      -2.808359      1.670094      1.431485
  C      -1.681300      2.449407      1.310429
  C      -0.601190      2.290161      2.204460
  C      -0.679725      1.303777      3.203761
  C      -1.818956      0.536206      3.327675
  C      -2.882239      0.711289      2.443228
  H      -3.631279      1.796995      0.741215
  H      -3.766834      0.094797      2.537752
  H      -1.611186      3.188393      0.523152
  H       0.145316      1.155742      3.885085
  H      -1.882063     -0.208216      4.110037
  C       0.559316      3.137529      2.072352
  N       1.645268      2.907209      2.918734
  H       1.440071      3.085603      3.895826
  H       2.419884      3.510775      2.678323
  H       0.318106      4.178035      1.868558
  H       0.734330      3.312277     -0.644680
  Cu      1.523302      2.514387      0.405647
18
Coordinates from ORCA-job ./orca E -1967.107880562397
  C      -2.839084      1.687274      1.451372
  C      -1.721341      2.480999      1.327202
  C      -0.625292      2.313744      2.198077
  C      -0.676704      1.303344      3.174902
  C      -1.808009      0.521486      3.304065
  C      -2.887159      0.705825      2.443456
  H      -3.674823      1.819111      0.777475
  H      -3.763951      0.078495      2.539111
  H      -1.663708      3.236942      0.554501
  H       0.167346      1.150685      3.832405
  H      -1.850495     -0.240798      4.070606
  C       0.525765      3.175732      2.064990
  N       1.635146      2.951697      2.866940
  H       1.482099      3.004287      3.869470
  H       2.381180      3.605412      2.662131
  H       0.300330      4.197447      1.777937
  H       0.849143      3.198440     -0.520095
  Cu      1.592018      2.444338      0.518496
18
Coordinates from ORCA-job ./orca E -1967.119415661850
  C      -2.877441      1.718997      1.485181
  C      -1.770336      2.530277      1.355673
  C      -0.650768      2.344327      2.187065
  C      -0.662821      1.302653      3.129609
  C      -1.782942      0.502055      3.265238
  C      -2.887835      0.704078      2.443632
  H      -3.733911      1.863991      0.840533
  H      -3.755718      0.065109      2.542793
  H      -1.737631      3.312944      0.607829
  H       0.204832      1.135897      3.752635
  H      -1.794977     -0.286682      4.005656
  C       0.488006      3.226596      2.041512
  N       1.615191      3.019939      2.808715
  H       1.512063      2.875461      3.808438
  H       2.298630      3.760370      2.694517
  H       0.277924      4.217117      1.661960
  H       0.996476      2.991711     -0.403854
  Cu      1.683719      2.349617      0.685909
18
Coordinates from ORCA-job ./orca E -1967.128319550813
  C      -2.909729      1.756184      1.522685
  C      -1.806743      2.575550      1.386666
  C      -0.662495      2.360348      2.172168
  C      -0.641841      1.288814      3.078976
  C      -1.757226      0.481046      3.222445
  C      -2.888611      0.709302      2.444151
  H      -3.787098      1.922898      0.912276
  H      -3.753471      0.067475      2.550333
  H      -1.800319      3.384903      0.666967
  H       0.242897      1.096642      3.670111
  H      -1.745165     -0.331443      3.936552
  C       0.462342      3.265445      2.011850
  N       1.600451      3.104989      2.775114
  H       1.532444      2.768804      3.729596
  H       2.191195      3.930467      2.782140
  H       0.258568      4.222646      1.556555
  H       1.111368      2.735065     -0.351211
  Cu      1.775893      2.295327      0.845666
18
Coordinates from ORCA-job ./orca E -1967.134396880546
  C      -2.930506      1.789069      1.557328
  C      -1.824119      2.606435      1.416389
  C      -0.662016      2.360149      2.164020
  C      -0.625147      1.266670      3.043412
  C      -1.740678      0.459307      3.188147
  C      -2.891486      0.715721      2.445196
  H      -3.822773      1.980637      0.976596
  H      -3.757474      0.076169      2.555558
  H      -1.837276      3.436566      0.721251
  H       0.267519      1.043930      3.611994
  H      -1.714844     -0.373816      3.877552
  C       0.454921      3.276297      1.991589
  N       1.586761      3.187554      2.787754
  H       1.520587      2.746785      3.698361
  H       2.105929      4.057059      2.862888
  H       0.255972      4.210653      1.486566
  H       1.199820      2.512445     -0.391361
  Cu      1.837270      2.282829      0.919801
18
Coordinates from ORCA-job ./orca E -1967.138169980304
  C      -2.944027      1.804898      1.576456
  C      -1.836914      2.625679      1.440638
  C      -0.669076      2.364600      2.173354
  C      -0.625771      1.258934      3.037175
  C      -1.738035      0.445412      3.170663
  C      -2.896334      0.714755      2.441638
  H      -3.842071      2.009685      1.009314
  H      -3.760753      0.072314      2.547445
  H      -1.861937      3.469602      0.762810
  H       0.267575      1.018458      3.598811
  H      -1.704862     -0.402509      3.841510
  C       0.440572      3.284374      1.994174
  N       1.570413      3.240494      2.784605
  H       1.532636      2.721576      3.656121
  H       2.075063      4.117480      2.874597
  H       0.249253      4.211307      1.469801
  H       1.287795      2.355967     -0.426152
  Cu      1.878932      2.321434      0.960079
18
Coordinates from ORCA-job ./orca E -1967.141266481261
  C      -2.960829      1.821170      1.594435
  C      -1.856485      2.648913      1.469280
  C      -0.683071      2.374588      2.188719
  C      -0.631470      1.253237      3.032241
  C      -1.738325      0.432546      3.151222
  C      -2.902785      0.712790      2.433718
  H      -3.863928      2.038354      1.040229
  H      -3.763392      0.063946      2.531135
  H      -1.894835      3.509523      0.813907
  H       0.261292      0.998997      3.589603
  H      -1.697415     -0.431026      3.801272
  C       0.413920      3.298003      2.010953
  N       1.547651      3.298219      2.778271
  H       1.586598      2.674535      3.576549
  H       2.044784      4.175611      2.884218
  H       0.224870      4.219682      1.474503
  H       1.413940      2.124361     -0.439058
  Cu      1.921939      2.421012      0.981844
18
Coordinates from ORCA-job ./orca E -1967.142056528441
  C      -2.967894      1.823142      1.598881
  C      -1.864576      2.651141      1.476536
  C      -0.690912      2.375376      2.196884
  C      -0.639795      1.252032      3.038337
  C      -1.745315      0.431425      3.154024
  C      -2.909239      0.712709      2.435219
  H      -3.870583      2.041913      1.044772
  H      -3.768812      0.062070      2.529958
  H      -1.903987      3.514363      0.824824
  H       0.252251      0.998983      3.597111
  H      -1.704798     -0.433877      3.801709
  C       0.404412      3.294482      2.023645
  N       1.539097      3.309857      2.783953
  H       1.617094      2.653781      3.552710
  H       2.037702      4.185184      2.890549
  H       0.212980      4.216839      1.488154
  H       1.497646      2.072010     -0.476773
  Cu      1.927188      2.473030      0.952547
18
Coordinates from ORCA-job ./orca E -1967.142638445464
  C      -2.976333      1.820641      1.599389
  C      -1.876966      2.652575      1.480333
  C      -0.704640      2.382153      2.206284
  C      -0.651733      1.257508      3.047018
  C      -1.753419      0.432164      3.158685
  C      -2.915614      0.709953      2.436039
  H      -3.878148      2.035751      1.042479
  H      -3.772764      0.055734      2.528141
  H      -1.915285      3.516955      0.829804
  H       0.241658      1.014460      3.607560
  H      -1.712571     -0.433051      3.806464
  C       0.390048      3.299078      2.039133
  N       1.533358      3.304711      2.774961
  H       1.667058      2.617881      3.508823
  H       2.041428      4.175078      2.883648
  H       0.198115      4.222317      1.504988
  H       1.579965      2.044367     -0.476593
  Cu      1.928304      2.526183      0.935885
18
Coordinates from ORCA-job ./orca E -1967.143064431565
  C      -2.976998      1.810730      1.593201
  C      -1.878537      2.642318      1.475685
  C      -0.711650      2.379576      2.214620
  C      -0.664873      1.261296      3.065779
  C      -1.767292      0.437606      3.178269
  C      -2.922766      0.708564      2.442585
  H      -3.874106      2.018531      1.026036
  H      -3.780835      0.055542      2.534729
  H      -1.908602      3.500538      0.816430
  H       0.225830      1.033144      3.636031
  H      -1.733524     -0.419859      3.836645
  C       0.386841      3.290964      2.052646
  N       1.532937      3.284082      2.779404
  H       1.686878      2.600467      3.512151
  H       2.057626      4.146627      2.876311
  H       0.194933      4.217256      1.522446
  H       1.642545      2.119121     -0.540088
  Cu      1.914052      2.547958      0.890159
18
Coordinates from ORCA-job ./orca E -1967.143193720898
  C      -2.976062      1.807796      1.590779
  C      -1.878795      2.641931      1.476643
  C      -0.714136      2.381788      2.219576
  C      -0.668117      1.264471      3.072729
  C      -1.769783      0.438724      3.182312
  C      -2.922737      0.706762      2.441691
  H      -3.871516      2.012130      1.019738
  H      -3.780202      0.052588      2.531245
  H      -1.906539      3.498822      0.815562
  H       0.221139      1.039945      3.646787
  H      -1.737388     -0.417829      3.841918
  C       0.383268      3.295982      2.056867
  N       1.534471      3.277472      2.772359
  H       1.694565      2.593242      3.502993
  H       2.064044      4.137468      2.869525
  H       0.193361      4.221525      1.525000
  H       1.649401      2.139578     -0.541669
  Cu      1.907487      2.542064      0.888985
18
Coordinates from ORCA-job ./orca E -1967.143310549332
  C      -2.974207      1.806167      1.588801
  C      -1.878366      2.643694      1.479139
  C      -0.715186      2.384921      2.224616
  C      -0.668679      1.267645      3.077959
  C      -1.769172      0.439323      3.183477
  C      -2.920401      0.704852      2.438957
  H      -3.868681      2.007737      1.015243
  H      -3.776800      0.048817      2.525122
  H      -1.905698      3.500706      0.818316
  H       0.218120      1.045020      3.656678
  H      -1.737395     -0.417179      3.843146
  C       0.378348      3.304489      2.061974
  N       1.535629      3.273142      2.766081
  H       1.692113      2.590380      3.499493
  H       2.071925      4.129629      2.862281
  H       0.191180      4.228780      1.527451
  H       1.651933      2.147085     -0.543882
  Cu      1.897795      2.529250      0.888189
18
Coordinates from ORCA-job ./orca E -1967.143399642657
  C      -2.973372      1.806517      1.588444
  C      -1.879435      2.647693      1.483942
  C      -0.716551      2.389127      2.230406
  C      -0.668500      1.270201      3.081487
  C      -1.767106      0.438850      3.181820
  C      -2.917677      0.703067      2.435335
  H      -3.867538      2.006705      1.013964
  H      -3.772435      0.044384      2.517584
  H      -1.908227      3.506482      0.825631
  H       0.216122      1.046979      3.663298
  H      -1.734696     -0.419228      3.839390
  C       0.372120      3.313756      2.069403
  N       1.535850      3.273150      2.760768
  H       1.687564      2.591031      3.495979
  H       2.077527      4.126613      2.854861
  H       0.187538      4.236237      1.531276
  H       1.662563      2.134669     -0.547070
  Cu      1.888711      2.518227      0.886523
18
Coordinates from ORCA-job ./orca E -1967.143494619893
  C      -2.974473      1.809403      1.590357
  C      -1.883548      2.654994      1.491908
  C      -0.719244      2.395392      2.236968
  C      -0.667638      1.272094      3.082093
  C      -1.763253      0.436785      3.176213
  C      -2.914629      0.701145      2.430517
  H      -3.869324      2.009723      1.017080
  H      -3.766883      0.038683      2.508312
  H      -1.916081      3.517861      0.839242
  H       0.215860      1.046319      3.664571
  H      -1.728296     -0.424966      3.828802
  C       0.363541      3.324614      2.080237
  N       1.535176      3.277653      2.755566
  H       1.682789      2.596458      3.492698
  H       2.080461      4.129071      2.845567
  H       0.181205      4.243914      1.536301
  H       1.685611      2.097658     -0.548428
  Cu      1.881186      2.507658      0.885035
18
Coordinates from ORCA-job ./orca E -1967.143506961124
  C      -2.977794      1.813218      1.594148
  C      -1.889176      2.661237      1.498349
  C      -0.722283      2.399796      2.239689
  C      -0.667044      1.271861      3.078738
  C      -1.760416      0.434026      3.170026
  C      -2.913854      0.700225      2.428016
  H      -3.874115      2.015221      1.023826
  H      -3.764329      0.035256      2.503843
  H      -1.925280      3.528002      0.851043
  H       0.217937      1.043760      3.657987
  H      -1.722264     -0.431431      3.817502
  C       0.357881      3.329792      2.086934
  N       1.534051      3.283422      2.753012
  H       1.682268      2.604168      3.491866
  H       2.078218      4.135740      2.839055
  H       0.176058      4.246177      1.537910
  H       1.710475      2.061504     -0.545250
  Cu      1.882126      2.502485      0.886346
18
Coordinates from ORCA-job ./orca E -1967.143557467858
  C      -2.981099      1.815976      1.597602
  C      -1.893546      2.664639      1.501559
  C      -0.724470      2.401627      2.239287
  C      -0.666826      1.270586      3.074556
  C      -1.759203      0.431877      3.166017
  C      -2.914587      0.700131      2.427807
  H      -3.878786      2.019687      1.030044
  H      -3.764350      0.034269      2.503680
  H      -1.931632      3.533711      0.857393
  H       0.220667      1.041676      3.649591
  H      -1.718747     -0.435885      3.810250
  C       0.355556      3.330525      2.088804
  N       1.533114      3.286846      2.752171
  H       1.683550      2.610564      3.493357
  H       2.074335      4.141244      2.835611
  H       0.173276      4.245245      1.537011
  H       1.727392      2.041507     -0.540964
  Cu      1.887818      2.500233      0.889264
18
Coordinates from ORCA-job ./orca E -1967.143566497483
  C      -2.983697      1.817592      1.600239
  C      -1.896381      2.666078      1.502839
  C      -0.725875      2.401884      2.237887
  C      -0.666915      1.269143      3.071356
  C      -1.759039      0.430463      3.164100
  C      -2.915849      0.700431      2.428737
  H      -3.882389      2.022534      1.034720
  H      -3.765564      0.034600      2.505420
  H      -1.935241      3.536227      0.860116
  H       0.222947      1.040360      3.642759
  H      -1.717313     -0.438490      3.806631
  C       0.354701      3.329574      2.088220
  N       1.532300      3.288059      2.751617
  H       1.684650      2.614788      3.495182
  H       2.070676      4.144449      2.833765
  H       0.171828      4.243551      1.535298
  H       1.738853      2.034344     -0.538087
  Cu      1.894768      2.498873      0.892241
18
Coordinates from ORCA-job ./orca E -1967.143570871616
  C      -2.985671      1.818416      1.602216
  C      -1.898138      2.666465      1.503289
  C      -0.726796      2.401386      2.236561
  C      -0.667136      1.267850      3.069382
  C      -1.759381      0.429639      3.163590
  C      -2.917168      0.700885      2.430113
  H      -3.885099      2.024096      1.038115
  H      -3.767155      0.035516      2.507778
  H      -1.937152      3.536979      0.861052
  H       0.224540      1.039511      3.638127
  H      -1.717150     -0.439816      3.805397
  C       0.354147      3.328387      2.086629
  N       1.531392      3.287894      2.750858
  H       1.684751      2.616912      3.496318
  H       2.067830      4.145642      2.832766
  H       0.170916      4.242126      1.533426
  H       1.748175      2.034541     -0.536940
  Cu      1.901554      2.498030      0.894362
18
Coordinates from ORCA-job ./orca E -1967.143574059724
  C      -2.987059      1.818787      1.603639
  C      -1.899121      2.666407      1.503552
  C      -0.727349      2.400707      2.235820
  C      -0.667300      1.266919      3.068515
  C      -1.759802      0.429277      3.163795
  C      -2.918223      0.701342      2.431430
  H      -3.886989      2.024795      1.040453
  H      -3.768535      0.036472      2.509880
  H      -1.938126      3.536940      0.861357
  H       0.225382      1.038747      3.635749
  H      -1.717519     -0.440350      3.805358
  C       0.353491      3.327666      2.084913
  N       1.530386      3.287273      2.749955
  H       1.683602      2.617346      3.496421
  H       2.066091      4.145531      2.832392
  H       0.170263      4.241346      1.531680
  H       1.756208      2.037512     -0.537060
  Cu      1.907058      2.497743      0.895192
18
Coordinates from ORCA-job ./orca E -1967.143576754148
  C      -2.988000      1.819035      1.604671
  C      -1.899700      2.666339      1.503951
  C      -0.727652      2.400223      2.235642
  C      -0.667308      1.266379      3.068238
  C      -1.760038      0.429167      3.164048
  C      -2.918894      0.701684      2.432384
  H      -3.888287      2.025186      1.042110
  H      -3.769407      0.037121      2.511313
  H      -1.938842      3.536852      0.861771
  H       0.225659      1.037791      3.634847
  H      -1.717804     -0.440581      3.805447
  C       0.352756      3.327515      2.083606
  N       1.529420      3.286957      2.749164
  H       1.681679      2.616962      3.495785
  H       2.065250      4.145101      2.832417
  H       0.169791      4.241075      1.530180
  H       1.762948      2.039685     -0.537554
  Cu      1.910889      2.497967      0.895019
18
Coordinates from ORCA-job ./orca E -1967.143578099760
  C      -2.988464      1.819217      1.605211
  C      -1.899990      2.666343      1.504285
  C      -0.727744      2.400068      2.235685
  C      -0.667204      1.266230      3.068136
  C      -1.760054      0.429187      3.164078
  C      -2.919159      0.701835      2.432823
  H      -3.888943      2.025450      1.043000
  H      -3.769713      0.037348      2.511980
  H      -1.939395      3.536886      0.862176
  H       0.225600      1.036938      3.634717
  H      -1.717790     -0.440651      3.805356
  C       0.352290      3.327648      2.083059
  N       1.528839      3.287088      2.748825
  H       1.680142      2.616437      3.495058
  H       2.065034      4.144932      2.832705
  H       0.169577      4.241042      1.529318
  H       1.766782      2.039936     -0.537828
  Cu      1.912652      2.498525      0.894458
18
Coordinates from ORCA-job ./orca E -1967.143573143116
  C      -2.988584      1.819299      1.605352
  C      -1.900092      2.666350      1.504403
  C      -0.727741      2.400087      2.235695
  C      -0.667143      1.266270      3.068059
  C      -1.760034      0.429239      3.164024
  C      -2.919218      0.701854      2.432933
  H      -3.889110      2.025580      1.043238
  H      -3.769741      0.037339      2.512169
  H      -1.939668      3.536913      0.862331
  H       0.225459      1.036470      3.634753
  H      -1.717683     -0.440631      3.805259
  C       0.352200      3.327710      2.083016
  N       1.528705      3.287300      2.748836
  H       1.679598      2.616180      3.494734
  H       2.065048      4.145007      2.832932
  H       0.169575      4.240980      1.529039
  H       1.767807      2.039538     -0.537842
  Cu      1.913083      2.498975      0.894110
18
Coordinates from ORCA-job ./orca E -1967.143577663162
  C      -2.988600      1.819317      1.605364
  C      -1.900122      2.666328      1.504372
  C      -0.727722      2.400113      2.235620
  C      -0.667120      1.266317      3.067967
  C      -1.760028      0.429272      3.163987
  C      -2.919238      0.701848      2.432970
  H      -3.889130      2.025629      1.043269
  H      -3.769745      0.037324      2.512269
  H      -1.939756      3.536884      0.862286
  H       0.225395      1.036299      3.634714
  H      -1.717599     -0.440581      3.805242
  C       0.352266      3.327671      2.083043
  N       1.528725      3.287372      2.748936
  H       1.679507      2.616116      3.494732
  H       2.065041      4.145082      2.833070
  H       0.169654      4.240876      1.528937
  H       1.767733      2.039416     -0.537776
  Cu      1.913200      2.499177      0.894037
