14
Coordinates from ORCA-job ./tsopt E -399.091590989269
  O           1.62476690100106     -0.24576878521408     -0.68833266038673
  N          -2.02410735947087     -0.10295783497783     -0.10198148272360
  C          -0.75003965942135     -0.10354783107663     -0.80981714921992
  C           0.44404687854646     -0.23863727174984      0.11597077317831
  H          -0.67007997912716      0.82403556933385     -1.37705277706163
  H          -0.75275330864671     -0.92959564676786     -1.52174145340216
  H           0.36923128048306     -1.16810986500995      0.68656793668590
  H           0.46975325498096      0.59869169029501      0.81772080032885
  H          -2.11938498264698     -0.93891212862064      0.46287150998668
  H          -2.08693044914530      0.68839361913097      0.52711615895292
  H           2.38510133851085     -0.31278627298592     -0.10375350440917
  O          -4.63631696689135      0.06111012195044     -0.49322951743164
  C          -3.82321545130065     -0.05884205381342     -1.32900001786969
  O          -3.37705354717191     -0.17438663799409     -2.40601895752808
