14
Coordinates from ORCA-job ./orca E -399.091586001644
  O           1.62966179912394     -0.20090301205329     -0.62694138877703
  N          -2.03304015462776     -0.12499305724172     -0.12270598664500
  C          -0.74269526164147     -0.08207820767590     -0.79919358175352
  C           0.43102693830428     -0.23308056619174      0.14967323395357
  H          -0.66340585101741      0.86599948777151     -1.33159716745396
  H          -0.71576113919919     -0.88249193420804     -1.53938860748423
  H           0.35413402574274     -1.18134047239309      0.68830049273600
  H           0.43101197771613      0.58130253855520      0.87833632212345
  H          -2.12650653871218     -0.97973748697661      0.41362354779327
  H          -2.12494438621597      0.64535026440965      0.52869954146574
  H           2.37749750743021     -0.27180615666900     -0.02693882945515
  O          -4.63507623271203      0.03839106082415     -0.57900560614755
  C          -3.80091922314317     -0.08043423236986     -1.39396773743106
  O          -3.32796551134784     -0.19549155328126     -2.45957457382436
