14
Coordinates from ORCA-job ./orca E -399.091551660907
  O       1.627542     -0.218161     -0.631640
  N      -2.033981     -0.131337     -0.116215
  C      -0.746446     -0.116833     -0.798623
  C       0.432013     -0.223728      0.150486
  H      -0.670513      0.807182     -1.372379
  H      -0.721649     -0.948429     -1.503604
  H       0.362178     -1.148947      0.728538
  H       0.430773      0.620334      0.844693
  H      -2.137109     -0.974118      0.436563
  H      -2.112171      0.652351      0.521010
  H       2.377795     -0.265682     -0.032321
  O      -4.642934     -0.100353     -0.585804
  C      -3.800548     -0.056231     -1.399367
  O      -3.311932      0.002639     -2.462018
14
Coordinates from ORCA-job ./orca E -399.091558085915
  O       1.630112     -0.216368     -0.625939
  N      -2.032963     -0.130201     -0.124409
  C      -0.742967     -0.114391     -0.802914
  C       0.431204     -0.224870      0.151056
  H      -0.664621      0.811384     -1.373522
  H      -0.716160     -0.944011     -1.510169
  H       0.358654     -1.152312      0.725333
  H       0.427002      0.616558      0.848510
  H      -2.137034     -0.973499      0.427762
  H      -2.113183      0.652971      0.513422
  H       2.377772     -0.265610     -0.023409
  O      -4.639358     -0.091320     -0.573366
  C      -3.800820     -0.058344     -1.391773
  O      -3.324621     -0.011302     -2.461262
14
Coordinates from ORCA-job ./orca E -399.091557630854
  O       1.629553     -0.215898     -0.626866
  N      -2.033053     -0.129854     -0.123278
  C      -0.743374     -0.113241     -0.801950
  C       0.431390     -0.225301      0.151036
  H      -0.664936      0.813415     -1.371105
  H      -0.716970     -0.941701     -1.510572
  H       0.359168     -1.153531      0.724020
  H       0.427797      0.615119      0.849640
  H      -2.137155     -0.973518      0.428239
  H      -2.114082      0.653060      0.514716
  H       2.377776     -0.265672     -0.025234
  O      -4.639637     -0.086956     -0.574818
  C      -3.800794     -0.059226     -1.392861
  O      -3.322664     -0.018009     -2.461648
14
Coordinates from ORCA-job ./orca E -399.091558320759
  O       1.630155     -0.214539     -0.626114
  N      -2.032738     -0.129450     -0.123944
  C      -0.742845     -0.111775     -0.802257
  C       0.431488     -0.226055      0.151023
  H      -0.664002      0.816070     -1.369416
  H      -0.716410     -0.938726     -1.512629
  H       0.359081     -1.155733      0.721683
  H       0.427376      0.612619      0.851734
  H      -2.136455     -0.973488      0.427119
  H      -2.114267      0.653030      0.514519
  H       2.377997     -0.265237     -0.024049
  O      -4.639673     -0.079773     -0.573389
  C      -3.801874     -0.060312     -1.392729
  O      -3.324815     -0.027945     -2.462232
14
Coordinates from ORCA-job ./orca E -399.091558927753
  O       1.630038     -0.211490     -0.626124
  N      -2.032785     -0.127706     -0.123890
  C      -0.742780     -0.108283     -0.801838
  C       0.431438     -0.227909      0.150913
  H      -0.663049      0.822201     -1.364724
  H      -0.716918     -0.931879     -1.516255
  H       0.359175     -1.161032      0.716093
  H       0.427103      0.606567      0.856644
  H      -2.135676     -0.971933      0.427237
  H      -2.115375      0.654648      0.514628
  H       2.377964     -0.265303     -0.024487
  O      -4.639440     -0.066986     -0.573179
  C      -3.801712     -0.063540     -1.392823
  O      -3.324965     -0.048669     -2.462876
14
Coordinates from ORCA-job ./orca E -399.091566726674
  O       1.629918     -0.206588     -0.626421
  N      -2.032867     -0.125021     -0.123113
  C      -0.742860     -0.100980     -0.800926
  C       0.431347     -0.230769      0.150347
  H      -0.662216      0.834690     -1.355296
  H      -0.717956     -0.917974     -1.523161
  H       0.358678     -1.169781      0.705960
  H       0.427194      0.596422      0.864712
  H      -2.133506     -0.970902      0.426298
  H      -2.117645      0.655749      0.517253
  H       2.377803     -0.266381     -0.025409
  O      -4.638912     -0.039976     -0.574128
  C      -3.801558     -0.069286     -1.393504
  O      -3.324402     -0.090515     -2.463291
14
Coordinates from ORCA-job ./orca E -399.091572747765
  O       1.629968     -0.200339     -0.626249
  N      -2.032900     -0.123480     -0.122859
  C      -0.742848     -0.096617     -0.800337
  C       0.431283     -0.233680      0.149953
  H      -0.661237      0.842896     -1.348222
  H      -0.718656     -0.908461     -1.528476
  H       0.359968     -1.178148      0.696584
  H       0.425717      0.586577      0.872317
  H      -2.132216     -0.969853      0.426333
  H      -2.118682      0.656777      0.518015
  H       2.377820     -0.264161     -0.025652
  O      -4.638153     -0.015672     -0.575089
  C      -3.801841     -0.073102     -1.393997
  O      -3.325207     -0.124052     -2.463003
14
Coordinates from ORCA-job ./orca E -399.091581847534
  O       1.631163     -0.194519     -0.624428
  N      -2.032209     -0.123053     -0.124293
  C      -0.741651     -0.090339     -0.800792
  C       0.431290     -0.236084      0.149579
  H      -0.659393      0.854090     -1.340161
  H      -0.717018     -0.895731     -1.536100
  H       0.359668     -1.185943      0.686956
  H       0.424049      0.577045      0.879967
  H      -2.129767     -0.972444      0.420618
  H      -2.119657      0.653609      0.520621
  H       2.378183     -0.261781     -0.023138
  O      -4.636456      0.020013     -0.574430
  C      -3.803868     -0.077014     -1.393539
  O      -3.331316     -0.169164     -2.461541
14
Coordinates from ORCA-job ./orca E -399.091583690798
  O       1.628305     -0.201132     -0.629100
  N      -2.033705     -0.125568     -0.120100
  C      -0.744087     -0.084944     -0.797890
  C       0.431086     -0.232875      0.149548
  H      -0.665349      0.861508     -1.333548
  H      -0.718060     -0.887612     -1.535831
  H       0.356016     -1.180184      0.690348
  H       0.431408      0.582983      0.876642
  H      -2.127665     -0.979212      0.418015
  H      -2.124399      0.646167      0.529939
  H       2.377246     -0.269826     -0.030367
  O      -4.636580      0.030377     -0.582572
  C      -3.799214     -0.078383     -1.395457
  O      -3.321984     -0.182612     -2.460307
14
Coordinates from ORCA-job ./orca E -399.091586055140
  O       1.631334     -0.201287     -0.624331
  N      -2.032222     -0.124525     -0.125767
  C      -0.741128     -0.082560     -0.801039
  C       0.431048     -0.233068      0.149900
  H      -0.660801      0.865096     -1.334127
  H      -0.713458     -0.883586     -1.540570
  H       0.353102     -1.181061      0.688941
  H       0.429626      0.581715      0.878157
  H      -2.126362     -0.978828      0.411193
  H      -2.124218      0.646172      0.525191
  H       2.377906     -0.271912     -0.022554
  O      -4.634533      0.034279     -0.573633
  C      -3.803262     -0.080390     -1.392173
  O      -3.334013     -0.191358     -2.459868
14
Coordinates from ORCA-job ./orca E -399.091586157658
  O       1.629377     -0.201339     -0.627319
  N      -2.033128     -0.124752     -0.122337
  C      -0.742851     -0.082354     -0.798913
  C       0.431046     -0.233118      0.149696
  H      -0.663471      0.865500     -1.331735
  H      -0.716178     -0.883061     -1.538835
  H       0.354245     -1.181166      0.688725
  H       0.431354      0.581553      0.878038
  H      -2.126796     -0.979284      0.414378
  H      -2.124885      0.645914      0.528784
  H       2.377434     -0.271758     -0.027598
  O      -4.635338      0.036057     -0.579495
  C      -3.800751     -0.080397     -1.394280
  O      -3.327041     -0.193109     -2.459791
14
Coordinates from ORCA-job ./orca E -399.091585015862
  O       1.629939     -0.200879     -0.626616
  N      -2.032895     -0.124820     -0.123027
  C      -0.742449     -0.082088     -0.799384
  C       0.431088     -0.233120      0.149717
  H      -0.662987      0.865947     -1.331850
  H      -0.715518     -0.882560     -1.539521
  H       0.354100     -1.181413      0.688293
  H       0.430891      0.581231      0.878423
  H      -2.126449     -0.979480      0.413444
  H      -2.124779      0.645612      0.528285
  H       2.377620     -0.271905     -0.026394
  O      -4.635203      0.037753     -0.578448
  C      -3.801431     -0.080512     -1.393895
  O      -3.328911     -0.195080     -2.459706
14
Coordinates from ORCA-job ./orca E -399.091586001644
  O       1.629662     -0.200903     -0.626941
  N      -2.033040     -0.124993     -0.122706
  C      -0.742695     -0.082078     -0.799194
  C       0.431027     -0.233081      0.149673
  H      -0.663406      0.865999     -1.331597
  H      -0.715761     -0.882492     -1.539389
  H       0.354134     -1.181340      0.688300
  H       0.431012      0.581303      0.878336
  H      -2.126507     -0.979737      0.413624
  H      -2.124944      0.645350      0.528700
  H       2.377498     -0.271806     -0.026939
  O      -4.635076      0.038391     -0.579006
  C      -3.800919     -0.080434     -1.393968
  O      -3.327966     -0.195492     -2.459575
