14
Coordinates from ORCA-job ./orca E -398.973015853532
  O       1.854917     -0.353790     -0.681668
  N      -1.728293      0.080236      0.267278
  C      -0.525252     -0.049314     -0.563970
  C       0.754087     -0.236611      0.235879
  H      -0.433095      0.845637     -1.184710
  H      -0.656163     -0.900620     -1.236811
  H       0.678062     -1.139940      0.850531
  H       0.906101      0.620423      0.900450
  H      -1.807681     -0.732728      0.872245
  H      -1.624000      0.877369      0.888834
  H       2.663579     -0.465997     -0.166398
  O      -5.690875     -0.643193     -1.298671
  C      -5.009250     -0.215258     -2.133661
  O      -4.329120      0.212473     -2.970009
14
Coordinates from ORCA-job ./orca E -398.973014284299
  O       1.854963     -0.353557     -0.681609
  N      -1.728237      0.080278      0.267250
  C      -0.525204     -0.049218     -0.564001
  C       0.754037     -0.236695      0.235838
  H      -0.433176      0.845647     -1.184916
  H      -0.656034     -0.900526     -1.236879
  H       0.678011     -1.140189      0.850264
  H       0.906003      0.620148      0.900682
  H      -1.807613     -0.732637      0.872285
  H      -1.623918      0.877530      0.888654
  H       2.663483     -0.465973     -0.166149
  O      -5.690915     -0.643100     -1.298550
  C      -5.009295     -0.215308     -2.133610
  O      -4.329087      0.212287     -2.969940
