14
Coordinates from ORCA-job ./irc_IRC_F E -399.079623717347
  O       1.553302     -0.230808     -0.678702
  N      -2.111452     -0.116586     -0.192394
  C      -0.808979     -0.125063     -0.862089
  C       0.361640     -0.230428      0.105005
  H      -0.721731      0.792215     -1.443037
  H      -0.790904     -0.968815     -1.551031
  H       0.286293     -1.152910      0.687175
  H       0.357908      0.618399      0.793942
  H      -2.247809     -0.953291      0.366042
  H      -2.210027      0.681009      0.427922
  H       2.306733     -0.280762     -0.082592
  O      -4.558419      0.069415     -0.469783
  C      -3.639713     -0.043309     -1.231213
  O      -3.329160     -0.129386     -2.388078
14
Coordinates from ORCA-job ./irc_IRC_F E -399.079787475500
  O       1.551690     -0.230776     -0.678008
  N      -2.114164     -0.116327     -0.192947
  C      -0.808130     -0.125106     -0.863927
  C       0.362028     -0.230398      0.104630
  H      -0.722012      0.792059     -1.443120
  H      -0.791166     -0.968594     -1.551108
  H       0.286033     -1.152901      0.687322
  H       0.357642      0.618387      0.794115
  H      -2.247666     -0.953049      0.366549
  H      -2.209787      0.680659      0.428375
  H       2.306032     -0.280745     -0.082879
  O      -4.555039      0.069048     -0.470897
  C      -3.638785     -0.043396     -1.231979
  O      -3.328993     -0.129182     -2.384961
14
Coordinates from ORCA-job ./irc_IRC_F E -399.079851698551
  O       1.550496     -0.230742     -0.677593
  N      -2.115914     -0.116180     -0.193617
  C      -0.807907     -0.125116     -0.865004
  C       0.361940     -0.230374      0.104473
  H      -0.722256      0.792072     -1.443370
  H      -0.791406     -0.968559     -1.551388
  H       0.285737     -1.152851      0.687431
  H       0.357332      0.618345      0.794243
  H      -2.247574     -0.952740      0.366967
  H      -2.209601      0.680321      0.428780
  H       2.305327     -0.280729     -0.083154
  O      -4.552985      0.068838     -0.471032
  C      -3.637154     -0.043504     -1.232041
  O      -3.328353     -0.129102     -2.383530
14
Coordinates from ORCA-job ./irc_IRC_F E -399.079912823618
  O       1.549006     -0.230684     -0.677265
  N      -2.117760     -0.116039     -0.194651
  C      -0.808086     -0.125105     -0.866076
  C       0.361353     -0.230342      0.104413
  H      -0.722610      0.792200     -1.443878
  H      -0.791764     -0.968626     -1.551965
  H       0.285219     -1.152756      0.687572
  H       0.356788      0.618271      0.794409
  H      -2.247501     -0.952198      0.367464
  H      -2.209388      0.679793      0.429281
  H       2.304255     -0.280708     -0.083537
  O      -4.550561      0.068596     -0.470776
  C      -3.634306     -0.043645     -1.231121
  O      -3.326962     -0.129078     -2.382704
14
Coordinates from ORCA-job ./irc_IRC_F E -399.080004822614
  O       1.546924     -0.230576     -0.677174
  N      -2.119823     -0.115878     -0.196151
  C      -0.808896     -0.125070     -0.867321
  C       0.359885     -0.230287      0.104471
  H      -0.723192      0.792443     -1.444794
  H      -0.792353     -0.968775     -1.552997
  H       0.284237     -1.152612      0.687781
  H       0.355759      0.618168      0.794648
  H      -2.247514     -0.951280      0.367988
  H      -2.209178      0.678937      0.429815
  H       2.302547     -0.280682     -0.084065
  O      -4.547473      0.068296     -0.469874
  C      -3.628704     -0.043947     -1.229494
  O      -3.324537     -0.129058     -2.381665
14
Coordinates from ORCA-job ./irc_IRC_F E -399.080104351463
  O       1.544863     -0.230445     -0.677433
  N      -2.121362     -0.115751     -0.197540
  C      -0.810042     -0.125020     -0.868443
  C       0.357940     -0.230223      0.104531
  H      -0.723886      0.792635     -1.445809
  H      -0.793044     -0.968867     -1.554113
  H       0.282945     -1.152496      0.687985
  H       0.354411      0.618104      0.794877
  H      -2.247728     -0.950364      0.368192
  H      -2.209155      0.678118      0.430024
  H       2.300653     -0.280658     -0.084569
  O      -4.544035      0.067949     -0.469141
  C      -3.622248     -0.044257     -1.226807
  O      -3.321631     -0.129045     -2.380587
14
Coordinates from ORCA-job ./irc_IRC_F E -399.080212407932
  O       1.542846     -0.230317     -0.677676
  N      -2.122812     -0.115636     -0.198703
  C      -0.810886     -0.124983     -0.869602
  C       0.356288     -0.230166      0.104414
  H      -0.724644      0.792698     -1.446704
  H      -0.793784     -0.968833     -1.555057
  H       0.281489     -1.152398      0.688086
  H       0.352895      0.618070      0.794990
  H      -2.248137     -0.949821      0.368095
  H      -2.209355      0.677667      0.429925
  H       2.298785     -0.280635     -0.085043
  O      -4.540620      0.067605     -0.468524
  C      -3.615843     -0.044551     -1.223921
  O      -3.318539     -0.129022     -2.379113
14
Coordinates from ORCA-job ./irc_IRC_F E -399.080316127575
  O       1.541012     -0.230195     -0.677962
  N      -2.124104     -0.115547     -0.199790
  C      -0.811762     -0.124943     -0.870589
  C       0.354657     -0.230115      0.104327
  H      -0.725402      0.792789     -1.447577
  H      -0.794525     -0.968836     -1.555969
  H       0.279995     -1.152287      0.688091
  H       0.351340      0.618035      0.795001
  H      -2.248646     -0.949423      0.367837
  H      -2.209682      0.677368      0.429671
  H       2.297019     -0.280615     -0.085475
  O      -4.537302      0.067279     -0.467899
  C      -3.609647     -0.044811     -1.220748
  O      -3.315271     -0.129019     -2.377750
14
Coordinates from ORCA-job ./irc_IRC_F E -399.080421975354
  O       1.539202     -0.230078     -0.678228
  N      -2.125414     -0.115459     -0.200820
  C      -0.812606     -0.124905     -0.871625
  C       0.353063     -0.230063      0.104170
  H      -0.726192      0.792861     -1.448415
  H      -0.795294     -0.968825     -1.556833
  H       0.278438     -1.152198      0.688039
  H       0.349725      0.618028      0.794955
  H      -2.249251     -0.949120      0.367465
  H      -2.210126      0.677162      0.429300
  H       2.295294     -0.280597     -0.085886
  O      -4.534016      0.066967     -0.467176
  C      -3.603265     -0.045092     -1.217745
  O      -3.311876     -0.129003     -2.376035
14
Coordinates from ORCA-job ./irc_IRC_F E -399.080527075941
  O       1.537490     -0.229967     -0.678484
  N      -2.126654     -0.115381     -0.201806
  C      -0.813433     -0.124868     -0.872604
  C       0.351518     -0.230012      0.104006
  H      -0.726982      0.792944     -1.449225
  H      -0.796063     -0.968833     -1.557665
  H       0.276887     -1.152112      0.687933
  H       0.348117      0.618030      0.794857
  H      -2.249907     -0.948880      0.367037
  H      -2.210642      0.677017      0.428873
  H       2.293650     -0.280581     -0.086264
  O      -4.530721      0.066660     -0.466511
  C      -3.597178     -0.045335     -1.214509
  O      -3.308399     -0.129003     -2.374472
