14
Coordinates from ORCA-job ./irc_IRC_F E -399.080527075941
  O           1.53749044043623     -0.22996722547642     -0.67848419086554
  N          -2.12665385062748     -0.11538125585989     -0.20180578534241
  C          -0.81343342136937     -0.12486810212072     -0.87260378382029
  C           0.35151815808880     -0.23001243876609      0.10400627524789
  H          -0.72698201435264      0.79294431278844     -1.44922469659170
  H          -0.79606306467889     -0.96883288357291     -1.55766473351865
  H           0.27688695065202     -1.15211213430611      0.68793280498034
  H           0.34811667365965      0.61803005254806      0.79485732290726
  H          -2.24990716122747     -0.94887970869204      0.36703738948370
  H          -2.21064224668223      0.67701747844017      0.42887308269578
  H           2.29364995170296     -0.28058125703481     -0.08626427666451
  O          -4.53072116301877      0.06666034801909     -0.46651078174018
  C          -3.59717795698370     -0.04533469500923     -1.21450922012237
  O          -3.30839878735480     -0.12900303071289     -2.37447245192480
