14
Coordinates from ORCA-job ./tsopt E -399.092159574953
  O           1.62722880148730     -0.23418575714398     -0.69119607105548
  N          -2.02115668480377     -0.12101884979835     -0.09392896598652
  C          -0.74859235022569     -0.12660430687787     -0.80540646273360
  C           0.45123167911132     -0.23377602855534      0.11845521962219
  H          -0.67524774940511      0.79165872269637     -1.38979431059494
  H          -0.74587533360597     -0.96660175098719     -1.50161468504338
  H           0.39067624254041     -1.15715595883107      0.70177352761893
  H           0.46606266659419      0.61359751033679      0.80975578055158
  H          -2.12373485334767     -0.96079040716174      0.46475615120238
  H          -2.07575944652656      0.66737131881096      0.54079240224322
  H           2.39326283026340     -0.28582411314910     -0.11071443678343
  O          -4.65196796683744      0.07438795948585     -0.50257032524600
  C          -3.84562740373966     -0.03427727279776     -1.34426329611396
  O          -3.38748248180459     -0.12809439352756     -2.41672486858096
