14
Coordinates from ORCA-job ./orca E -398.963458982039
  O       1.646941     -0.212148     -0.636232
  N      -2.032474     -0.122092     -0.115046
  C      -0.739901     -0.087983     -0.797407
  C       0.442424     -0.235432      0.146949
  H      -0.659246      0.856725     -1.339279
  H      -0.717788     -0.893877     -1.534400
  H       0.364811     -1.180351      0.694852
  H       0.446841      0.584837      0.871605
  H      -2.129941     -0.975512      0.427347
  H      -2.121122      0.654048      0.533902
  H       2.397732     -0.278633     -0.032987
  O      -4.663260      0.007846     -0.572211
  C      -3.830358     -0.072028     -1.398554
  O      -3.351643     -0.146714     -2.469218
14
Coordinates from ORCA-job ./orca E -398.963434032369
  O       1.645312     -0.212863     -0.632696
  N      -2.033538     -0.122984     -0.123847
  C      -0.739683     -0.084665     -0.802648
  C       0.438538     -0.235640      0.146497
  H      -0.658121      0.862364     -1.340064
  H      -0.714330     -0.888133     -1.542034
  H       0.357003     -1.181645      0.692185
  H       0.441866      0.583075      0.872835
  H      -2.134884     -0.978657      0.414160
  H      -2.130396      0.652332      0.524731
  H       2.394130     -0.277828     -0.026865
  O      -4.649008      0.021002     -0.559522
  C      -3.809886     -0.073983     -1.380857
  O      -3.353986     -0.163690     -2.462556
14
Coordinates from ORCA-job ./orca E -398.963435818338
  O       1.644157     -0.212713     -0.634507
  N      -2.033986     -0.121012     -0.121441
  C      -0.740674     -0.082041     -0.801304
  C       0.438362     -0.236401      0.146175
  H      -0.659028      0.866292     -1.336337
  H      -0.716609     -0.883664     -1.542744
  H       0.356618     -1.183720      0.689369
  H       0.443321      0.580480      0.874534
  H      -2.133579     -0.976027      0.418087
  H      -2.131093      0.655108      0.526249
  H       2.393696     -0.281112     -0.029961
  O      -4.649773      0.021504     -0.563779
  C      -3.808679     -0.076887     -1.382541
  O      -3.349715     -0.171119     -2.462481
14
Coordinates from ORCA-job ./orca E -398.963438671628
  O       1.644288     -0.212345     -0.634412
  N      -2.033969     -0.120940     -0.121536
  C      -0.740607     -0.081261     -0.801331
  C       0.438382     -0.236461      0.146156
  H      -0.658997      0.867551     -1.335438
  H      -0.716427     -0.882203     -1.543448
  H       0.356481     -1.184173      0.688606
  H       0.443397      0.579860      0.875130
  H      -2.133352     -0.976275      0.417418
  H      -2.131318      0.654800      0.526492
  H       2.393721     -0.281627     -0.029789
  O      -4.649634      0.024431     -0.563823
  C      -3.808756     -0.077401     -1.382456
  O      -3.350193     -0.175270     -2.462250
14
Coordinates from ORCA-job ./orca E -398.963436714562
  O       1.644242     -0.212096     -0.634486
  N      -2.033979     -0.120854     -0.121390
  C      -0.740655     -0.080945     -0.801243
  C       0.438366     -0.236619      0.146113
  H      -0.659015      0.868096     -1.334916
  H      -0.716563     -0.881556     -1.543703
  H       0.356488     -1.184591      0.688074
  H       0.443398      0.579345      0.875474
  H      -2.133159     -0.976206      0.417557
  H      -2.131443      0.654862      0.526639
  H       2.393709     -0.281630     -0.029932
  O      -4.649586      0.025729     -0.564127
  C      -3.808721     -0.077667     -1.382574
  O      -3.350064     -0.177182     -2.462166
