14
Coordinates from ORCA-job ./orca E -398.963471118969
  O           1.64694084041690     -0.21214766796700     -0.63623167055293
  N          -2.03247364859403     -0.12209181397387     -0.11504643724646
  C          -0.73990095229584     -0.08798258754996     -0.79740717199629
  C           0.44242405915859     -0.23543200638705      0.14694902986002
  H          -0.65924583292902      0.85672509351083     -1.33927884497834
  H          -0.71778774584260     -0.89387660525073     -1.53440043120221
  H           0.36481136575236     -1.18035062601863      0.69485150532454
  H           0.44684096450960      0.58483666599765      0.87160492888072
  H          -2.12994102193759     -0.97551245679926      0.42734703093128
  H          -2.12112159696005      0.65404811930156      0.53390164098389
  H           2.39773221833734     -0.27863330677894     -0.03298740785290
  O          -4.66325961747890      0.00784638615398     -0.57221063612632
  C          -3.83035831010368     -0.07202845107833     -1.39855375254259
  O          -3.35164277233278     -0.14671407066022     -2.46921812438229
