14
Coordinates from ORCA-job ./orca E -398.986723908080
  O       1.537099     -0.422098     -0.927007
  N      -1.885228      0.200926      0.407118
  C      -0.793093      0.018625     -0.554988
  C       0.545999     -0.263515      0.101801
  H      -0.713339      0.920113     -1.167386
  H      -1.049718     -0.806484     -1.223432
  H       0.477469     -1.175665      0.703655
  H       0.816845      0.566155      0.763117
  H      -1.964408     -0.632654      0.982815
  H      -1.643105      0.954333      1.044707
  H       2.383639     -0.603573     -0.500141
  O      -4.952386     -0.762476     -1.188148
  C      -4.217562     -0.285235     -1.947954
  O      -3.489196      0.190234     -2.714839
14
Coordinates from ORCA-job ./orca E -398.986738209903
  O       1.537255     -0.421609     -0.927043
  N      -1.885451      0.201089      0.407020
  C      -0.793139      0.018371     -0.554799
  C       0.546073     -0.263734      0.101823
  H      -0.712933      0.919670     -1.167410
  H      -1.049666     -0.806800     -1.223205
  H       0.477754     -1.176058      0.703428
  H       0.816584      0.565811      0.763453
  H      -1.964984     -0.632340      0.982818
  H      -1.643331      0.954376      1.044769
  H       2.384030     -0.602926     -0.500560
  O      -4.952248     -0.761908     -1.187725
  C      -4.217712     -0.285137     -1.948111
  O      -3.489214      0.189880     -2.715138
14
Coordinates from ORCA-job ./orca E -398.986357189220
  O       1.539248     -0.421447     -0.929639
  N      -1.904001      0.200586      0.394956
  C      -0.790284      0.018661     -0.552544
  C       0.550092     -0.264376      0.101303
  H      -0.704984      0.921565     -1.166213
  H      -1.044268     -0.807382     -1.220176
  H       0.482823     -1.177503      0.701810
  H       0.822032      0.564332      0.763398
  H      -1.974485     -0.638321      0.987329
  H      -1.665420      0.956547      1.030891
  H       2.386787     -0.603481     -0.504978
  O      -4.955139     -0.759728     -1.186241
  C      -4.202978     -0.282275     -1.928615
  O      -3.486406      0.191508     -2.711962
14
Coordinates from ORCA-job ./orca E -398.986644458448
  O       1.534313     -0.420962     -0.927645
  N      -1.900410      0.197761      0.391707
  C      -0.792319      0.017308     -0.555044
  C       0.545569     -0.264623      0.102937
  H      -0.707705      0.919924     -1.165437
  H      -1.043518     -0.807695     -1.225602
  H       0.478225     -1.177891      0.703296
  H       0.816563      0.564387      0.765120
  H      -1.968534     -0.631494      0.975493
  H      -1.662403      0.953558      1.029098
  H       2.381781     -0.602338     -0.502670
  O      -4.944540     -0.759484     -1.176969
  C      -4.202319     -0.282314     -1.929538
  O      -3.481686      0.192550     -2.705427
14
Coordinates from ORCA-job ./orca E -398.986689243334
  O       1.533803     -0.420897     -0.925745
  N      -1.898189      0.196414      0.390125
  C      -0.793830      0.016764     -0.558500
  C       0.542774     -0.264480      0.102834
  H      -0.709196      0.919370     -1.168288
  H      -1.043043     -0.807812     -1.230678
  H       0.474631     -1.177430      0.703642
  H       0.812128      0.564780      0.765378
  H      -1.967850     -0.632529      0.972422
  H      -1.661440      0.952528      1.027603
  H       2.380707     -0.601609     -0.499279
  O      -4.937014     -0.758206     -1.169446
  C      -4.202115     -0.281455     -1.929572
  O      -3.478348      0.193248     -2.701176
14
Coordinates from ORCA-job ./orca E -398.986709738461
  O       1.535565     -0.420534     -0.923848
  N      -1.896373      0.195591      0.389675
  C      -0.794767      0.016298     -0.561709
  C       0.541181     -0.264478      0.101976
  H      -0.710229      0.918887     -1.171776
  H      -1.043043     -0.808114     -1.234412
  H       0.472024     -1.177264      0.702883
  H       0.808427      0.564796      0.765309
  H      -1.968685     -0.634425      0.971419
  H      -1.660842      0.952076      1.026742
  H       2.381577     -0.600515     -0.495272
  O      -4.932826     -0.756592     -1.164046
  C      -4.202035     -0.280619     -1.928638
  O      -3.476957      0.193579     -2.698983
14
Coordinates from ORCA-job ./orca E -398.986716961732
  O       1.537342     -0.419925     -0.922644
  N      -1.895124      0.195268      0.389799
  C      -0.794988      0.015903     -0.563384
  C       0.540720     -0.264613      0.101269
  H      -0.710763      0.918365     -1.173828
  H      -1.043423     -0.808625     -1.235756
  H       0.470926     -1.177536      0.701862
  H       0.806406      0.564574      0.765318
  H      -1.969511     -0.635395      0.970818
  H      -1.660160      0.952003      1.026479
  H       2.382682     -0.599359     -0.492516
  O      -4.931872     -0.755426     -1.161778
  C      -4.201966     -0.280045     -1.927525
  O      -3.477253      0.193496     -2.698793
14
Coordinates from ORCA-job ./orca E -398.986717944968
  O       1.539313     -0.418894     -0.921433
  N      -1.893705      0.195064      0.389985
  C      -0.794935      0.015319     -0.564770
  C       0.540578     -0.264842      0.100612
  H      -0.711253      0.917510     -1.175705
  H      -1.044100     -0.809555     -1.236324
  H       0.470268     -1.178126      0.700576
  H       0.804488      0.564234      0.765506
  H      -1.970594     -0.636215      0.969752
  H      -1.659108      0.951988      1.026311
  H       2.383974     -0.597676     -0.489699
  O      -4.931710     -0.753896     -1.159908
  C      -4.201875     -0.279393     -1.926192
  O      -3.478320      0.193170     -2.699392
14
Coordinates from ORCA-job ./orca E -398.986725339124
  O       1.540075     -0.418213     -0.921016
  N      -1.893156      0.195091      0.389971
  C      -0.794714      0.014936     -0.565036
  C       0.540759     -0.264961      0.100498
  H      -0.711355      0.916893     -1.176302
  H      -1.044487     -0.810243     -1.235970
  H       0.470435     -1.178506      0.700065
  H       0.803887      0.564097      0.765737
  H      -1.971433     -0.636493      0.968828
  H      -1.658554      0.951907      1.026351
  H       2.384543     -0.596691     -0.488770
  O      -4.931862     -0.752979     -1.159187
  C      -4.201912     -0.279022     -1.925692
  O      -3.479208      0.192870     -2.700157
14
Coordinates from ORCA-job ./orca E -398.986326340334
  O       1.542068     -0.418121     -0.923625
  N      -1.911751      0.194660      0.377995
  C      -0.791860      0.015340     -0.562822
  C       0.544764     -0.265594      0.099966
  H      -0.703434      0.918918     -1.175167
  H      -1.039055     -0.810712     -1.232988
  H       0.475423     -1.179950      0.698413
  H       0.809379      0.562596      0.765699
  H      -1.980922     -0.642511      0.973407
  H      -1.680741      0.954107      1.012569
  H       2.387294     -0.597392     -0.493188
  O      -4.934707     -0.750891     -1.157692
  C      -4.187075     -0.276254     -1.906236
  O      -3.476365      0.194491     -2.697011
14
Coordinates from ORCA-job ./orca E -398.986617156027
  O       1.536944     -0.417862     -0.921704
  N      -1.908027      0.191836      0.374674
  C      -0.793779      0.014105     -0.565191
  C       0.540269     -0.265694      0.101705
  H      -0.706387      0.917413     -1.174159
  H      -1.038418     -0.810906     -1.238169
  H       0.470802     -1.180099      0.700131
  H       0.804191      0.562885      0.767300
  H      -1.974824     -0.635682      0.961100
  H      -1.677434      0.950989      1.010820
  H       2.382039     -0.596635     -0.490888
  O      -4.924152     -0.751022     -1.148704
  C      -4.186357     -0.276335     -1.907123
  O      -3.471848      0.195693     -2.690472
14
Coordinates from ORCA-job ./orca E -398.986661641865
  O       1.536424     -0.418021     -0.919864
  N      -1.905836      0.190536      0.373065
  C      -0.795138      0.013663     -0.568537
  C       0.537595     -0.265407      0.101641
  H      -0.708012      0.916970     -1.176919
  H      -1.037994     -0.810945     -1.243012
  H       0.467280     -1.179379      0.700680
  H       0.800094      0.563519      0.767362
  H      -1.974262     -0.636858      0.957803
  H      -1.676356      0.949840      1.009446
  H       2.380879     -0.596274     -0.487485
  O      -4.916741     -0.750081     -1.141481
  C      -4.186183     -0.275504     -1.907153
  O      -3.468734      0.196628     -2.686228
14
Coordinates from ORCA-job ./orca E -398.986682637919
  O       1.538214     -0.417835     -0.917925
  N      -1.904023      0.189743      0.372522
  C      -0.795968      0.013231     -0.571782
  C       0.536041     -0.265286      0.100800
  H      -0.709158      0.916490     -1.180514
  H      -1.037964     -0.811246     -1.246716
  H       0.464660     -1.178973      0.700109
  H       0.796537      0.563755      0.767111
  H      -1.975334     -0.638873      0.956449
  H      -1.675644      0.949210      1.008691
  H       2.381688     -0.595420     -0.483323
  O      -4.912388     -0.748740     -1.136053
  C      -4.186189     -0.274648     -1.906211
  O      -3.467456      0.197278     -2.683838
14
Coordinates from ORCA-job ./orca E -398.986689429514
  O       1.540051     -0.417301     -0.916658
  N      -1.902771      0.189472      0.372565
  C      -0.796113      0.012816     -0.573504
  C       0.535612     -0.265365      0.100099
  H      -0.709713      0.915886     -1.182723
  H      -1.038292     -0.811827     -1.248037
  H       0.463580     -1.179117      0.699195
  H       0.794557      0.563656      0.767015
  H      -1.976404     -0.639898      0.955579
  H      -1.674843      0.949006      1.008518
  H       2.382802     -0.594317     -0.480429
  O      -4.911357     -0.747741     -1.133743
  C      -4.186216     -0.274038     -1.905067
  O      -3.467875      0.197455     -2.683492
14
Coordinates from ORCA-job ./orca E -398.986690710189
  O       1.542259     -0.416279     -0.915246
  N      -1.901231      0.189351      0.372632
  C      -0.795964      0.012138     -0.575071
  C       0.535498     -0.265552      0.099411
  H      -0.710203      0.914804     -1.185006
  H      -1.038916     -0.812971     -1.248623
  H       0.462904     -1.179597      0.697968
  H       0.792516      0.563441      0.767109
  H      -1.977941     -0.640836      0.954054
  H      -1.673502      0.948805      1.008462
  H       2.384242     -0.592503     -0.477213
  O      -4.911129     -0.746344     -1.131684
  C      -4.186278     -0.273273     -1.903573
  O      -3.469237      0.197504     -2.683901
14
Coordinates from ORCA-job ./orca E -398.986693610617
  O       1.543272     -0.415505     -0.914640
  N      -1.900532      0.189462      0.372512
  C      -0.795661      0.011627     -0.575486
  C       0.535724     -0.265669      0.099277
  H      -0.710260      0.913923     -1.185962
  H      -1.039298     -0.813925     -1.248217
  H       0.463100     -1.179965      0.697449
  H       0.791746      0.563353      0.767334
  H      -1.979194     -0.641194      0.952702
  H      -1.672625      0.948590      1.008577
  H       2.385002     -0.591251     -0.475923
  O      -4.911340     -0.745440     -1.130808
  C      -4.186452     -0.272774     -1.902895
  O      -3.470465      0.197456     -2.684601
14
Coordinates from ORCA-job ./orca E -398.986697120616
  O       1.544112     -0.414606     -0.914161
  N      -1.900068      0.189741      0.372122
  C      -0.795151      0.010975     -0.575544
  C       0.536206     -0.265715      0.099417
  H      -0.710023      0.912719     -1.186814
  H      -1.039543     -0.815193     -1.247247
  H       0.463868     -1.180241      0.697273
  H       0.791309      0.563450      0.767664
  H      -1.981217     -0.641573      0.950655
  H      -1.671688      0.948044      1.008959
  H       2.385768     -0.589860     -0.475090
  O      -4.911502     -0.744333     -1.129776
  C      -4.186884     -0.272169     -1.902450
  O      -3.472169      0.197448     -2.685688
14
Coordinates from ORCA-job ./orca E -398.986275507167
  O       1.546115     -0.414591     -0.916768
  N      -1.918711      0.189372      0.360240
  C      -0.792294      0.011491     -0.573381
  C       0.540197     -0.266334      0.098879
  H      -0.702135      0.914862     -1.185761
  H      -1.034077     -0.815557     -1.244329
  H       0.468768     -1.181674      0.695601
  H       0.796835      0.561939      0.767645
  H      -1.990673     -0.647629      0.955251
  H      -1.693981      0.950273      0.995293
  H       2.388522     -0.590708     -0.479478
  O      -4.914308     -0.742337     -1.128257
  C      -4.171935     -0.269492     -1.883046
  O      -3.469305      0.199072     -2.682569
14
Coordinates from ORCA-job ./orca E -398.986569734258
  O       1.540771     -0.414592     -0.914913
  N      -1.915032      0.186596      0.356801
  C      -0.794290      0.010383     -0.575700
  C       0.535596     -0.266318      0.100678
  H      -0.705004      0.913499     -1.184668
  H      -1.033285     -0.815540     -1.249592
  H       0.464047     -1.181545      0.697617
  H       0.791780      0.562404      0.769127
  H      -1.984538     -0.640834      0.942981
  H      -1.690578      0.946992      0.993621
  H       2.383093     -0.590329     -0.477394
  O      -4.903545     -0.742813     -1.119349
  C      -4.171252     -0.269634     -1.884010
  O      -3.464745      0.200417     -2.675880
14
Coordinates from ORCA-job ./orca E -398.986615700267
  O       1.540062     -0.414987     -0.913094
  N      -1.912922      0.185313      0.355077
  C      -0.795705      0.010036     -0.579022
  C       0.532847     -0.265926      0.100666
  H      -0.706516      0.913175     -1.187359
  H      -1.032662     -0.815417     -1.254567
  H       0.460457     -1.180572      0.698447
  H       0.787816      0.563215      0.769052
  H      -1.983998     -0.641981      0.939626
  H      -1.689421      0.945642      0.992352
  H       2.381762     -0.590298     -0.474121
  O      -4.895938     -0.742188     -1.112172
  C      -4.171153     -0.268878     -1.884123
  O      -3.461611      0.201553     -2.671442
14
Coordinates from ORCA-job ./orca E -398.986636429783
  O       1.541691     -0.415012     -0.911235
  N      -1.911294      0.184611      0.354483
  C      -0.796501      0.009707     -0.582119
  C       0.531355     -0.265733      0.099877
  H      -0.707452      0.912818     -1.190777
  H      -1.032430     -0.815585     -1.258207
  H       0.457921     -1.179983      0.698103
  H       0.784559      0.563581      0.768667
  H      -1.985134     -0.643887      0.938301
  H      -1.688674      0.944886      0.991756
  H       2.382441     -0.589750     -0.470188
  O      -4.891722     -0.741241     -1.107088
  C      -4.171272     -0.268116     -1.883249
  O      -3.460469      0.202392     -2.669005
14
Coordinates from ORCA-job ./orca E -398.986642236149
  O       1.543434     -0.414601     -0.909973
  N      -1.910121      0.184406      0.354452
  C      -0.796623      0.009346     -0.583817
  C       0.530933     -0.265779      0.099211
  H      -0.707865      0.912277     -1.192933
  H      -1.032608     -0.816104     -1.259565
  H       0.456835     -1.180029      0.697322
  H       0.782689      0.563549      0.768508
  H      -1.986253     -0.644846      0.937363
  H      -1.687797      0.944603      0.991645
  H       2.383464     -0.588799     -0.467353
  O      -4.890713     -0.740506     -1.104887
  C      -4.171388     -0.267571     -1.882130
  O      -3.460970      0.202741     -2.668524
14
Coordinates from ORCA-job ./orca E -398.986643360638
  O       1.545678     -0.413676     -0.908442
  N      -1.908556      0.184380      0.354390
  C      -0.796445      0.008694     -0.585514
  C       0.530789     -0.265957      0.098524
  H      -0.708194      0.911215     -1.195346
  H      -1.033068     -0.817235     -1.260317
  H       0.456047     -1.180443      0.696171
  H       0.780594      0.563371      0.768553
  H      -1.987937     -0.645747      0.935610
  H      -1.686236      0.944315      0.991614
  H       2.384887     -0.587033     -0.463938
  O      -4.890451     -0.739423     -1.102773
  C      -4.171596     -0.266830     -1.880552
  O      -3.462494      0.203056     -2.668659
14
Coordinates from ORCA-job ./orca E -398.986646377926
  O       1.546854     -0.412885     -0.907668
  N      -1.907740      0.184589      0.354159
  C      -0.796085      0.008156     -0.586098
  C       0.531002     -0.266103      0.098371
  H      -0.708135      0.910266     -1.196522
  H      -1.033395     -0.818265     -1.260019
  H       0.456143     -1.180847      0.695609
  H       0.779669      0.563253      0.768803
  H      -1.989394     -0.646097      0.933954
  H      -1.685102      0.944066      0.991714
  H       2.385745     -0.585654     -0.462329
  O      -4.890695     -0.738689     -1.101771
  C      -4.171896     -0.266313     -1.879715
  O      -3.463952      0.203208     -2.669168
14
Coordinates from ORCA-job ./orca E -398.986650883074
  O       1.547928     -0.411933     -0.906966
  N      -1.907116      0.185043      0.353575
  C      -0.795457      0.007459     -0.586346
  C       0.531505     -0.266201      0.098517
  H      -0.707697      0.908939     -1.197659
  H      -1.033595     -0.819661     -1.259112
  H       0.456829     -1.181212      0.695373
  H       0.779059      0.563282      0.769222
  H      -1.991757     -0.646434      0.931395
  H      -1.683797      0.943489      0.992063
  H       2.386676     -0.584041     -0.461087
  O      -4.890977     -0.737835     -1.100600
  C      -4.172539     -0.265690     -1.879048
  O      -3.466044      0.203479     -2.670006
14
Coordinates from ORCA-job ./orca E -398.986655503008
  O       1.549266     -0.410728     -0.906058
  N      -1.906625      0.185881      0.352329
  C      -0.794396      0.006459     -0.586435
  C       0.532405     -0.266167      0.099019
  H      -0.706596      0.906875     -1.199271
  H      -1.033446     -0.821721     -1.257584
  H       0.458291     -1.181367      0.695652
  H       0.778646      0.563649      0.769809
  H      -1.996066     -0.646989      0.927002
  H      -1.681982      0.942104      0.992962
  H       2.387990     -0.581958     -0.459772
  O      -4.891043     -0.736693     -1.098566
  C      -4.173917     -0.264753     -1.878417
  O      -3.469508      0.204095     -2.671350
14
Coordinates from ORCA-job ./orca E -398.986641527993
  O       1.550164     -0.410191     -0.905331
  N      -1.906642      0.186758      0.350775
  C      -0.793299      0.005755     -0.586292
  C       0.533345     -0.265768      0.099779
  H      -0.705066      0.905135     -1.200651
  H      -1.032599     -0.823353     -1.256233
  H       0.459914     -1.180717      0.696873
  H       0.778949      0.564662      0.770054
  H      -2.000853     -0.647723      0.922238
  H      -1.680420      0.939998      0.994392
  H       2.389008     -0.580907     -0.459059
  O      -4.890616     -0.736061     -1.096388
  C      -4.175671     -0.263959     -1.878187
  O      -3.473198      0.205060     -2.672651
14
Coordinates from ORCA-job ./orca E -398.986662667486
  O       1.551313     -0.410320     -0.904137
  N      -1.906920      0.187978      0.348219
  C      -0.791758      0.005173     -0.586283
  C       0.534556     -0.264720      0.100958
  H      -0.702459      0.903162     -1.202702
  H      -1.030437     -0.825060     -1.255063
  H       0.461901     -1.178696      0.699607
  H       0.779831      0.566923      0.769844
  H      -2.008121     -0.649131      0.914816
  H      -1.678065      0.935953      0.997103
  H       2.390231     -0.580699     -0.457884
  O      -4.889329     -0.735834     -1.092753
  C      -4.178622     -0.262983     -1.877968
  O      -3.479105      0.206941     -2.674438
14
Coordinates from ORCA-job ./orca E -398.986661078566
  O       1.551391     -0.411266     -0.903746
  N      -1.907174      0.188207      0.347441
  C      -0.791482      0.005557     -0.586476
  C       0.534663     -0.264066      0.101257
  H      -0.701557      0.903465     -1.203026
  H      -1.029112     -0.824682     -1.255620
  H       0.461840     -1.177282      0.701038
  H       0.780480      0.568118      0.769269
  H      -2.009632     -0.649727      0.912873
  H      -1.677410      0.934272      0.998255
  H       2.390200     -0.582032     -0.457447
  O      -4.888643     -0.736576     -1.091738
  C      -4.179587     -0.263023     -1.877967
  O      -3.480959      0.207722     -2.674794
14
Coordinates from ORCA-job ./orca E -398.986658907915
  O       1.551443     -0.412675     -0.903206
  N      -1.907259      0.188314      0.346830
  C      -0.791398      0.006363     -0.587016
  C       0.534475     -0.263366      0.101348
  H      -0.700804      0.904574     -1.203100
  H      -1.027607     -0.823604     -1.256973
  H       0.460906     -1.175709      0.702374
  H       0.781024      0.569297      0.768491
  H      -2.009980     -0.650309      0.911477
  H      -1.676589      0.932710      0.999286
  H       2.389910     -0.584079     -0.456530
  O      -4.887996     -0.737866     -1.090908
  C      -4.180365     -0.263372     -1.877778
  O      -3.482742      0.208408     -2.674976
14
Coordinates from ORCA-job ./orca E -398.986226017013
  O       1.553481     -0.412768     -0.905765
  N      -1.925988      0.187981      0.335105
  C      -0.788531      0.006991     -0.584956
  C       0.538439     -0.263968      0.100814
  H      -0.692943      0.906820     -1.202219
  H      -1.022094     -0.823864     -1.254164
  H       0.465692     -1.177118      0.700714
  H       0.786548      0.567802      0.768495
  H      -2.019280     -0.656364      0.915894
  H      -1.699094      0.935012      0.985888
  H       2.392675     -0.585102     -0.460809
  O      -4.890776     -0.736028     -1.089306
  C      -4.165222     -0.260767     -1.858502
  O      -3.479889      0.210059     -2.671870
14
Coordinates from ORCA-job ./orca E -398.986509097277
  O       1.548340     -0.412737     -0.903636
  N      -1.921705      0.185288      0.331716
  C      -0.790656      0.006049     -0.587621
  C       0.533551     -0.264088      0.102354
  H      -0.696140      0.905844     -1.201012
  H      -1.021687     -0.823589     -1.259716
  H       0.460148     -1.177281      0.702166
  H       0.780946      0.567952      0.770031
  H      -2.011936     -0.649701      0.904211
  H      -1.694936      0.932254      0.983631
  H       2.387186     -0.584655     -0.457944
  O      -4.880342     -0.736760     -1.080725
  C      -4.164270     -0.261064     -1.858974
  O      -3.475481      0.211173     -2.665161
14
Coordinates from ORCA-job ./orca E -398.986554029268
  O       1.547918     -0.413035     -0.901540
  N      -1.919165      0.184040      0.330139
  C      -0.792177      0.005857     -0.591318
  C       0.530567     -0.263944      0.102063
  H      -0.697872      0.905960     -1.203624
  H      -1.021417     -0.823154     -1.265136
  H       0.455799     -1.176804      0.702286
  H       0.776447      0.568236      0.770122
  H      -2.010455     -0.650598      0.901292
  H      -1.693348      0.931508      0.981824
  H       2.385881     -0.584481     -0.453917
  O      -4.872955     -0.736433     -1.073736
  C      -4.163949     -0.260515     -1.858643
  O      -3.472256      0.212050     -2.660492
14
Coordinates from ORCA-job ./orca E -398.986574716579
  O       1.549787     -0.412933     -0.899418
  N      -1.917206      0.183377      0.329704
  C      -0.793085      0.005706     -0.594869
  C       0.528794     -0.264088      0.100993
  H      -0.698929      0.906080     -1.207044
  H      -1.021503     -0.822901     -1.269432
  H       0.452463     -1.176865      0.701124
  H       0.772596      0.567904      0.769996
  H      -2.010749     -0.652112      0.900519
  H      -1.692454      0.931478      0.980623
  H       2.386561     -0.583729     -0.449300
  O      -4.868714     -0.735785     -1.068603
  C      -4.163841     -0.260034     -1.857411
  O      -3.470701      0.212588     -2.657562
14
Coordinates from ORCA-job ./orca E -398.986581741422
  O       1.551537     -0.412431     -0.898163
  N      -1.915998      0.183295      0.329834
  C      -0.793220      0.005544     -0.596647
  C       0.528280     -0.264433      0.100201
  H      -0.699276      0.905945     -1.208954
  H      -1.021915     -0.823007     -1.271045
  H       0.451023     -1.177498      0.699743
  H       0.770598      0.567240      0.770118
  H      -2.011248     -0.652602      0.900219
  H      -1.691743      0.931870      0.980094
  H       2.387533     -0.582679     -0.446410
  O      -4.867943     -0.735369     -1.066704
  C      -4.163783     -0.259800     -1.856163
  O      -3.470827      0.212611     -2.656803
14
Coordinates from ORCA-job ./orca E -398.986582590710
  O       1.553261     -0.411558     -0.897024
  N      -1.914735      0.183494      0.329961
  C      -0.793061      0.005305     -0.597993
  C       0.528078     -0.264974      0.099548
  H      -0.699391      0.905617     -1.210472
  H      -1.022610     -0.823340     -1.271862
  H       0.450049     -1.178631      0.698069
  H       0.768871      0.566235      0.770591
  H      -2.011829     -0.652663      0.899613
  H      -1.690789      0.932553      0.979537
  H       2.388586     -0.581152     -0.443792
  O      -4.868130     -0.734943     -1.065488
  C      -4.163725     -0.259652     -1.854786
  O      -3.471559      0.212397     -2.656583
14
Coordinates from ORCA-job ./orca E -398.986588172401
  O       1.553879     -0.410998     -0.896645
  N      -1.914242      0.183819      0.329870
  C      -0.792808      0.005189     -0.598267
  C       0.528173     -0.265325      0.099442
  H      -0.699202      0.905393     -1.210849
  H      -1.023033     -0.823557     -1.271769
  H       0.449946     -1.179417      0.697277
  H       0.768360      0.565584      0.771083
  H      -2.012273     -0.652413      0.899007
  H      -1.690333      0.933008      0.979251
  H       2.389041     -0.580270     -0.442986
  O      -4.868548     -0.734833     -1.065190
  C      -4.163791     -0.259658     -1.854234
  O      -3.472151      0.212164     -2.656670
14
Coordinates from ORCA-job ./orca E -398.986111772546
  O       1.555955     -0.411152     -0.899155
  N      -1.932981      0.183509      0.318204
  C      -0.789930      0.005895     -0.596314
  C       0.532103     -0.265903      0.098905
  H      -0.691368      0.907746     -1.210100
  H      -1.017501     -0.823738     -1.269085
  H       0.454624     -1.180803      0.695602
  H       0.773853      0.564100      0.771107
  H      -2.021511     -0.658538      0.903487
  H      -1.712866      0.935284      0.965909
  H       2.391819     -0.581402     -0.447155
  O      -4.871292     -0.733026     -1.063526
  C      -4.148570     -0.257110     -1.834986
  O      -3.469318      0.213827     -2.653573
14
Coordinates from ORCA-job ./orca E -398.986399898155
  O       1.550610     -0.410954     -0.897222
  N      -1.928712      0.180881      0.314693
  C      -0.791979      0.004764     -0.598639
  C       0.527318     -0.266039      0.100615
  H      -0.694446      0.906377     -1.208762
  H      -1.017270     -0.823680     -1.274135
  H       0.449563     -1.181006      0.697219
  H       0.768418      0.564269      0.772738
  H      -2.014661     -0.651696      0.891451
  H      -1.708771      0.932462      0.963697
  H       2.386317     -0.580690     -0.444807
  O      -4.860904     -0.733673     -1.055102
  C      -4.147649     -0.257283     -1.835547
  O      -3.464818      0.214955     -2.646880
14
Coordinates from ORCA-job ./orca E -398.986444985838
  O       1.550084     -0.411078     -0.895327
  N      -1.926309      0.179730      0.313032
  C      -0.793388      0.004383     -0.601978
  C       0.524541     -0.265896      0.100457
  H      -0.695992      0.906096     -1.211335
  H      -1.017106     -0.823514     -1.279010
  H       0.445840     -1.180546      0.697494
  H       0.764188      0.564605      0.772855
  H      -2.013894     -0.652561      0.888345
  H      -1.707402      0.931649      0.962020
  H       2.385077     -0.580263     -0.441297
  O      -4.853680     -0.733176     -1.048320
  C      -4.147399     -0.256633     -1.835350
  O      -3.461542      0.215892     -2.642266
14
Coordinates from ORCA-job ./orca E -398.986465660156
  O       1.551849     -0.410829     -0.893387
  N      -1.924489      0.179158      0.312499
  C      -0.794181      0.004046     -0.605203
  C       0.522982     -0.266009      0.099516
  H      -0.696864      0.905808     -1.214772
  H      -1.017205     -0.823558     -1.282807
  H       0.443135     -1.180555      0.696534
  H       0.760607      0.564391      0.772705
  H      -2.015000     -0.654060      0.887261
  H      -1.706754      0.931483      0.961015
  H       2.385791     -0.579323     -0.437154
  O      -4.849532     -0.732378     -1.043317
  C      -4.147391     -0.256030     -1.834246
  O      -3.459931      0.216542     -2.639324
14
Coordinates from ORCA-job ./orca E -398.986472022544
  O       1.553563     -0.410259     -0.892195
  N      -1.923310      0.179115      0.312550
  C      -0.794251      0.003761     -0.606858
  C       0.522582     -0.266294      0.098792
  H      -0.697117      0.905397     -1.216796
  H      -1.017553     -0.823882     -1.284190
  H       0.442045     -1.181074      0.695325
  H       0.758720      0.563886      0.772755
  H      -2.016110     -0.654622      0.886623
  H      -1.706152      0.931712      0.960652
  H       2.386777     -0.578200     -0.434452
  O      -4.848745     -0.731862     -1.041380
  C      -4.147407     -0.255694     -1.833035
  O      -3.460025      0.216702     -2.638472
14
Coordinates from ORCA-job ./orca E -398.986473110197
  O       1.555484     -0.409269     -0.890964
  N      -1.921911      0.179356      0.312590
  C      -0.794004      0.003360     -0.608266
  C       0.522495     -0.266757      0.098138
  H      -0.697161      0.904709     -1.218695
  H      -1.018163     -0.824536     -1.284878
  H       0.441336     -1.182061      0.693756
  H       0.756932      0.563085      0.773112
  H      -2.017561     -0.654883      0.885426
  H      -1.705167      0.932169      0.960303
  H       2.387981     -0.576522     -0.431680
  O      -4.848927     -0.731293     -1.039937
  C      -4.147460     -0.255371     -1.831505
  O      -3.460856      0.216699     -2.638080
14
Coordinates from ORCA-job ./orca E -398.986479692046
  O       1.556332     -0.408592     -0.890454
  N      -1.921245      0.179741      0.312422
  C      -0.793649      0.003128     -0.608629
  C       0.522692     -0.267054      0.098021
  H      -0.696914      0.904229     -1.219382
  H      -1.018542     -0.825015     -1.284671
  H       0.441377     -1.182763      0.692996
  H       0.756338      0.562572      0.773549
  H      -2.018646     -0.654790      0.884251
  H      -1.704539      0.932457      0.960172
  H       2.388601     -0.575494     -0.430626
  O      -4.849475     -0.731091     -1.039489
  C      -4.147627     -0.255255     -1.830753
  O      -3.461686      0.216614     -2.638088
14
Coordinates from ORCA-job ./orca E -398.985966474461
  O       1.558445     -0.408807     -0.892912
  N      -1.939997      0.179447      0.300826
  C      -0.790760      0.003900     -0.606784
  C       0.526591     -0.267610      0.097480
  H      -0.689102      0.906666     -1.218770
  H      -1.012993     -0.825132     -1.282111
  H       0.445955     -1.184122      0.691312
  H       0.761795      0.561107      0.773585
  H      -2.027823     -0.660977      0.888771
  H      -1.727109      0.934704      0.946900
  H       2.391392     -0.576724     -0.434681
  O      -4.852186     -0.729308     -1.037763
  C      -4.132319     -0.252755     -1.811537
  O      -3.458871      0.218297     -2.634998
14
Coordinates from ORCA-job ./orca E -398.986256803477
  O       1.552942     -0.408637     -0.891068
  N      -1.935656      0.176832      0.297268
  C      -0.792808      0.002723     -0.608936
  C       0.521828     -0.267656      0.099270
  H      -0.692203      0.905194     -1.217254
  H      -1.012777     -0.825154     -1.286889
  H       0.441009     -1.184159      0.693131
  H       0.756483      0.561452      0.775148
  H      -2.021026     -0.654107      0.876489
  H      -1.722779      0.931718      0.944794
  H       2.385794     -0.576088     -0.432557
  O      -4.841931     -0.730036     -1.029596
  C      -4.131375     -0.252861     -1.812076
  O      -3.454483      0.219467     -2.628405
14
Coordinates from ORCA-job ./orca E -398.986301350857
  O       1.552343     -0.408787     -0.889263
  N      -1.933316      0.175711      0.295584
  C      -0.794180      0.002308     -0.612098
  C       0.519155     -0.267419      0.099160
  H      -0.693703      0.904829     -1.219727
  H      -1.012553     -0.825089     -1.291482
  H       0.437502     -1.183523      0.693596
  H       0.752450      0.561977      0.775151
  H      -2.020512     -0.655044      0.873267
  H      -1.721324      0.930733      0.943286
  H       2.384523     -0.575760     -0.429271
  O      -4.834892     -0.729558     -1.023064
  C      -4.131152     -0.252180     -1.811921
  O      -3.451323      0.220488     -2.623898
14
Coordinates from ORCA-job ./orca E -398.986320204427
  O       1.554003     -0.408579     -0.887385
  N      -1.931571      0.175162      0.294998
  C      -0.794942      0.001942     -0.615204
  C       0.517674     -0.267420      0.098279
  H      -0.694525      0.904451     -1.223148
  H      -1.012517     -0.825246     -1.295092
  H       0.434990     -1.183320      0.692863
  H       0.749030      0.561991      0.774867
  H      -2.021963     -0.656613      0.871945
  H      -1.720627      0.930337      0.942478
  H       2.385163     -0.574966     -0.425318
  O      -4.830754     -0.728804     -1.018147
  C      -4.131203     -0.251521     -1.810877
  O      -3.449740      0.221270     -2.620939
14
Coordinates from ORCA-job ./orca E -398.986326484007
  O       1.555653     -0.408048     -0.886222
  N      -1.930443      0.175142      0.295004
  C      -0.794984      0.001644     -0.616805
  C       0.517327     -0.267614      0.097599
  H      -0.694739      0.903967     -1.225212
  H      -1.012729     -0.825653     -1.296377
  H       0.434024     -1.183665      0.691832
  H       0.747244      0.561673      0.774812
  H      -2.023380     -0.657253      0.871072
  H      -1.719997      0.930384      0.942286
  H       2.386092     -0.573972     -0.422728
  O      -4.829927     -0.728318     -1.016210
  C      -4.131269     -0.251154     -1.809702
  O      -3.449853      0.221552     -2.620030
14
Coordinates from ORCA-job ./orca E -398.986327949437
  O       1.557676     -0.407055     -0.884896
  N      -1.928968      0.175430      0.294978
  C      -0.794684      0.001200     -0.618309
  C       0.517287     -0.267969      0.096940
  H      -0.694747      0.903127     -1.227389
  H      -1.013188     -0.826473     -1.297041
  H       0.433384     -1.184446      0.690399
  H       0.745417      0.561099      0.775029
  H      -2.025401     -0.657692      0.869394
  H      -1.718861      0.930592      0.942167
  H       2.387335     -0.572366     -0.419809
  O      -4.830032     -0.727760     -1.014589
  C      -4.131407     -0.250748     -1.808065
  O      -3.450792      0.221748     -2.619488
14
Coordinates from ORCA-job ./orca E -398.986335496831
  O       1.558742     -0.406286     -0.884234
  N      -1.928137      0.175909      0.294737
  C      -0.794239      0.000906     -0.618804
  C       0.517546     -0.268213      0.096801
  H      -0.694446      0.902463     -1.228396
  H      -1.013509     -0.827153     -1.296781
  H       0.433471     -1.185070      0.689643
  H       0.744708      0.560702      0.775418
  H      -2.027068     -0.657737      0.867662
  H      -1.717981      0.930709      0.942210
  H       2.388090     -0.571256     -0.418470
  O      -4.830637     -0.727546     -1.013958
  C      -4.131665     -0.250545     -1.807108
  O      -3.451858      0.221805     -2.619401
14
Coordinates from ORCA-job ./orca E -398.986338009037
  O       1.559625     -0.405530     -0.883707
  N      -1.927507      0.176729      0.294124
  C      -0.793532      0.000657     -0.618930
  C       0.518071     -0.268391      0.096968
  H      -0.693687      0.901718     -1.229179
  H      -1.013684     -0.827878     -1.296046
  H       0.434016     -1.185618      0.689240
  H       0.744501      0.560418      0.775972
  H      -2.029509     -0.657676      0.865012
  H      -1.717030      0.930609      0.942507
  H       2.388843     -0.570270     -0.417612
  O      -4.831469     -0.727572     -1.013397
  C      -4.132263     -0.250428     -1.806290
  O      -3.453358      0.221917     -2.619343
14
Coordinates from ORCA-job ./orca E -398.986327283132
  O       1.560641     -0.404775     -0.883084
  N      -1.926993      0.178145      0.292832
  C      -0.792381      0.000474     -0.618858
  C       0.518952     -0.268444      0.097464
  H      -0.692081      0.900779     -1.230114
  H      -1.013510     -0.828670     -1.294935
  H       0.435072     -1.185976      0.689284
  H       0.744763      0.560343      0.776712
  H      -2.033714     -0.657584      0.860505
  H      -1.715741      0.929958      0.943310
  H       2.389812     -0.569409     -0.416856
  O      -4.832494     -0.727974     -1.012430
  C      -4.133556     -0.250416     -1.805397
  O      -3.455750      0.222235     -2.619113
14
Coordinates from ORCA-job ./orca E -398.986340245741
  O       1.561824     -0.404380     -0.882241
  N      -1.926677      0.180253      0.290623
  C      -0.790729      0.000542     -0.618731
  C       0.520169     -0.268174      0.098324
  H      -0.689297      0.899848     -1.231332
  H      -1.012589     -0.829261     -1.293797
  H       0.436501     -1.185696      0.690181
  H       0.745660      0.560832      0.777414
  H      -2.040182     -0.657601      0.853580
  H      -1.713940      0.928255      0.944997
  H       2.390970     -0.569185     -0.416022
  O      -4.833494     -0.729095     -1.010748
  C      -4.135851     -0.250603     -1.804387
  O      -3.459348      0.222952     -2.618544
14
Coordinates from ORCA-job ./orca E -398.986345154173
  O       1.562716     -0.404918     -0.881364
  N      -1.926732      0.182290      0.288184
  C      -0.789202      0.001063     -0.618771
  C       0.521172     -0.267485      0.099219
  H      -0.686155      0.899601     -1.232389
  H      -1.010869     -0.829072     -1.293510
  H       0.437476     -1.184419      0.691968
  H       0.746976      0.562055      0.777550
  H      -2.046549     -0.657852      0.846527
  H      -1.712044      0.925651      0.947248
  H       2.391784     -0.570252     -0.415182
  O      -4.833970     -0.730826     -1.008797
  C      -4.138484     -0.251064     -1.803587
  O      -3.463101      0.223915     -2.617776
14
Coordinates from ORCA-job ./orca E -398.986350382736
  O       1.563488     -0.406310     -0.880275
  N      -1.926863      0.184070      0.285813
  C      -0.787975      0.002025     -0.619301
  C       0.521753     -0.266505      0.099909
  H      -0.683040      0.900173     -1.233380
  H      -1.008552     -0.828096     -1.294389
  H       0.437503     -1.182374      0.694220
  H       0.748215      0.563787      0.777094
  H      -2.051926     -0.658323      0.839948
  H      -1.709806      0.922406      0.949818
  H       2.392232     -0.572363     -0.413798
  O      -4.833954     -0.733014     -1.006619
  C      -4.141146     -0.251734     -1.802769
  O      -3.466912      0.224944     -2.616952
14
Coordinates from ORCA-job ./orca E -398.986344988438
  O       1.563887     -0.407582     -0.879439
  N      -1.926821      0.184839      0.284708
  C      -0.787578      0.002890     -0.620079
  C       0.521677     -0.265889      0.100043
  H      -0.681554      0.901196     -1.233838
  H      -1.007031     -0.826983     -1.295791
  H       0.436551     -1.180974      0.695449
  H       0.748582      0.564853      0.776528
  H      -2.053579     -0.658683      0.837001
  H      -1.708135      0.920430      0.951281
  H       2.392216     -0.574042     -0.412392
  O      -4.833714     -0.734416     -1.005322
  C      -4.142423     -0.252293     -1.802198
  O      -3.469059      0.225341     -2.616630
14
Coordinates from ORCA-job ./orca E -398.985522307152
  O       1.565281     -0.407938     -0.882255
  N      -1.946983      0.183862      0.272445
  C      -0.785617      0.003224     -0.619734
  C       0.524354     -0.266703      0.098659
  H      -0.674248      0.903435     -1.234373
  H      -1.001574     -0.827856     -1.294545
  H       0.439766     -1.182624      0.692856
  H       0.752377      0.563155      0.775854
  H      -2.063862     -0.666194      0.840311
  H      -1.721169      0.932360      0.953807
  H       2.394099     -0.575316     -0.416401
  O      -4.836479     -0.734877     -1.006198
  C      -4.126730     -0.251493     -1.785339
  O      -3.466198      0.225651     -2.615769
14
Coordinates from ORCA-job ./orca E -398.986082117463
  O       1.559972     -0.407911     -0.879618
  N      -1.941687      0.182922      0.269811
  C      -0.787709      0.003153     -0.621229
  C       0.519553     -0.265884      0.100907
  H      -0.677562      0.902826     -1.232364
  H      -1.002068     -0.827038     -1.298150
  H       0.434178     -1.181408      0.695635
  H       0.747233      0.564638      0.777441
  H      -2.054486     -0.657562      0.830784
  H      -1.719119      0.916079      0.938626
  H       2.388516     -0.574816     -0.413176
  O      -4.825938     -0.733582     -0.996296
  C      -4.125402     -0.250315     -1.784210
  O      -3.462464      0.227586     -2.608842
14
Coordinates from ORCA-job ./orca E -398.986131892302
  O       1.559537     -0.408087     -0.878014
  N      -1.939493      0.182223      0.269059
  C      -0.789114      0.002905     -0.624191
  C       0.517061     -0.265941      0.100539
  H      -0.679230      0.902912     -1.234479
  H      -1.002139     -0.826569     -1.302591
  H       0.430631     -1.181301      0.695441
  H       0.743521      0.564565      0.777526
  H      -2.053141     -0.658517      0.828749
  H      -1.718760      0.915974      0.936710
  H       2.387350     -0.574606     -0.410059
  O      -4.819227     -0.733284     -0.990520
  C      -4.124608     -0.249753     -1.783738
  O      -3.459370      0.228166     -2.605113
14
Coordinates from ORCA-job ./orca E -398.986163380551
  O       1.561021     -0.407905     -0.875587
  N      -1.936642      0.181388      0.268963
  C      -0.790681      0.002596     -0.628645
  C       0.514336     -0.266442      0.099129
  H      -0.681166      0.903071     -1.238450
  H      -1.002636     -0.825995     -1.308394
  H       0.426046     -1.181910      0.693596
  H       0.738285      0.563584      0.777478
  H      -2.053050     -0.660206      0.827100
  H      -1.718726      0.917731      0.935497
  H       2.387361     -0.573774     -0.404788
  O      -4.811776     -0.732713     -0.983380
  C      -4.123416     -0.249415     -1.782314
  O      -3.455937      0.228676     -2.600887
14
Coordinates from ORCA-job ./orca E -398.986169863397
  O       1.562157     -0.407492     -0.874835
  N      -1.935596      0.181403      0.269391
  C      -0.790811      0.002648     -0.629818
  C       0.513950     -0.266851      0.098447
  H      -0.681541      0.903138     -1.239681
  H      -1.003240     -0.825846     -1.309423
  H       0.424922     -1.182702      0.692190
  H       0.736888      0.562760      0.777619
  H      -2.053653     -0.660346      0.826878
  H      -1.718739      0.918733      0.935173
  H       2.387905     -0.573144     -0.402958
  O      -4.810762     -0.732670     -0.982031
  C      -4.122882     -0.249446     -1.781329
  O      -3.455578      0.228504     -2.600303
14
Coordinates from ORCA-job ./orca E -398.986170800276
  O       1.563742     -0.406605     -0.874012
  N      -1.934043      0.181827      0.270097
  C      -0.790660      0.002905     -0.630918
  C       0.513800     -0.267646      0.097600
  H      -0.681811      0.903339     -1.240876
  H      -1.004517     -0.825579     -1.309973
  H       0.423783     -1.184401      0.689759
  H       0.735439      0.561127      0.778222
  H      -2.054871     -0.660023      0.826509
  H      -1.718723      0.920540      0.934604
  H       2.388775     -0.572057     -0.400845
  O      -4.810321     -0.732813     -0.980950
  C      -4.121947     -0.249794     -1.779802
  O      -3.455627      0.227867     -2.600097
14
Coordinates from ORCA-job ./orca E -398.986177170583
  O       1.563948     -0.406295     -0.874038
  N      -1.933725      0.182304      0.270211
  C      -0.790455      0.003163     -0.630790
  C       0.513961     -0.267984      0.097553
  H      -0.681636      0.903593     -1.240713
  H      -1.005049     -0.825275     -1.309688
  H       0.423749     -1.185180      0.688995
  H       0.735512      0.560378      0.778713
  H      -2.055495     -0.659553      0.826270
  H      -1.718871      0.921298      0.934415
  H       2.388949     -0.571858     -0.400852
  O      -4.810433     -0.733157     -0.980984
  C      -4.121648     -0.250142     -1.779495
  O      -3.455789      0.227394     -2.600277
14
Coordinates from ORCA-job ./orca E -398.985312565042
  O       1.565387     -0.406683     -0.876780
  N      -1.953860      0.181299      0.257976
  C      -0.788475      0.003519     -0.630548
  C       0.516608     -0.268772      0.096174
  H      -0.674351      0.905881     -1.241377
  H      -0.999587     -0.826127     -1.308560
  H       0.426890     -1.186796      0.686408
  H       0.739242      0.558712      0.778049
  H      -2.065719     -0.667140      0.829608
  H      -1.731909      0.933232      0.936903
  H       2.390849     -0.573172     -0.404721
  O      -4.813187     -0.733606     -0.981790
  C      -4.105910     -0.249356     -1.762639
  O      -3.452961      0.227697     -2.599383
14
Coordinates from ORCA-job ./orca E -398.985874363579
  O       1.559720     -0.406518     -0.874606
  N      -1.948753      0.180543      0.255276
  C      -0.790491      0.003339     -0.631416
  C       0.512029     -0.267974      0.098647
  H      -0.677474      0.904992     -1.238923
  H      -1.000314     -0.825343     -1.311523
  H       0.422014     -1.185659      0.689387
  H       0.734646      0.560135      0.779792
  H      -2.057129     -0.658214      0.819885
  H      -1.730296      0.917074      0.921854
  H       2.385202     -0.572687     -0.402521
  O      -4.802658     -0.732472     -0.972282
  C      -4.104532     -0.248169     -1.761773
  O      -3.448946      0.229640     -2.592478
14
Coordinates from ORCA-job ./orca E -398.985923715809
  O       1.559040     -0.406619     -0.873383
  N      -1.946778      0.180025      0.254477
  C      -0.791800      0.003046     -0.633832
  C       0.509794     -0.268028      0.098448
  H      -0.678929      0.904900     -1.240701
  H      -1.000515     -0.824873     -1.315405
  H       0.419150     -1.185574      0.689384
  H       0.731482      0.560057      0.779952
  H      -2.056566     -0.658985      0.817734
  H      -1.730510      0.917118      0.920052
  H       2.384003     -0.572625     -0.400254
  O      -4.795995     -0.732337     -0.966866
  C      -4.103714     -0.247694     -1.761546
  O      -3.445644      0.230277     -2.588740
14
Coordinates from ORCA-job ./orca E -398.985955542485
  O       1.560117     -0.406431     -0.871559
  N      -1.944271      0.179497      0.254329
  C      -0.793199      0.002748     -0.637433
  C       0.507491     -0.268462      0.097294
  H      -0.680505      0.904866     -1.244143
  H      -1.001112     -0.824227     -1.320363
  H       0.415610     -1.186084      0.687921
  H       0.727194      0.559187      0.779909
  H      -2.057799     -0.660395      0.815810
  H      -1.731454      0.919024      0.919099
  H       2.383904     -0.572269     -0.396311
  O      -4.788569     -0.732204     -0.960319
  C      -4.102487     -0.247513     -1.760475
  O      -3.441901      0.230949     -2.584439
14
Coordinates from ORCA-job ./orca E -398.985960988928
  O       1.561124     -0.406097     -0.870977
  N      -1.943257      0.179624      0.254745
  C      -0.793297      0.002846     -0.638402
  C       0.507211     -0.268799      0.096671
  H      -0.680776      0.904911     -1.245279
  H      -1.001705     -0.823999     -1.321239
  H       0.414754     -1.186727      0.686706
  H       0.726089      0.558501      0.779959
  H      -2.059018     -0.660511      0.815312
  H      -1.731857      0.920067      0.918930
  H       2.384369     -0.571996     -0.394849
  O      -4.787356     -0.732446     -0.959038
  C      -4.101893     -0.247634     -1.759555
  O      -3.441370      0.230948     -2.583663
14
Coordinates from ORCA-job ./orca E -398.985962740745
  O       1.562678     -0.405336     -0.870334
  N      -1.941573      0.180303      0.255516
  C      -0.793072      0.003243     -0.639303
  C       0.507241     -0.269486      0.095830
  H      -0.680883      0.905132     -1.246471
  H      -1.003020     -0.823572     -1.321597
  H       0.413907     -1.188210      0.684441
  H       0.725025      0.557062      0.780378
  H      -2.061488     -0.660163      0.814313
  H      -1.732403      0.922041      0.918674
  H       2.385190     -0.571559     -0.393096
  O      -4.786583     -0.733234     -0.958027
  C      -4.100775     -0.248159     -1.757921
  O      -3.441226      0.230625     -2.583085
14
Coordinates from ORCA-job ./orca E -398.985970404571
  O       1.562923     -0.405069     -0.870414
  N      -1.941153      0.180962      0.255661
  C      -0.792800      0.003600     -0.639091
  C       0.507511     -0.269776      0.095782
  H      -0.680612      0.905430     -1.246298
  H      -1.003589     -0.823203     -1.321159
  H       0.413962     -1.188912      0.683706
  H       0.725279      0.556387      0.780814
  H      -2.062708     -0.659651      0.813695
  H      -1.732640      0.922869      0.918653
  H       2.385377     -0.571663     -0.393201
  O      -4.786685     -0.733944     -0.958167
  C      -4.100388     -0.248622     -1.757502
  O      -3.441458      0.230280     -2.583159
14
Coordinates from ORCA-job ./orca E -398.985063843613
  O       1.564400     -0.405481     -0.873094
  N      -1.961270      0.179919      0.243469
  C      -0.790802      0.003960     -0.638939
  C       0.510136     -0.270543      0.094405
  H      -0.673333      0.907747     -1.247084
  H      -0.998120     -0.824059     -1.320128
  H       0.417050     -1.190496      0.681127
  H       0.728950      0.554754      0.780149
  H      -2.072890     -0.667290      0.817052
  H      -1.745725      0.934790      0.921129
  H       2.387291     -0.572998     -0.396956
  O      -4.789426     -0.734361     -0.958921
  C      -4.084588     -0.247826     -1.740663
  O      -3.438655      0.230571     -2.582225
14
Coordinates from ORCA-job ./orca E -398.985622667410
  O       1.558725     -0.405419     -0.870928
  N      -1.956067      0.179081      0.240702
  C      -0.792829      0.003663     -0.639739
  C       0.505596     -0.269685      0.096889
  H      -0.676477      0.906681     -1.244552
  H      -0.998907     -0.823422     -1.322925
  H       0.412288     -1.189125      0.684392
  H       0.724422      0.556434      0.781673
  H      -2.064343     -0.658505      0.807086
  H      -1.743664      0.918317      0.906249
  H       2.381672     -0.572372     -0.394726
  O      -4.779182     -0.733268     -0.949673
  C      -4.083337     -0.246338     -1.739694
  O      -3.434878      0.232644     -2.575434
14
Coordinates from ORCA-job ./orca E -398.985670663059
  O       1.558117     -0.405594     -0.869660
  N      -1.954073      0.178466      0.239807
  C      -0.794090      0.003244     -0.642132
  C       0.503444     -0.269680      0.096704
  H      -0.677881      0.906424     -1.246365
  H      -0.999050     -0.823143     -1.326691
  H       0.409579     -1.188836      0.684642
  H       0.721289      0.556592      0.781653
  H      -2.063914     -0.659459      0.804731
  H      -1.743657      0.918064      0.904529
  H       2.380564     -0.572133     -0.392366
  O      -4.772826     -0.732985     -0.944367
  C      -4.082670     -0.245724     -1.739427
  O      -3.431815      0.233450     -2.571738
14
Coordinates from ORCA-job ./orca E -398.985702024492
  O       1.559303     -0.405548     -0.867714
  N      -1.951556      0.177776      0.239456
  C      -0.795388      0.002721     -0.645762
  C       0.501265     -0.270000      0.095596
  H      -0.679340      0.906075     -1.249982
  H      -0.999437     -0.822850     -1.331546
  H       0.406273     -1.188993      0.683619
  H       0.717016      0.556135      0.781322
  H      -2.065442     -0.661162      0.802346
  H      -1.744348      0.919418      0.903677
  H       2.380601     -0.571467     -0.388219
  O      -4.765749     -0.732609     -0.937817
  C      -4.081768     -0.245255     -1.738287
  O      -3.428413      0.234446     -2.567368
14
Coordinates from ORCA-job ./orca E -398.985707464893
  O       1.560381     -0.405280     -0.867044
  N      -1.950543      0.177822      0.239738
  C      -0.795404      0.002699     -0.646780
  C       0.501053     -0.270265      0.095012
  H      -0.679528      0.905931     -1.251274
  H      -0.999843     -0.822832     -1.332396
  H       0.405525     -1.189451      0.682620
  H       0.715911      0.555663      0.781252
  H      -2.066855     -0.661445      0.801545
  H      -1.744663      0.920178      0.903557
  H       2.381150     -0.571031     -0.386626
  O      -4.764698     -0.732712     -0.936460
  C      -4.081387     -0.245227     -1.737321
  O      -3.428080      0.234636     -2.566503
14
Coordinates from ORCA-job ./orca E -398.985709712653
  O       1.562203     -0.404622     -0.866148
  N      -1.948775      0.178345      0.240225
  C      -0.794986      0.002855     -0.647864
  C       0.501225     -0.270817      0.094231
  H      -0.679473      0.905749     -1.252906
  H      -1.000776     -0.822858     -1.332739
  H       0.404850     -1.190594      0.680725
  H       0.714796      0.554628      0.781456
  H      -2.069835     -0.661466      0.799798
  H      -1.745058      0.921638      0.903373
  H       2.382229     -0.570236     -0.384459
  O      -4.764246     -0.733245     -0.935192
  C      -4.080724     -0.245421     -1.735489
  O      -3.428411      0.234731     -2.565693
14
Coordinates from ORCA-job ./orca E -398.985717050639
  O       1.562654     -0.404360     -0.866060
  N      -1.948250      0.178947      0.240196
  C      -0.794575      0.003083     -0.647763
  C       0.501592     -0.271050      0.094217
  H      -0.679098      0.905817     -1.253005
  H      -1.001151     -0.822757     -1.332265
  H       0.405001     -1.191168      0.680134
  H       0.715014      0.554121      0.781829
  H      -2.071408     -0.661143      0.798682
  H      -1.745206      0.922240      0.903356
  H       2.382602     -0.570108     -0.384283
  O      -4.764582     -0.733827     -0.935173
  C      -4.080594     -0.245710     -1.734901
  O      -3.428983      0.234602     -2.565645
14
Coordinates from ORCA-job ./orca E -398.984771429429
  O       1.564171     -0.404800     -0.868675
  N      -1.968360      0.177872      0.228062
  C      -0.792561      0.003443     -0.647708
  C       0.504193     -0.271792      0.092842
  H      -0.671826      0.908154     -1.253925
  H      -0.995678     -0.823621     -1.331345
  H       0.408036     -1.192711      0.677572
  H       0.718621      0.552535      0.781156
  H      -2.081540     -0.668833      0.802042
  H      -1.758338      0.934134      0.905858
  H       2.384531     -0.571462     -0.387915
  O      -4.767309     -0.734210     -0.935870
  C      -4.064719     -0.244912     -1.718095
  O      -3.426203      0.234889     -2.564678
14
Coordinates from ORCA-job ./orca E -398.985327537720
  O       1.558555     -0.404870     -0.866449
  N      -1.963010      0.176769      0.225199
  C      -0.794579      0.002917     -0.648508
  C       0.499687     -0.270879      0.095332
  H      -0.675025      0.906777     -1.251427
  H      -0.996485     -0.823287     -1.333988
  H       0.403411     -1.191035      0.681235
  H       0.714086      0.554578      0.782345
  H      -2.072960     -0.660409      0.791851
  H      -1.755839      0.917239      0.891054
  H       2.379020     -0.570430     -0.385513
  O      -4.757431     -0.732896     -0.926813
  C      -4.063684     -0.242917     -1.716973
  O      -3.422727      0.237130     -2.558025
14
Coordinates from ORCA-job ./orca E -398.985374876211
  O       1.558103     -0.405110     -0.865051
  N      -1.960947      0.175864      0.224156
  C      -0.795767      0.002237     -0.650949
  C       0.497627     -0.270812      0.095167
  H      -0.676417      0.906195     -1.253396
  H      -0.996506     -0.823386     -1.337664
  H       0.400899     -1.190495      0.681820
  H       0.710900      0.555056      0.782083
  H      -2.072579     -0.661721      0.789248
  H      -1.755618      0.916540      0.889313
  H       2.378094     -0.569713     -0.382897
  O      -4.751507     -0.732136     -0.921499
  C      -4.063274     -0.241980     -1.716623
  O      -3.419990      0.238148     -2.554389
14
Coordinates from ORCA-job ./orca E -398.985406425861
  O       1.559594     -0.405162     -0.862814
  N      -1.958331      0.174639      0.223491
  C      -0.796902      0.001220     -0.654758
  C       0.495602     -0.271009      0.094106
  H      -0.677833      0.905213     -1.257431
  H      -0.996520     -0.823816     -1.342477
  H       0.397911     -1.190216      0.681361
  H       0.706460      0.555157      0.781371
  H      -2.074264     -0.664063      0.786316
  H      -1.756094      0.917084      0.888376
  H       2.378469     -0.568172     -0.378217
  O      -4.745032     -0.730871     -0.914700
  C      -4.062932     -0.240861     -1.715325
  O      -3.417111      0.239541     -2.549980
14
Coordinates from ORCA-job ./orca E -398.985412201113
  O       1.560878     -0.404911     -0.861956
  N      -1.957285      0.174380      0.223562
  C      -0.796786      0.000908     -0.655904
  C       0.495499     -0.271196      0.093570
  H      -0.677975      0.904682     -1.259023
  H      -0.996617     -0.824247     -1.343317
  H       0.397362     -1.190454      0.680646
  H       0.705262      0.554974      0.781145
  H      -2.075802     -0.664716      0.785159
  H      -1.756375      0.917409      0.888187
  H       2.379242     -0.567224     -0.376303
  O      -4.744344     -0.730418     -0.913123
  C      -4.062931     -0.240461     -1.714261
  O      -3.417110      0.239959     -2.549060
14
Coordinates from ORCA-job ./orca E -398.985415291993
  O       1.563248     -0.404226     -0.860590
  N      -1.955369      0.174224      0.223557
  C      -0.796031      0.000416     -0.657319
  C       0.495935     -0.271574      0.092888
  H      -0.677812      0.903609     -1.261404
  H      -0.996819     -0.825311     -1.343640
  H       0.397114     -1.191150      0.679307
  H       0.703912      0.554551      0.781058
  H      -2.079125     -0.665588      0.782517
  H      -1.756739      0.917955      0.887803
  H       2.380876     -0.565277     -0.373328
  O      -4.744759     -0.729706     -0.911307
  C      -4.063154     -0.239791     -1.712116
  O      -3.418259      0.240554     -2.548104
14
Coordinates from ORCA-job ./orca E -398.985422602824
  O       1.564137     -0.403865     -0.860171
  N      -1.954690      0.174423      0.223187
  C      -0.795365      0.000241     -0.657427
  C       0.496509     -0.271712      0.092941
  H      -0.677349      0.903103     -1.261999
  H      -0.996734     -0.825887     -1.343106
  H       0.397564     -1.191501      0.678994
  H       0.703990      0.554374      0.781315
  H      -2.080995     -0.665792      0.780738
  H      -1.756887      0.918037      0.887597
  H       2.381670     -0.564416     -0.372584
  O      -4.745756     -0.729503     -0.910935
  C      -4.063613     -0.239540     -1.711258
  O      -3.419465      0.240724     -2.547973
14
Coordinates from ORCA-job ./orca E -398.985419688652
  O       1.565103     -0.403533     -0.859753
  N      -1.954135      0.174912      0.222137
  C      -0.794218      0.000059     -0.657176
  C       0.497541     -0.271768      0.093389
  H      -0.676211      0.902465     -1.262401
  H      -0.996161     -0.826591     -1.342122
  H       0.398624     -1.191742      0.679152
  H       0.704753      0.554340      0.781830
  H      -2.083961     -0.666000      0.777580
  H      -1.757188      0.917758      0.887424
  H       2.382737     -0.563525     -0.372130
  O      -4.747436     -0.729370     -0.910435
  C      -4.064808     -0.239271     -1.710350
  O      -3.421622      0.240955     -2.547825
14
Coordinates from ORCA-job ./orca E -398.985411780736
  O       1.566195     -0.403410     -0.859195
  N      -1.953805      0.175613      0.220259
  C      -0.792653     -0.000129     -0.656789
  C       0.498897     -0.271641      0.094179
  H      -0.674234      0.901723     -1.262786
  H      -0.994790     -0.827284     -1.341141
  H       0.400128     -1.191591      0.680009
  H       0.706051      0.554653      0.782412
  H      -2.088055     -0.666343      0.772866
  H      -1.757576      0.916782      0.887455
  H       2.384034     -0.562782     -0.371695
  O      -4.749467     -0.729285     -0.909378
  C      -4.066978     -0.238968     -1.709409
  O      -3.424728      0.241349     -2.547467
14
Coordinates from ORCA-job ./orca E -398.985431096270
  O       1.567656     -0.403680     -0.858199
  N      -1.953664      0.176481      0.217185
  C      -0.790511     -0.000331     -0.656531
  C       0.500604     -0.271172      0.095337
  H      -0.670992      0.900848     -1.263438
  H      -0.992115     -0.827961     -1.340540
  H       0.402018     -1.190673      0.681913
  H       0.707831      0.555675      0.782876
  H      -2.093769     -0.667108      0.765732
  H      -1.757830      0.914531      0.887895
  H       2.385694     -0.562283     -0.370766
  O      -4.751921     -0.729154     -0.907222
  C      -4.070638     -0.238556     -1.708213
  O      -3.429344      0.242069     -2.546711
14
Coordinates from ORCA-job ./orca E -398.985438186403
  O       1.569356     -0.404383     -0.856669
  N      -1.953642      0.177176      0.213534
  C      -0.788338     -0.000512     -0.656871
  C       0.502098     -0.270367      0.096481
  H      -0.667125      0.900081     -1.264517
  H      -0.988499     -0.828450     -1.340961
  H       0.403529     -1.188935      0.684540
  H       0.709282      0.557420      0.782892
  H      -2.099574     -0.668356      0.757578
  H      -1.757338      0.911039      0.888799
  H       2.387344     -0.562153     -0.368877
  O      -4.754212     -0.728824     -0.904072
  C      -4.075153     -0.238026     -1.706829
  O      -3.434710      0.242976     -2.545707
14
Coordinates from ORCA-job ./orca E -398.985439859704
  O       1.571184     -0.405180     -0.854665
  N      -1.953476      0.177500      0.210134
  C      -0.786582     -0.000696     -0.658036
  C       0.502988     -0.269451      0.097256
  H      -0.663523      0.899507     -1.266071
  H      -0.984779     -0.828825     -1.342421
  H       0.404108     -1.186876      0.687065
  H       0.709648      0.559450      0.782481
  H      -2.104032     -0.669937      0.750027
  H      -1.755689      0.906954      0.889939
  H       2.388725     -0.562066     -0.365870
  O      -4.756067     -0.728072     -0.900443
  C      -4.079527     -0.237375     -1.705273
  O      -3.439960      0.243755     -2.544802
14
Coordinates from ORCA-job ./orca E -398.985439038174
  O       1.572979     -0.405614     -0.852473
  N      -1.953017      0.177514      0.207577
  C      -0.785417     -0.000897     -0.659803
  C       0.503234     -0.268729      0.097564
  H      -0.660878      0.899125     -1.267903
  H      -0.981814     -0.829245     -1.344356
  H       0.403731     -1.185240      0.688704
  H       0.708767      0.561110      0.782009
  H      -2.106455     -0.671501      0.744253
  H      -1.753029      0.903192      0.890936
  H       2.389778     -0.561605     -0.362183
  O      -4.757520     -0.726814     -0.897006
  C      -4.082943     -0.236657     -1.703672
  O      -3.444396      0.244046     -2.544328
14
Coordinates from ORCA-job ./orca E -398.985439161886
  O       1.574904     -0.405429     -0.850093
  N      -1.952222      0.177454      0.205575
  C      -0.784512     -0.001135     -0.661958
  C       0.503140     -0.268308      0.097603
  H      -0.658953      0.898800     -1.269988
  H      -0.979582     -0.829862     -1.346330
  H       0.402766     -1.184362      0.689312
  H       0.706931      0.562121      0.781879
  H      -2.107560     -0.672922      0.739586
  H      -1.749577      0.899916      0.891641
  H       2.390774     -0.560443     -0.357973
  O      -4.758987     -0.724945     -0.893656
  C      -4.085661     -0.235878     -1.701933
  O      -3.448444      0.243680     -2.544346
14
Coordinates from ORCA-job ./orca E -398.985444696081
  O       1.576506     -0.404621     -0.848208
  N      -1.951379      0.177543      0.204343
  C      -0.783824     -0.001282     -0.663691
  C       0.502987     -0.268339      0.097553
  H      -0.657976      0.898597     -1.271667
  H      -0.978539     -0.830453     -1.347557
  H       0.401801     -1.184623      0.688757
  H       0.705050      0.562059      0.782398
  H      -2.107751     -0.673702      0.736640
  H      -1.746664      0.898079      0.891790
  H       2.391625     -0.558873     -0.354610
  O      -4.760252     -0.723013     -0.891120
  C      -4.087265     -0.235332     -1.700524
  O      -3.451300      0.242648     -2.544787
14
Coordinates from ORCA-job ./orca E -398.985439462250
  O       1.578103     -0.403419     -0.846540
  N      -1.950583      0.177926      0.203066
  C      -0.782905     -0.001314     -0.665027
  C       0.503064     -0.268637      0.097648
  H      -0.657046      0.898450     -1.273070
  H      -0.977859     -0.830910     -1.348279
  H       0.401152     -1.185613      0.687638
  H       0.703540      0.561272      0.783555
  H      -2.108318     -0.674050      0.733717
  H      -1.744423      0.896957      0.891586
  H       2.392635     -0.557044     -0.351775
  O      -4.761618     -0.720993     -0.888606
  C      -4.088761     -0.235005     -1.699215
  O      -3.453963      0.241066     -2.545378
14
Coordinates from ORCA-job ./orca E -398.985437363347
  O       1.579502     -0.402170     -0.845203
  N      -1.950004      0.178555      0.201722
  C      -0.781831     -0.001098     -0.665895
  C       0.503312     -0.269072      0.097896
  H      -0.656017      0.898579     -1.273999
  H      -0.977327     -0.830878     -1.348769
  H       0.400789     -1.186980      0.686305
  H       0.702646      0.560015      0.785115
  H      -2.109212     -0.674014      0.730907
  H      -1.743142      0.896418      0.891185
  H       2.393627     -0.555509     -0.349668
  O      -4.762831     -0.719157     -0.886140
  C      -4.090211     -0.235020     -1.698136
  O      -3.456283      0.239018     -2.546001
14
Coordinates from ORCA-job ./orca E -398.985447397325
  O       1.580820     -0.401010     -0.843977
  N      -1.949586      0.179474      0.200118
  C      -0.780493     -0.000350     -0.666512
  C       0.503654     -0.269609      0.098288
  H      -0.654655      0.899412     -1.274428
  H      -0.976703     -0.829885     -1.349511
  H       0.400380     -1.188672      0.684731
  H       0.702319      0.558278      0.787128
  H      -2.110262     -0.673687      0.727852
  H      -1.742709      0.896268      0.890646
  H       2.394566     -0.554613     -0.347897
  O      -4.763904     -0.717412     -0.883257
  C      -4.091832     -0.235556     -1.697123
  O      -3.458576      0.236048     -2.546738
14
Coordinates from ORCA-job ./orca E -398.985447214575
  O       1.582434     -0.400091     -0.842394
  N      -1.949195      0.180859      0.197706
  C      -0.778560      0.001420     -0.667242
  C       0.504079     -0.270235      0.098857
  H      -0.652288      0.901679     -1.274313
  H      -0.975448     -0.827084     -1.351352
  H       0.399463     -1.190710      0.682813
  H       0.702517      0.555909      0.789828
  H      -2.111558     -0.673182      0.723491
  H      -1.742980      0.896148      0.889994
  H       2.395569     -0.554793     -0.345659
  O      -4.765092     -0.715478     -0.878925
  C      -4.094226     -0.236970     -1.695770
  O      -3.461698      0.231216     -2.547715
14
Coordinates from ORCA-job ./orca E -398.985445552995
  O       1.584702     -0.399597     -0.839962
  N      -1.948642      0.182939      0.193949
  C      -0.775718      0.004860     -0.668518
  C       0.504517     -0.270988      0.099580
  H      -0.648092      0.906392     -1.273429
  H      -0.972931     -0.821334     -1.355393
  H       0.397396     -1.193195      0.680311
  H       0.703110      0.552599      0.793524
  H      -2.113029     -0.672528      0.716872
  H      -1.743799      0.895833      0.889175
  H       2.396669     -0.556664     -0.342078
  O      -4.766691     -0.713122     -0.872062
  C      -4.097950     -0.239773     -1.693585
  O      -3.466524      0.223263     -2.549064
14
Coordinates from ORCA-job ./orca E -398.985457016640
  O       1.586400     -0.400253     -0.837900
  N      -1.948190      0.185007      0.190509
  C      -0.773226      0.009243     -0.669696
  C       0.504690     -0.271607      0.100084
  H      -0.643475      0.912757     -1.271236
  H      -0.970030     -0.813716     -1.360622
  H       0.394559     -1.195115      0.678178
  H       0.704242      0.549472      0.796710
  H      -2.113543     -0.671737      0.711157
  H      -1.745517      0.896008      0.888393
  H       2.397056     -0.560631     -0.338966
  O      -4.767951     -0.711891     -0.865590
  C      -4.101225     -0.243501     -1.691463
  O      -3.470772      0.214650     -2.550238
14
Coordinates from ORCA-job ./orca E -398.985458449862
  O       1.586812     -0.402537     -0.837031
  N      -1.948078      0.186783      0.188240
  C      -0.771745      0.014269     -0.670216
  C       0.504587     -0.272014      0.100198
  H      -0.638823      0.920611     -1.266882
  H      -0.967148     -0.804528     -1.366511
  H       0.391275     -1.196017      0.676924
  H       0.706288      0.547024      0.798637
  H      -2.112702     -0.670691      0.707998
  H      -1.748675      0.897275      0.887676
  H       2.396331     -0.567050     -0.337623
  O      -4.768784     -0.712675     -0.861119
  C      -4.103183     -0.248102     -1.689895
  O      -3.473137      0.206339     -2.551077
14
Coordinates from ORCA-job ./orca E -398.985461904749
  O       1.587615     -0.404501     -0.835655
  N      -1.947579      0.188828      0.185666
  C      -0.770103      0.019433     -0.671251
  C       0.504498     -0.272718      0.100257
  H      -0.633299      0.928948     -1.262232
  H      -0.963820     -0.795190     -1.372899
  H       0.387509     -1.197508      0.675050
  H       0.707615      0.544051      0.800987
  H      -2.111978     -0.669557      0.704082
  H      -1.750739      0.898609      0.886532
  H       2.395839     -0.572805     -0.335441
  O      -4.770708     -0.713014     -0.856130
  C      -4.105497     -0.252870     -1.687643
  O      -3.476335      0.196983     -2.552003
14
Coordinates from ORCA-job ./orca E -398.985470148706
  O       1.589270     -0.405222     -0.833459
  N      -1.946671      0.191258      0.182384
  C      -0.767915      0.024053     -0.672832
  C       0.504622     -0.273858      0.100503
  H      -0.627278      0.936443     -1.258421
  H      -0.960353     -0.787076     -1.378849
  H       0.383908     -1.200132      0.672181
  H       0.707892      0.540245      0.804321
  H      -2.112338     -0.668258      0.698463
  H      -1.751222      0.899719      0.884870
  H       2.396202     -0.576294     -0.332102
  O      -4.773733     -0.712167     -0.850198
  C      -4.108606     -0.257174     -1.684683
  O      -3.480759      0.187147     -2.552858
14
Coordinates from ORCA-job ./orca E -398.985474290825
  O       1.592929     -0.405043     -0.828961
  N      -1.944938      0.195231      0.176171
  C      -0.763646      0.030229     -0.675929
  C       0.505029     -0.275701      0.101245
  H      -0.618056      0.946017     -1.254872
  H      -0.954874     -0.776598     -1.387169
  H       0.378941     -1.204708      0.667333
  H       0.707347      0.534148      0.810242
  H      -2.114656     -0.666487      0.687222
  H      -1.750375      0.900253      0.882207
  H       2.397800     -0.579167     -0.325349
  O      -4.778655     -0.709707     -0.839716
  C      -4.114630     -0.262760     -1.679544
  O      -3.489198      0.172982     -2.553561
14
Coordinates from ORCA-job ./orca E -398.985476989419
  O       1.595596     -0.403717     -0.826660
  N      -1.944354      0.197719      0.171940
  C      -0.761069      0.031697     -0.676867
  C       0.506300     -0.277243      0.101990
  H      -0.610899      0.949236     -1.251788
  H      -0.951543     -0.773253     -1.390354
  H       0.378480     -1.208067      0.664703
  H       0.707011      0.530525      0.813810
  H      -2.119490     -0.664923      0.678806
  H      -1.749395      0.900410      0.880132
  H       2.400187     -0.577127     -0.322343
  O      -4.784133     -0.707034     -0.834107
  C      -4.119466     -0.264996     -1.676242
  O      -3.494207      0.165459     -2.553698
14
Coordinates from ORCA-job ./orca E -398.985481780225
  O       1.599782     -0.403224     -0.821136
  N      -1.942295      0.201973      0.164950
  C      -0.756058      0.038276     -0.680834
  C       0.506184     -0.278970      0.102839
  H      -0.602722      0.958353     -1.250765
  H      -0.946212     -0.762654     -1.398958
  H       0.372792     -1.212769      0.659292
  H       0.705753      0.524048      0.820307
  H      -2.121315     -0.663279      0.666452
  H      -1.748023      0.900177      0.877651
  H       2.401738     -0.580057     -0.313849
  O      -4.787381     -0.704541     -0.822280
  C      -4.125782     -0.270424     -1.670866
  O      -3.503444      0.151778     -2.553483
14
Coordinates from ORCA-job ./orca E -398.985483843155
  O       1.605661     -0.402483     -0.814029
  N      -1.939919      0.206800      0.155244
  C      -0.749570      0.044540     -0.685557
  C       0.506855     -0.280723      0.104151
  H      -0.590799      0.967311     -1.249629
  H      -0.938671     -0.751862     -1.408997
  H       0.367706     -1.217393      0.654329
  H       0.704210      0.517689      0.827331
  H      -2.126902     -0.661814      0.648184
  H      -1.745500      0.897838      0.874870
  H       2.404708     -0.581539     -0.302981
  O      -4.793261     -0.700890     -0.807555
  C      -4.135347     -0.275863     -1.663583
  O      -3.516153      0.137076     -2.552458
14
Coordinates from ORCA-job ./orca E -398.985493447569
  O       1.608268     -0.401577     -0.811893
  N      -1.939753      0.208559      0.151061
  C      -0.747016      0.045121     -0.686210
  C       0.507914     -0.281256      0.104902
  H      -0.585852      0.968102     -1.249392
  H      -0.935887     -0.750018     -1.411045
  H       0.368372     -1.218741      0.653559
  H       0.704421      0.516083      0.829462
  H      -2.131512     -0.661254      0.639650
  H      -1.745607      0.895754      0.874550
  H       2.406775     -0.580019     -0.299818
  O      -4.796272     -0.698352     -0.802344
  C      -4.140045     -0.276738     -1.661174
  O      -3.520788      0.133023     -2.551990
14
Coordinates from ORCA-job ./orca E -398.985487502518
  O       1.611247     -0.401394     -0.808583
  N      -1.938765      0.213048      0.145280
  C      -0.743185      0.050489     -0.687956
  C       0.508222     -0.283228      0.105439
  H      -0.577703      0.975905     -1.245825
  H      -0.931556     -0.740332     -1.417586
  H       0.364883     -1.223253      0.648729
  H       0.704483      0.509825      0.834741
  H      -2.133469     -0.658386      0.629373
  H      -1.747178      0.896919      0.872499
  H       2.408042     -0.582564     -0.294827
  O      -4.800235     -0.696266     -0.793660
  C      -4.145157     -0.282138     -1.656836
  O      -3.526611      0.120061     -2.551469
14
Coordinates from ORCA-job ./orca E -398.985489399328
  O       1.614997     -0.401519     -0.803977
  N      -1.937184      0.217864      0.138112
  C      -0.738498      0.057103     -0.690853
  C       0.508488     -0.284968      0.106055
  H      -0.567555      0.985470     -1.242159
  H      -0.925714     -0.728606     -1.426322
  H       0.360069     -1.227478      0.643652
  H       0.704077      0.503545      0.840475
  H      -2.135835     -0.656185      0.616101
  H      -1.747694      0.896715      0.870560
  H       2.409308     -0.586245     -0.287668
  O      -4.805322     -0.693387     -0.782560
  C      -4.151577     -0.288296     -1.651094
  O      -3.534542      0.104674     -2.551004
14
Coordinates from ORCA-job ./orca E -398.985486716189
  O       1.616887     -0.401843     -0.801780
  N      -1.936550      0.221097      0.134061
  C      -0.735826      0.062062     -0.691964
  C       0.508731     -0.285887      0.106343
  H      -0.561305      0.992514     -1.238612
  H      -0.922057     -0.719963     -1.431622
  H       0.356874     -1.229939      0.640246
  H       0.704626      0.499489      0.844053
  H      -2.136677     -0.654587      0.608325
  H      -1.749198      0.896865      0.869936
  H       2.409616     -0.590264     -0.284373
  O      -4.808509     -0.691203     -0.775971
  C      -4.155030     -0.292835     -1.647853
  O      -3.538564      0.093180     -2.551468
14
Coordinates from ORCA-job ./orca E -398.985488764468
  O       1.622477     -0.402262     -0.793865
  N      -1.933661      0.227837      0.123377
  C      -0.728468      0.073533     -0.697395
  C       0.508382     -0.287612      0.107190
  H      -0.547562      1.008175     -1.234640
  H      -0.912923     -0.700907     -1.445569
  H       0.347421     -1.235107      0.632219
  H       0.703094      0.490658      0.852715
  H      -2.139018     -0.652029      0.588085
  H      -1.748131      0.895129      0.867400
  H       2.410512     -0.598657     -0.272288
  O      -4.813942     -0.687117     -0.758345
  C      -4.163871     -0.302459     -1.638992
  O      -3.551291      0.069504     -2.550572
14
Coordinates from ORCA-job ./orca E -398.985487291070
  O       1.620574     -0.401801     -0.797087
  N      -1.935133      0.225830      0.126861
  C      -0.730869      0.070478     -0.694583
  C       0.509071     -0.286683      0.107035
  H      -0.551595      1.004080     -1.234212
  H      -0.915319     -0.705919     -1.440665
  H       0.350984     -1.233154      0.634774
  H       0.704824      0.493633      0.850148
  H      -2.139267     -0.652980      0.593620
  H      -1.749739      0.895134      0.869162
  H       2.410161     -0.597610     -0.277630
  O      -4.812632     -0.686540     -0.763494
  C      -4.161159     -0.299896     -1.642154
  O      -3.546884      0.074115     -2.552453
14
Coordinates from ORCA-job ./orca E -398.985494099930
  O       1.621504     -0.401285     -0.796045
  N      -1.934941      0.227259      0.124989
  C      -0.729517      0.073218     -0.694830
  C       0.509335     -0.286790      0.107268
  H      -0.548983      1.007975     -1.232004
  H      -0.913240     -0.701323     -1.443038
  H       0.349476     -1.234164      0.632836
  H       0.705206      0.491766      0.852206
  H      -2.140578     -0.652501      0.589092
  H      -1.750368      0.894607      0.869247
  H       2.410169     -0.600635     -0.276539
  O      -4.813437     -0.683964     -0.759490
  C      -4.162655     -0.302245     -1.640771
  O      -3.548953      0.066769     -2.553602
14
Coordinates from ORCA-job ./orca E -398.985495560325
  O       1.623342     -0.399306     -0.793807
  N      -1.934483      0.229742      0.121630
  C      -0.726958      0.078405     -0.695415
  C       0.509734     -0.286816      0.107765
  H      -0.544688      1.015579     -1.227720
  H      -0.909202     -0.692571     -1.447683
  H       0.346750     -1.236153      0.628795
  H       0.705362      0.488186      0.856499
  H      -2.143861     -0.651978      0.579977
  H      -1.750945      0.893182      0.869588
  H       2.409995     -0.606947     -0.274512
  O      -4.813598     -0.677495     -0.750815
  C      -4.165166     -0.306579     -1.638314
  O      -3.553265      0.051439     -2.556667
14
Coordinates from ORCA-job ./orca E -398.985496973382
  O       1.625464     -0.397308     -0.790956
  N      -1.933690      0.232454      0.117920
  C      -0.724187      0.083621     -0.696775
  C       0.509746     -0.287114      0.108174
  H      -0.539824      1.023170     -1.224147
  H      -0.905228     -0.683589     -1.453190
  H       0.343715     -1.238504      0.624454
  H       0.704584      0.484171      0.860976
  H      -2.146526     -0.651347      0.570768
  H      -1.750835      0.891804      0.869612
  H       2.409754     -0.612687     -0.271246
  O      -4.813802     -0.671419     -0.741743
  C      -4.167877     -0.310977     -1.635387
  O      -3.558278      0.036411     -2.559141
14
Coordinates from ORCA-job ./orca E -398.985497211180
  O       1.627536     -0.395734     -0.788203
  N      -1.932864      0.235292      0.114242
  C      -0.721565      0.088330     -0.698265
  C       0.509609     -0.287711      0.108470
  H      -0.534605      1.029907     -1.221109
  H      -0.901828     -0.675277     -1.458523
  H       0.340965     -1.241008      0.620344
  H       0.703565      0.480096      0.865079
  H      -2.148415     -0.650265      0.562519
  H      -1.750788      0.890952      0.869331
  H       2.409586     -0.617300     -0.267721
  O      -4.814564     -0.666804     -0.733827
  C      -4.170579     -0.315096     -1.632383
  O      -3.563037      0.023303     -2.560635
14
Coordinates from ORCA-job ./orca E -398.985497966502
  O       1.627273     -0.395147     -0.788782
  N      -1.933078      0.235148      0.114894
  C      -0.722098      0.087449     -0.697812
  C       0.509612     -0.287825      0.108399
  H      -0.534997      1.028805     -1.221041
  H      -0.902671     -0.676392     -1.457702
  H       0.342151     -1.241181      0.620540
  H       0.703385      0.480219      0.864821
  H      -2.148320     -0.650087      0.563822
  H      -1.751171      0.891383      0.869544
  H       2.409523     -0.616641     -0.268564
  O      -4.814154     -0.666629     -0.734749
  C      -4.169999     -0.314553     -1.632964
  O      -3.562438      0.024138     -2.561084
14
Coordinates from ORCA-job ./orca E -398.984588688842
  O       1.629656     -0.394587     -0.790860
  N      -1.953513      0.232771      0.105018
  C      -0.719909      0.085840     -0.699048
  C       0.512342     -0.288278      0.106874
  H      -0.531428      1.026918     -1.222616
  H      -0.894218     -0.679557     -1.458971
  H       0.346427     -1.242461      0.617983
  H       0.705590      0.479496      0.863704
  H      -2.158162     -0.656850      0.567273
  H      -1.764484      0.901179      0.875244
  H       2.412293     -0.615731     -0.271074
  O      -4.820324     -0.664509     -0.734529
  C      -4.151757     -0.310071     -1.618644
  O      -3.559495      0.024529     -2.561035
14
Coordinates from ORCA-job ./orca E -398.985130574920
  O       1.622870     -0.395047     -0.788602
  N      -1.946761      0.231822      0.101610
  C      -0.723085      0.086526     -0.699888
  C       0.506228     -0.287330      0.109100
  H      -0.535821      1.028733     -1.221025
  H      -0.897717     -0.678149     -1.460195
  H       0.339321     -1.240741      0.621233
  H       0.699917      0.481287      0.864916
  H      -2.146857     -0.652640      0.560012
  H      -1.759992      0.885951      0.857523
  H       2.405137     -0.616161     -0.268270
  O      -4.805308     -0.664390     -0.726331
  C      -4.150112     -0.308410     -1.616342
  O      -3.554803      0.027237     -2.554422
14
Coordinates from ORCA-job ./orca E -398.985180698452
  O       1.622253     -0.394845     -0.787098
  N      -1.944465      0.230815      0.100567
  C      -0.724755      0.086303     -0.702196
  C       0.503652     -0.287445      0.108635
  H      -0.537411      1.029017     -1.222700
  H      -0.898948     -0.677688     -1.463443
  H       0.336004     -1.240796      0.620719
  H       0.695980      0.481009      0.865033
  H      -2.145089     -0.653958      0.558003
  H      -1.759713      0.885762      0.855263
  H       2.403718     -0.615852     -0.265456
  O      -4.797641     -0.663226     -0.721240
  C      -4.149218     -0.308872     -1.615755
  O      -3.551349      0.028463     -2.551010
14
Coordinates from ORCA-job ./orca E -398.985216749817
  O       1.623371     -0.394124     -0.785285
  N      -1.942533      0.229772      0.100488
  C      -0.726100      0.085847     -0.705132
  C       0.501716     -0.287924      0.107336
  H      -0.538273      1.028704     -1.225461
  H      -0.900010     -0.677340     -1.467303
  H       0.333246     -1.241524      0.618722
  H       0.691682      0.479982      0.864880
  H      -2.145508     -0.655101      0.556791
  H      -1.761094      0.887361      0.854471
  H       2.403561     -0.615125     -0.261747
  O      -4.790835     -0.662327     -0.716029
  C      -4.148373     -0.308913     -1.614754
  O      -3.547831      0.029397     -2.547659
14
Coordinates from ORCA-job ./orca E -398.985208795358
  O       1.624355     -0.393331     -0.784683
  N      -1.941818      0.229475      0.100970
  C      -0.726193      0.085506     -0.706003
  C       0.501595     -0.288276      0.106719
  H      -0.538156      1.028184     -1.226519
  H      -0.900398     -0.677519     -1.468190
  H       0.333071     -1.242248      0.617379
  H       0.690356      0.479304      0.864878
  H      -2.146746     -0.655155      0.556692
  H      -1.762212      0.888409      0.854274
  H       2.404030     -0.614482     -0.260470
  O      -4.789916     -0.661912     -0.714807
  C      -4.147887     -0.308818     -1.614100
  O      -3.547065      0.029549     -2.546818
14
Coordinates from ORCA-job ./orca E -398.985212313409
  O       1.625586     -0.391953     -0.784194
  N      -1.940806      0.229276      0.101688
  C      -0.725993      0.084969     -0.706529
  C       0.501926     -0.288783      0.106177
  H      -0.537806      1.027336     -1.227441
  H      -0.901022     -0.678110     -1.468379
  H       0.333705     -1.243408      0.615675
  H       0.689234      0.478377      0.865108
  H      -2.148820     -0.654898      0.556465
  H      -1.763747      0.889995      0.853869
  H       2.404795     -0.613593     -0.259530
  O      -4.790135     -0.661635     -0.714256
  C      -4.147221     -0.308446     -1.613115
  O      -3.546678      0.029561     -2.546217
14
Coordinates from ORCA-job ./orca E -398.985217678382
  O       1.625984     -0.391157     -0.784209
  N      -1.940377      0.229323      0.101830
  C      -0.725769      0.084689     -0.706288
  C       0.502331     -0.288976      0.106208
  H      -0.537605      1.026917     -1.227454
  H      -0.901363     -0.678580     -1.467811
  H       0.334532     -1.243953      0.615168
  H       0.689184      0.478013      0.865433
  H      -2.149947     -0.654640      0.556069
  H      -1.764486      0.890737      0.853474
  H       2.405166     -0.613354     -0.259733
  O      -4.790814     -0.661623     -0.714515
  C      -4.147013     -0.308286     -1.612725
  O      -3.546804      0.029576     -2.546127
14
Coordinates from ORCA-job ./orca E -398.984262997899
  O       1.628364     -0.390608     -0.786295
  N      -1.960841      0.226961      0.092028
  C      -0.723573      0.083104     -0.707526
  C       0.505065     -0.289417      0.104682
  H      -0.534021      1.025063     -1.229022
  H      -0.892933     -0.681723     -1.469125
  H       0.338814     -1.245213      0.612616
  H       0.691408      0.477297      0.864311
  H      -2.159857     -0.661520      0.559594
  H      -1.777866      0.900578      0.859154
  H       2.407935     -0.612465     -0.262253
  O      -4.796970     -0.659477     -0.714298
  C      -4.128702     -0.303849     -1.598462
  O      -3.543805      0.029956     -2.546084
14
Coordinates from ORCA-job ./orca E -398.984803693354
  O       1.621172     -0.391255     -0.784447
  N      -1.954102      0.225944      0.088744
  C      -0.726712      0.083868     -0.707904
  C       0.499103     -0.288329      0.107132
  H      -0.538665      1.027006     -1.226996
  H      -0.896343     -0.680317     -1.469763
  H       0.331914     -1.243220      0.616364
  H       0.686390      0.479391      0.865471
  H      -2.148790     -0.657180      0.552151
  H      -1.773394      0.885252      0.841671
  H       2.400644     -0.613330     -0.260374
  O      -4.782299     -0.659533     -0.706786
  C      -4.126866     -0.302145     -1.596296
  O      -3.539034      0.032535     -2.539646
14
Coordinates from ORCA-job ./orca E -398.984852647573
  O       1.620336     -0.391286     -0.783259
  N      -1.951926      0.224842      0.087784
  C      -0.728330      0.083719     -0.709821
  C       0.496748     -0.288253      0.106820
  H      -0.540461      1.027395     -1.228318
  H      -0.897411     -0.679862     -1.472568
  H       0.328859     -1.242910      0.616338
  H       0.683124      0.479477      0.865434
  H      -2.147372     -0.658644      0.550036
  H      -1.773389      0.884959      0.839564
  H       2.399202     -0.613470     -0.258266
  O      -4.774983     -0.658442     -0.702183
  C      -4.125917     -0.302593     -1.595876
  O      -3.535464      0.033755     -2.536366
14
Coordinates from ORCA-job ./orca E -398.984887558464
  O       1.621175     -0.390928     -0.781827
  N      -1.950135      0.223588      0.087782
  C      -0.729657      0.083330     -0.712305
  C       0.495071     -0.288428      0.105694
  H      -0.541669      1.027190     -1.230692
  H      -0.898216     -0.679540     -1.475957
  H       0.326404     -1.243047      0.615064
  H       0.679675      0.479044      0.864995
  H      -2.148293     -0.660103      0.548549
  H      -1.775279      0.886249      0.838913
  H       2.398984     -0.613352     -0.255377
  O      -4.768401     -0.657520     -0.697401
  C      -4.125038     -0.302589     -1.595095
  O      -3.531602      0.034791     -2.533022
14
Coordinates from ORCA-job ./orca E -398.984891329643
  O       1.622080     -0.390327     -0.781388
  N      -1.949475      0.223117      0.088313
  C      -0.729756      0.082976     -0.713014
  C       0.495081     -0.288605      0.105120
  H      -0.541742      1.026659     -1.231666
  H      -0.898440     -0.679783     -1.476684
  H       0.326388     -1.243424      0.614097
  H       0.678725      0.478725      0.864778
  H      -2.149846     -0.660406      0.548241
  H      -1.776743      0.887060      0.838847
  H       2.399446     -0.612959     -0.254399
  O      -4.767543     -0.656995     -0.696298
  C      -4.124566     -0.302399     -1.594526
  O      -3.530591      0.035047     -2.532101
14
Coordinates from ORCA-job ./orca E -398.984893182690
  O       1.623278     -0.389152     -0.781103
  N      -1.948498      0.222602      0.089131
  C      -0.729539      0.082336     -0.713345
  C       0.495643     -0.288860      0.104611
  H      -0.541650      1.025668     -1.232583
  H      -0.898808     -0.680599     -1.476620
  H       0.327337     -1.244092      0.612909
  H       0.678092      0.478342      0.864676
  H      -2.152452     -0.660588      0.547652
  H      -1.778804      0.888227      0.838689
  H       2.400259     -0.612249     -0.253790
  O      -4.768019     -0.656380     -0.695917
  C      -4.123936     -0.301793     -1.593610
  O      -3.529886      0.035224     -2.531379
14
Coordinates from ORCA-job ./orca E -398.984890217743
  O       1.623712     -0.388379     -0.781219
  N      -1.948047      0.222434      0.089332
  C      -0.729279      0.081919     -0.712995
  C       0.496215     -0.288927      0.104675
  H      -0.541579      1.025050     -1.232657
  H      -0.899020     -0.681335     -1.475836
  H       0.328447     -1.244401      0.612681
  H       0.678275      0.478284      0.864832
  H      -2.153908     -0.660615      0.547001
  H      -1.779800      0.888678      0.838448
  H       2.400743     -0.611915     -0.254146
  O      -4.769045     -0.656031     -0.696329
  C      -4.123776     -0.301393     -1.593210
  O      -3.529920      0.035319     -2.531257
14
Coordinates from ORCA-job ./orca E -398.983899827113
  O       1.626089     -0.387846     -0.783313
  N      -1.968539      0.220102      0.079606
  C      -0.727072      0.080373     -0.714236
  C       0.498952     -0.289354      0.103147
  H      -0.537981      1.023245     -1.234222
  H      -0.890603     -0.684441     -1.477190
  H       0.332719     -1.245641      0.610131
  H       0.680521      0.477577      0.863703
  H      -2.163886     -0.667603      0.550587
  H      -1.793257      0.898553      0.844118
  H       2.403508     -0.611060     -0.256676
  O      -4.775177     -0.653868     -0.696131
  C      -4.105392     -0.297025     -1.578994
  O      -3.526866      0.035675     -2.531211
14
Coordinates from ORCA-job ./orca E -398.984436495598
  O       1.618744     -0.388562     -0.781632
  N      -1.961722      0.218974      0.076479
  C      -0.730238      0.081062     -0.714489
  C       0.493012     -0.288232      0.105646
  H      -0.542736      1.025069     -1.232159
  H      -0.894063     -0.683169     -1.477546
  H       0.325934     -1.243528      0.614109
  H       0.675653      0.479861      0.864736
  H      -2.152767     -0.663207      0.543159
  H      -1.788537      0.883015      0.826989
  H       2.396187     -0.611825     -0.255079
  O      -4.760860     -0.653842     -0.689044
  C      -4.103402     -0.295105     -1.576834
  O      -3.522188      0.038175     -2.525015
14
Coordinates from ORCA-job ./orca E -398.984484442794
  O       1.617856     -0.388678     -0.780537
  N      -1.959536      0.217721      0.075597
  C      -0.731868      0.080822     -0.716308
  C       0.490720     -0.288085      0.105371
  H      -0.544634      1.025339     -1.233461
  H      -0.895141     -0.682887     -1.480158
  H       0.323021     -1.243045      0.614333
  H       0.672550      0.480176      0.864538
  H      -2.151338     -0.664860      0.541070
  H      -1.788482      0.882479      0.825044
  H       2.394791     -0.611816     -0.253115
  O      -4.753835     -0.652537     -0.684687
  C      -4.102421     -0.295367     -1.576462
  O      -3.518666      0.039426     -2.521905
14
Coordinates from ORCA-job ./orca E -398.984504633970
  O       1.618654     -0.388420     -0.779180
  N      -1.957737      0.216150      0.075661
  C      -0.733254      0.080226     -0.718722
  C       0.489105     -0.288145      0.104276
  H      -0.546055      1.024891     -1.235900
  H      -0.895948     -0.682900     -1.483361
  H       0.320757     -1.242913      0.613426
  H       0.669236      0.480101      0.863849
  H      -2.152251     -0.666708      0.539543
  H      -1.790382      0.883299      0.824518
  H       2.394660     -0.611347     -0.250307
  O      -4.747464     -0.651088     -0.680042
  C      -4.101558     -0.295056     -1.575768
  O      -3.514744      0.040595     -2.518673
14
Coordinates from ORCA-job ./orca E -398.984517006140
  O       1.619543     -0.387880     -0.778795
  N      -1.957121      0.215454      0.076235
  C      -0.733366      0.079705     -0.719385
  C       0.489187     -0.288249      0.103725
  H      -0.546254      1.024158     -1.236936
  H      -0.896125     -0.683407     -1.483962
  H       0.320915     -1.243115      0.612704
  H       0.668394      0.480022      0.863470
  H      -2.153825     -0.667287      0.539218
  H      -1.791880      0.883781      0.824550
  H       2.395196     -0.610656     -0.249378
  O      -4.746789     -0.650183     -0.679034
  C      -4.101159     -0.294605     -1.575266
  O      -3.513699      0.040948     -2.517827
14
Coordinates from ORCA-job ./orca E -398.984515523135
  O       1.620793     -0.386733     -0.778565
  N      -1.956171      0.214466      0.077138
  C      -0.733191      0.078699     -0.719697
  C       0.489863     -0.288400      0.103218
  H      -0.546437      1.022723     -1.238062
  H      -0.896417     -0.684774     -1.483719
  H       0.322182     -1.243534      0.611870
  H       0.667825      0.480029      0.863085
  H      -2.156537     -0.668014      0.538558
  H      -1.794086      0.884399      0.824518
  H       2.396217     -0.609284     -0.248747
  O      -4.747501     -0.648733     -0.678702
  C      -4.100649     -0.293500     -1.574438
  O      -3.512874      0.041342     -2.517138
14
Coordinates from ORCA-job ./orca E -398.984522813368
  O       1.621249     -0.385981     -0.778727
  N      -1.955728      0.213938      0.077403
  C      -0.732940      0.078009     -0.719323
  C       0.490528     -0.288390      0.103299
  H      -0.546561      1.021775     -1.238284
  H      -0.896550     -0.685937     -1.482781
  H       0.323532     -1.243654      0.611917
  H       0.668073      0.480261      0.863044
  H      -2.158038     -0.668455      0.537870
  H      -1.795166      0.884457      0.824375
  H       2.396837     -0.608445     -0.249109
  O      -4.748776     -0.647780     -0.679195
  C      -4.100575     -0.292714     -1.574097
  O      -3.512867      0.041605     -2.517071
14
Coordinates from ORCA-job ./orca E -398.983504069667
  O       1.623620     -0.385472     -0.780830
  N      -1.976244      0.211665      0.067750
  C      -0.730719      0.076528     -0.720569
  C       0.493263     -0.288801      0.101765
  H      -0.542954      1.020044     -1.239846
  H      -0.888137     -0.688985     -1.484174
  H       0.327773     -1.244873      0.609362
  H       0.670346      0.479558      0.861912
  H      -2.168083     -0.675553      0.541510
  H      -1.808697      0.894372      0.830043
  H       2.399590     -0.607645     -0.251648
  O      -4.754871     -0.645617     -0.679019
  C      -4.082113     -0.288457     -1.559915
  O      -3.509756      0.041922     -2.517021
14
Coordinates from ORCA-job ./orca E -398.984037256160
  O       1.616207     -0.386178     -0.779247
  N      -1.969316      0.210460      0.064741
  C      -0.733902      0.077140     -0.720740
  C       0.487342     -0.287695      0.104280
  H      -0.547825      1.021754     -1.237779
  H      -0.891645     -0.687818     -1.484312
  H       0.321067     -1.242771      0.613382
  H       0.665539      0.481846      0.862935
  H      -2.156835     -0.671005      0.534161
  H      -1.803750      0.878788      0.813131
  H       2.392284     -0.608249     -0.250201
  O      -4.740927     -0.645515     -0.672272
  C      -4.079987     -0.286362     -1.557707
  O      -3.505236      0.044291     -2.511053
14
Coordinates from ORCA-job ./orca E -398.984089513662
  O       1.615322     -0.386293     -0.778185
  N      -1.967093      0.209088      0.063904
  C      -0.735527      0.076817     -0.722500
  C       0.485103     -0.287530      0.104024
  H      -0.549809      1.021923     -1.239088
  H      -0.892722     -0.687670     -1.486797
  H       0.318261     -1.242248      0.613688
  H       0.662518      0.482216      0.862695
  H      -2.155318     -0.672765      0.532175
  H      -1.803675      0.878166      0.811216
  H       2.390951     -0.608050     -0.248284
  O      -4.734184     -0.644020     -0.668091
  C      -4.078988     -0.286469     -1.557337
  O      -3.501821      0.045522     -2.508101
14
Coordinates from ORCA-job ./orca E -398.984132890044
  O       1.616148     -0.386049     -0.776821
  N      -1.965237      0.207220      0.063983
  C      -0.736947      0.076044     -0.724907
  C       0.483520     -0.287546      0.102936
  H      -0.551420      1.021286     -1.241607
  H      -0.893508     -0.687929     -1.489941
  H       0.316100     -1.242005      0.612940
  H       0.659224      0.482288      0.861893
  H      -2.156084     -0.674917      0.530731
  H      -1.805666      0.878742      0.810606
  H       2.390915     -0.607224     -0.245421
  O      -4.727952     -0.642112     -0.663467
  C      -4.078160     -0.285895     -1.556663
  O      -3.497916      0.046785     -2.504942
14
Coordinates from ORCA-job ./orca E -398.984125347875
  O       1.617086     -0.385495     -0.776424
  N      -1.964631      0.206294      0.064559
  C      -0.737066      0.075371     -0.725583
  C       0.483639     -0.287631      0.102380
  H      -0.551721      1.020385     -1.242720
  H      -0.893626     -0.688641     -1.490516
  H       0.316362     -1.242155      0.612307
  H       0.658375      0.482307      0.861435
  H      -2.157593     -0.675720      0.530456
  H      -1.807291      0.879053      0.810575
  H       2.391549     -0.606235     -0.244428
  O      -4.727350     -0.640844     -0.662419
  C      -4.077845     -0.285231     -1.556190
  O      -3.496869      0.047230     -2.504112
14
Coordinates from ORCA-job ./orca E -398.984125007238
  O       1.618405     -0.384341     -0.776210
  N      -1.963729      0.204863      0.065493
  C      -0.736858      0.074072     -0.725883
  C       0.484433     -0.287740      0.101891
  H      -0.552056      1.018624     -1.243958
  H      -0.893752     -0.690413     -1.490184
  H       0.317890     -1.242450      0.611690
  H       0.657872      0.482531      0.860889
  H      -2.160204     -0.676890      0.529931
  H      -1.809751      0.879352      0.810468
  H       2.392741     -0.604300     -0.243756
  O      -4.728373     -0.638723     -0.662122
  C      -4.077503     -0.283708     -1.555419
  O      -3.496097      0.047808     -2.503510
14
Coordinates from ORCA-job ./orca E -398.984119242433
  O       1.618991     -0.383482     -0.776368
  N      -1.963235      0.203899      0.065809
  C      -0.736583      0.073058     -0.725510
  C       0.485224     -0.287712      0.101971
  H      -0.552350      1.017301     -1.244331
  H      -0.893782     -0.692032     -1.489126
  H       0.319551     -1.242511      0.611875
  H       0.658103      0.482929      0.860722
  H      -2.161740     -0.677748      0.529280
  H      -1.811123      0.879180      0.810216
  H       2.393591     -0.602872     -0.244046
  O      -4.729969     -0.637086     -0.662643
  C      -4.077544     -0.282492     -1.555061
  O      -3.496117      0.048255     -2.503469
14
Coordinates from ORCA-job ./orca E -398.983069301626
  O       1.621354     -0.383001     -0.778477
  N      -1.983774      0.201707      0.056231
  C      -0.734345      0.071662     -0.726764
  C       0.487953     -0.288106      0.100429
  H      -0.548734      1.015666     -1.245887
  H      -0.885367     -0.695004     -1.490563
  H       0.323742     -1.243707      0.609308
  H       0.660402      0.482227      0.859590
  H      -2.171857     -0.684962      0.532976
  H      -1.824719      0.889145      0.815875
  H       2.396324     -0.602143     -0.246590
  O      -4.736017     -0.634935     -0.662490
  C      -4.058999     -0.278385     -1.540902
  O      -3.492945      0.048524     -2.503415
14
Coordinates from ORCA-job ./orca E -398.983598877104
  O       1.613826     -0.383677     -0.777017
  N      -1.976743      0.200546      0.053322
  C      -0.737524      0.072307     -0.726805
  C       0.482049     -0.287018      0.102993
  H      -0.553686      1.017397     -1.243722
  H      -0.888886     -0.693787     -1.490480
  H       0.317079     -1.241687      0.613264
  H       0.655705      0.484396      0.860742
  H      -2.160394     -0.680087      0.525771
  H      -1.819612      0.873714      0.799122
  H       2.388961     -0.602842     -0.245407
  O      -4.722467     -0.634939     -0.656145
  C      -4.056680     -0.276300     -1.538647
  O      -3.488609      0.050664     -2.497669
14
Coordinates from ORCA-job ./orca E -398.983638415030
  O       1.612904     -0.383809     -0.776023
  N      -1.974508      0.199196      0.052527
  C      -0.739119      0.072051     -0.728461
  C       0.479861     -0.286832      0.102775
  H      -0.555700      1.017642     -1.244929
  H      -0.889923     -0.693567     -1.492856
  H       0.314308     -1.241167      0.613559
  H       0.652850      0.484722      0.860562
  H      -2.158716     -0.681791      0.523988
  H      -1.819620      0.873234      0.797198
  H       2.387615     -0.602803     -0.243657
  O      -4.716004     -0.633558     -0.652213
  C      -4.055618     -0.276420     -1.538275
  O      -3.485312      0.051787     -2.494877
14
Coordinates from ORCA-job ./orca E -398.983689344276
  O       1.613661     -0.383615     -0.774714
  N      -1.972626      0.197269      0.052623
  C      -0.740534      0.071370     -0.730773
  C       0.478291     -0.286798      0.101732
  H      -0.557399      1.017148     -1.247304
  H      -0.890636     -0.693692     -1.495967
  H       0.312106     -1.240878      0.612836
  H       0.649730      0.484788      0.859807
  H      -2.159163     -0.683950      0.522808
  H      -1.821845      0.873920      0.796397
  H       2.387516     -0.602246     -0.240955
  O      -4.709928     -0.631726     -0.647747
  C      -4.054722     -0.275908     -1.537617
  O      -3.481433      0.053003     -2.491805
14
Coordinates from ORCA-job ./orca E -398.983671001146
  O       1.614588     -0.383096     -0.774337
  N      -1.972041      0.196266      0.053205
  C      -0.740652      0.070739     -0.731426
  C       0.478419     -0.286861      0.101177
  H      -0.557747      1.016327     -1.248338
  H      -0.890685     -0.694312     -1.496590
  H       0.312342     -1.241001      0.612206
  H       0.648954      0.484811      0.859349
  H      -2.160498     -0.684797      0.522715
  H      -1.823711      0.874323      0.796214
  H       2.388118     -0.601426     -0.240014
  O      -4.709314     -0.630492     -0.646725
  C      -4.054415     -0.275250     -1.537164
  O      -3.480341      0.053459     -2.490953
14
Coordinates from ORCA-job ./orca E -398.983676203216
  O       1.615881     -0.381990     -0.774170
  N      -1.971208      0.194692      0.054141
  C      -0.740425      0.069506     -0.731674
  C       0.479240     -0.286945      0.100699
  H      -0.558136      1.014707     -1.249398
  H      -0.890666     -0.695923     -1.496330
  H       0.313861     -1.241266      0.611593
  H       0.648582      0.485027      0.858813
  H      -2.162774     -0.686035      0.522547
  H      -1.826589      0.874799      0.795823
  H       2.389262     -0.599777     -0.239452
  O      -4.710376     -0.628406     -0.646495
  C      -4.054107     -0.273768     -1.536443
  O      -3.479527      0.054065     -2.490335
14
Coordinates from ORCA-job ./orca E -398.983683705112
  O       1.616512     -0.381087     -0.774357
  N      -1.970713      0.193526      0.054498
  C      -0.740116      0.068468     -0.731265
  C       0.480099     -0.286913      0.100773
  H      -0.558490      1.013408     -1.249673
  H      -0.890583     -0.697526     -1.495297
  H       0.315612     -1.241339      0.611748
  H       0.648881      0.485419      0.858647
  H      -2.164131     -0.687014      0.522181
  H      -1.828394      0.874806      0.795308
  H       2.390129     -0.598459     -0.239806
  O      -4.712106     -0.626682     -0.647081
  C      -4.054164     -0.272484     -1.536083
  O      -3.479518      0.054564     -2.490273
14
Coordinates from ORCA-job ./orca E -398.983679999527
  O       1.616866     -0.380270     -0.774724
  N      -1.970494      0.192320      0.054440
  C      -0.739774      0.067382     -0.730510
  C       0.481037     -0.286732      0.101174
  H      -0.558899      1.012089     -1.249649
  H      -0.890278     -0.699325     -1.493857
  H       0.317665     -1.241136      0.612541
  H       0.649594      0.486090      0.858602
  H      -2.165066     -0.688144      0.521600
  H      -1.829936      0.874339      0.794701
  H       2.390953     -0.597220     -0.240666
  O      -4.714148     -0.624807     -0.647936
  C      -4.054640     -0.271100     -1.535987
  O      -3.479863      0.055202     -2.490410
14
Coordinates from ORCA-job ./orca E -398.982562270733
  O       1.618874     -0.380117     -0.776438
  N      -1.991819      0.190296      0.043562
  C      -0.737719      0.066535     -0.732132
  C       0.483165     -0.287059      0.099665
  H      -0.554626      1.011159     -1.251519
  H      -0.881921     -0.701762     -1.495358
  H       0.320770     -1.242259      0.609856
  H       0.651322      0.485339      0.857616
  H      -2.174305     -0.695770      0.524320
  H      -1.844000      0.884069      0.799291
  H       2.393074     -0.597148     -0.242576
  O      -4.717460     -0.624540     -0.644044
  C      -4.037719     -0.265637     -1.522417
  O      -3.474617      0.055580     -2.490506
14
Coordinates from ORCA-job ./orca E -398.983095402042
  O       1.611875     -0.380518     -0.775212
  N      -1.984121      0.189118      0.041820
  C      -0.740515      0.067004     -0.731836
  C       0.477923     -0.286019      0.102227
  H      -0.559669      1.012529     -1.248965
  H      -0.885064     -0.700601     -1.495315
  H       0.315023     -1.240367      0.613751
  H       0.647349      0.487331      0.858884
  H      -2.162872     -0.690239      0.518413
  H      -1.838157      0.868906      0.783793
  H       2.386378     -0.597532     -0.241818
  O      -4.707515     -0.622953     -0.641686
  C      -4.034019     -0.264886     -1.519484
  O      -3.473599      0.056916     -2.485252
14
Coordinates from ORCA-job ./orca E -398.983132652785
  O       1.611187     -0.380754     -0.774221
  N      -1.981435      0.187902      0.041579
  C      -0.741843      0.066867     -0.733436
  C       0.475991     -0.285822      0.102009
  H      -0.561583      1.012915     -1.250074
  H      -0.885871     -0.700135     -1.497761
  H       0.312413     -1.239811      0.614066
  H       0.644873      0.487624      0.858703
  H      -2.160811     -0.691764      0.517379
  H      -1.837679      0.868742      0.782420
  H       2.385234     -0.597728     -0.240082
  O      -4.703014     -0.622081     -0.639495
  C      -4.032554     -0.264751     -1.518513
  O      -3.471891      0.057483     -2.483254
14
Coordinates from ORCA-job ./orca E -398.983157322571
  O       1.611973     -0.380677     -0.772333
  N      -1.978110      0.185417      0.041978
  C      -0.743633      0.066230     -0.736555
  C       0.473725     -0.285731      0.100759
  H      -0.564022      1.012801     -1.252861
  H      -0.886622     -0.699712     -1.502239
  H       0.309036     -1.239338      0.613232
  H       0.640738      0.487668      0.857874
  H      -2.159852     -0.694406      0.516536
  H      -1.839652      0.869585      0.780956
  H       2.384797     -0.597499     -0.236349
  O      -4.696427     -0.620095     -0.634687
  C      -4.030728     -0.264283     -1.516997
  O      -3.468206      0.058726     -2.479995
14
Coordinates from ORCA-job ./orca E -398.983179345853
  O       1.613068     -0.380064     -0.771725
  N      -1.977538      0.184020      0.042517
  C      -0.743911      0.065527     -0.737588
  C       0.473641     -0.285847      0.099971
  H      -0.564549      1.012014     -1.254095
  H      -0.886606     -0.700221     -1.503436
  H       0.308913     -1.239559      0.612232
  H       0.639429      0.487567      0.857309
  H      -2.161086     -0.695500      0.516639
  H      -1.842374      0.870268      0.780141
  H       2.385332     -0.596733     -0.234925
  O      -4.694641     -0.618576     -0.632465
  C      -4.030475     -0.263702     -1.516606
  O      -3.466185      0.059493     -2.478651
14
Coordinates from ORCA-job ./orca E -398.983184661674
  O       1.613920     -0.379091     -0.771777
  N      -1.977807      0.182879      0.042828
  C      -0.743642      0.064644     -0.737521
  C       0.474390     -0.286014      0.099655
  H      -0.564617      1.010886     -1.254444
  H      -0.886418     -0.701429     -1.502938
  H       0.310302     -1.240039      0.611520
  H       0.639317      0.487516      0.857053
  H      -2.162827     -0.696202      0.516835
  H      -1.845243      0.870875      0.779199
  H       2.386112     -0.595615     -0.234843
  O      -4.694740     -0.616955     -0.631575
  C      -4.030854     -0.262909     -1.516706
  O      -3.464875      0.060141     -2.477967
14
Coordinates from ORCA-job ./orca E -398.983187248978
  O       1.614331     -0.378157     -0.772154
  N      -1.978221      0.181956      0.042760
  C      -0.743246      0.063802     -0.736861
  C       0.475302     -0.286091      0.099807
  H      -0.564686      1.009840     -1.254238
  H      -0.886187     -0.702824     -1.501683
  H       0.312145     -1.240384      0.611454
  H       0.639838      0.487625      0.857108
  H      -2.164067     -0.696786      0.516869
  H      -1.847429      0.871167      0.778220
  H       2.386804     -0.594602     -0.235595
  O      -4.695739     -0.615473     -0.631673
  C      -4.031488     -0.262062     -1.516988
  O      -3.464338      0.060676     -2.477707
14
Coordinates from ORCA-job ./orca E -398.982000665995
  O       1.616341     -0.378021     -0.773857
  N      -1.999553      0.179994      0.031944
  C      -0.741172      0.063029     -0.738513
  C       0.477418     -0.286395      0.098290
  H      -0.560390      1.009000     -1.256116
  H      -0.877826     -0.705193     -1.503247
  H       0.315198     -1.241480      0.608758
  H       0.641571      0.486885      0.856119
  H      -2.173392     -0.704565      0.519670
  H      -1.861523      0.880962      0.782748
  H       2.388909     -0.594579     -0.237480
  O      -4.699042     -0.615203     -0.627753
  C      -4.014494     -0.256763     -1.503412
  O      -3.459027      0.061015     -2.477831
14
Coordinates from ORCA-job ./orca E -398.982543476737
  O       1.609359     -0.378166     -0.772658
  N      -1.991586      0.178657      0.030157
  C      -0.743949      0.063299     -0.738112
  C       0.472235     -0.285525      0.100879
  H      -0.565524      1.010166     -1.253483
  H      -0.881208     -0.704269     -1.502925
  H       0.309704     -1.239862      0.612535
  H       0.637479      0.488670      0.857513
  H      -2.161916     -0.698715      0.513620
  H      -1.855448      0.865874      0.767121
  H       2.382306     -0.594485     -0.236745
  O      -4.689515     -0.613361     -0.625687
  C      -4.010712     -0.255827     -1.500338
  O      -3.458208      0.062230     -2.472555
14
Coordinates from ORCA-job ./orca E -398.982581707075
  O       1.608833     -0.378190     -0.771643
  N      -1.988738      0.177269      0.029886
  C      -0.745185      0.062969     -0.739657
  C       0.470452     -0.285426      0.100673
  H      -0.567416      1.010343     -1.254586
  H      -0.882104     -0.704052     -1.505225
  H       0.307402     -1.239469      0.612785
  H       0.634980      0.488854      0.857394
  H      -2.159926     -0.700317      0.512648
  H      -1.855076      0.865810      0.765517
  H       2.381371     -0.594233     -0.234960
  O      -4.685565     -0.612190     -0.623706
  C      -4.009290     -0.255452     -1.499226
  O      -3.456720      0.062771     -2.470584
14
Coordinates from ORCA-job ./orca E -398.982604756515
  O       1.609981     -0.377697     -0.769691
  N      -1.985125      0.174368      0.030220
  C      -0.746738      0.061893     -0.742660
  C       0.468538     -0.285496      0.099481
  H      -0.569765      1.009753     -1.257365
  H      -0.882887     -0.704172     -1.509447
  H       0.304746     -1.239275      0.611908
  H       0.630861      0.488748      0.856676
  H      -2.159097     -0.703194      0.511935
  H      -1.857429      0.866717      0.763486
  H       2.381411     -0.593064     -0.231126
  O      -4.680258     -0.609506     -0.619315
  C      -4.007653     -0.254416     -1.497388
  O      -3.453567      0.064029     -2.467395
14
Coordinates from ORCA-job ./orca E -398.982627577816
  O       1.611399     -0.376815     -0.768896
  N      -1.984178      0.172415      0.030738
  C      -0.746945      0.060805     -0.743853
  C       0.468561     -0.285673      0.098658
  H      -0.570375      1.008590     -1.258820
  H      -0.882759     -0.705050     -1.510834
  H       0.304914     -1.239589      0.610876
  H       0.629305      0.488621      0.856100
  H      -2.160323     -0.704736      0.512054
  H      -1.860754      0.867412      0.762138
  H       2.382266     -0.591649     -0.229363
  O      -4.678929     -0.607269     -0.616957
  C      -4.007498     -0.253349     -1.496667
  O      -3.451667      0.064976     -2.465855
14
Coordinates from ORCA-job ./orca E -398.982635722649
  O       1.612672     -0.375521     -0.768765
  N      -1.984200      0.170516      0.031038
  C      -0.746540      0.059443     -0.743945
  C       0.469521     -0.285868      0.098289
  H      -0.570509      1.006962     -1.259433
  H      -0.882244     -0.706766     -1.510492
  H       0.306763     -1.240128      0.610133
  H       0.629001      0.488633      0.855765
  H      -2.162167     -0.706058      0.512283
  H      -1.864680      0.867991      0.760556
  H       2.383455     -0.589831     -0.228942
  O      -4.679531     -0.604694     -0.615774
  C      -4.008127     -0.251944     -1.496480
  O      -3.450396      0.065952     -2.464913
14
Coordinates from ORCA-job ./orca E -398.982641241007
  O       1.613520     -0.374150     -0.769076
  N      -1.984584      0.168676      0.030870
  C      -0.745894      0.058008     -0.743240
  C       0.470854     -0.285947      0.098477
  H      -0.570619      1.005261     -1.259360
  H      -0.881507     -0.708926     -1.509049
  H       0.309448     -1.240531      0.610124
  H       0.629571      0.488896      0.855763
  H      -2.163621     -0.707374      0.512354
  H      -1.868263      0.868200      0.758780
  H       2.384657     -0.588014     -0.229593
  O      -4.681325     -0.602005     -0.615668
  C      -4.009254     -0.250332     -1.496613
  O      -3.449964      0.066925     -2.464450
14
Coordinates from ORCA-job ./orca E -398.982647520091
  O       1.614535     -0.372113     -0.769722
  N      -1.985176      0.165529      0.030077
  C      -0.744826      0.055679     -0.741734
  C       0.473021     -0.285820      0.099250
  H      -0.571033      1.002587     -1.258931
  H      -0.879950     -0.712568     -1.506365
  H       0.314000     -1.240691      0.611081
  H       0.630997      0.489742      0.855959
  H      -2.164992     -0.709820      0.512263
  H      -1.873414      0.867853      0.755812
  H       2.386521     -0.585314     -0.231180
  O      -4.684966     -0.597500     -0.616227
  C      -4.011454     -0.247472     -1.496911
  O      -3.450245      0.068593     -2.464053
14
Coordinates from ORCA-job ./orca E -398.982632714181
  O       1.615585     -0.370050     -0.770314
  N      -1.985637      0.161308      0.028685
  C      -0.743639      0.052899     -0.740046
  C       0.475382     -0.285295      0.100441
  H      -0.571852      0.999487     -1.258543
  H      -0.877443     -0.716842     -1.503539
  H       0.319144     -1.240099      0.613232
  H       0.632839      0.491365      0.856131
  H      -2.165292     -0.713369      0.512034
  H      -1.878852      0.866417      0.752328
  H       2.388625     -0.582428     -0.232937
  O      -4.689773     -0.591805     -0.617167
  C      -4.014409     -0.243693     -1.497133
  O      -3.451660      0.070793     -2.463854
14
Coordinates from ORCA-job ./orca E -398.982661025184
  O       1.617196     -0.367581     -0.770616
  N      -1.985908      0.154363      0.026349
  C      -0.742077      0.048825     -0.738266
  C       0.478355     -0.284069      0.102169
  H      -0.573392      0.995047     -1.258596
  H      -0.872774     -0.722816     -1.500586
  H       0.325782     -1.238219      0.617263
  H       0.635165      0.494524      0.855994
  H      -2.164009     -0.719513      0.511752
  H      -1.885905      0.862904      0.747505
  H       2.391521     -0.578494     -0.234496
  O      -4.696978     -0.582893     -0.618242
  C      -4.019010     -0.237661     -1.497094
  O      -3.454948      0.074270     -2.463816
14
Coordinates from ORCA-job ./orca E -398.982670274648
  O       1.619485     -0.365284     -0.770074
  N      -1.985781      0.144825      0.023338
  C      -0.740378      0.043839     -0.737285
  C       0.481338     -0.282062      0.103965
  H      -0.575608      0.989746     -1.259655
  H      -0.865862     -0.729758     -1.498725
  H       0.332485     -1.234769      0.622815
  H       0.637147      0.499341      0.855061
  H      -2.160399     -0.728263      0.511576
  H      -1.893420      0.856897      0.742008
  H       2.394843     -0.573847     -0.234497
  O      -4.705656     -0.571183     -0.618675
  C      -4.024875     -0.229655     -1.496506
  O      -3.460301      0.078859     -2.464026
14
Coordinates from ORCA-job ./orca E -398.982678884160
  O       1.622112     -0.363763     -0.768376
  N      -1.985164      0.134566      0.020466
  C      -0.739040      0.038989     -0.737960
  C       0.483331     -0.279765      0.105137
  H      -0.578027      0.984757     -1.261932
  H      -0.858103     -0.736057     -1.499097
  H       0.337016     -1.230517      0.628329
  H       0.637564      0.504761      0.853271
  H      -2.154618     -0.737908      0.511850
  H      -1.898967      0.849319      0.737249
  H       2.397760     -0.569010     -0.231943
  O      -4.713500     -0.558802     -0.617755
  C      -4.030600     -0.221295     -1.495323
  O      -3.466745      0.083410     -2.464596
14
Coordinates from ORCA-job ./orca E -398.982695584346
  O       1.624957     -0.363028     -0.765317
  N      -1.984035      0.124747      0.018355
  C      -0.738307      0.034745     -0.740834
  C       0.483823     -0.277729      0.105200
  H      -0.580348      0.980620     -1.265575
  H      -0.850835     -0.741078     -1.502154
  H       0.338220     -1.226470      0.632318
  H       0.635374      0.509770      0.850725
  H      -2.147103     -0.747269      0.512896
  H      -1.901132      0.841182      0.733864
  H       2.399910     -0.563623     -0.226165
  O      -4.718940     -0.546751     -0.614900
  C      -4.035276     -0.213527     -1.493613
  O      -3.473290      0.087097     -2.465482
14
Coordinates from ORCA-job ./orca E -398.982718861520
  O       1.629559     -0.360221     -0.761426
  N      -1.983116      0.109452      0.015252
  C      -0.736731      0.027121     -0.744044
  C       0.485711     -0.275436      0.105471
  H      -0.583903      0.972979     -1.270214
  H      -0.840863     -0.750817     -1.504359
  H       0.342582     -1.222050      0.637159
  H       0.632193      0.516316      0.847444
  H      -2.137964     -0.761454      0.514505
  H      -1.906955      0.830534      0.727046
  H       2.404137     -0.552834     -0.218881
  O      -4.727541     -0.526606     -0.610694
  C      -4.042521     -0.201038     -1.491570
  O      -3.481569      0.092743     -2.466369
14
Coordinates from ORCA-job ./orca E -398.982742631982
  O       1.636153     -0.354240     -0.756913
  N      -1.982768      0.086296      0.010464
  C      -0.734088      0.014401     -0.746932
  C       0.489676     -0.272770      0.106437
  H      -0.589478      0.960021     -1.275632
  H      -0.827145     -0.767689     -1.504431
  H       0.352187     -1.217071      0.643783
  H       0.628133      0.524964      0.843460
  H      -2.126524     -0.782369      0.516943
  H      -1.918283      0.815872      0.714815
  H       2.411252     -0.533922     -0.210714
  O      -4.740682     -0.494409     -0.605164
  C      -4.053298     -0.181571     -1.489276
  O      -3.492116      0.101174     -2.467520
14
Coordinates from ORCA-job ./orca E -398.982762996781
  O       1.642024     -0.346786     -0.752898
  N      -1.982797      0.063530      0.006003
  C      -0.731681      0.000915     -0.749424
  C       0.493364     -0.271157      0.107465
  H      -0.595403      0.946191     -1.280675
  H      -0.815712     -0.785781     -1.503231
  H       0.362446     -1.214197      0.648720
  H       0.622726      0.531718      0.840493
  H      -2.115832     -0.802141      0.520342
  H      -1.929112      0.801924      0.701632
  H       2.418163     -0.511657     -0.203523
  O      -4.751828     -0.460433     -0.599374
  C      -4.062850     -0.161957     -1.487516
  O      -3.500491      0.108519     -2.468695
14
Coordinates from ORCA-job ./orca E -398.982777289797
  O       1.648241     -0.336305     -0.749196
  N      -1.983533      0.036163      0.000526
  C      -0.729047     -0.016177     -0.751088
  C       0.497839     -0.269796      0.109109
  H      -0.603110      0.928332     -1.285999
  H      -0.803185     -0.808647     -1.499981
  H       0.376536     -1.211982      0.654141
  H       0.616171      0.538350      0.838114
  H      -2.103505     -0.825043      0.525527
  H      -1.942982      0.785376      0.685299
  H       2.426309     -0.482564     -0.197249
  O      -4.764468     -0.417478     -0.593343
  C      -4.073443     -0.137907     -1.486094
  O      -3.508803      0.116365     -2.470446
14
Coordinates from ORCA-job ./orca E -398.982786371261
  O       1.650309     -0.330344     -0.746618
  N      -1.982761      0.025924     -0.001267
  C      -0.728379     -0.023315     -0.753701
  C       0.497854     -0.270486      0.109253
  H      -0.606576      0.920698     -1.290305
  H      -0.801458     -0.817769     -1.500579
  H       0.380508     -1.213671      0.653433
  H       0.609581      0.538324      0.838538
  H      -2.097126     -0.832367      0.529508
  H      -1.944751      0.778475      0.679150
  H       2.428634     -0.467171     -0.192567
  O      -4.766597     -0.398118     -0.589402
  C      -4.076024     -0.128542     -1.485333
  O      -3.510198      0.117049     -2.470791
14
Coordinates from ORCA-job ./orca E -398.982793113731
  O       1.654544     -0.320198     -0.744756
  N      -1.983572      0.005422     -0.006012
  C      -0.726595     -0.036787     -0.753752
  C       0.500940     -0.269710      0.110796
  H      -0.613166      0.905859     -1.294648
  H      -0.792909     -0.835007     -1.497460
  H       0.393256     -1.212762      0.657169
  H       0.604612      0.541574      0.838421
  H      -2.087406     -0.848379      0.534786
  H      -1.956338      0.765379      0.667604
  H       2.434442     -0.444447     -0.189868
  O      -4.776890     -0.363078     -0.586508
  C      -4.083275     -0.110095     -1.484514
  O      -3.514625      0.120916     -2.471937
14
Coordinates from ORCA-job ./orca E -398.982811398389
  O       1.656129     -0.315357     -0.742702
  N      -1.982263     -0.000150     -0.007709
  C      -0.726097     -0.040503     -0.755866
  C       0.500170     -0.269785      0.110693
  H      -0.615395      0.901307     -1.298928
  H      -0.792239     -0.838754     -1.499582
  H       0.395593     -1.213532      0.656410
  H       0.599963      0.540933      0.839468
  H      -2.082344     -0.851815      0.537350
  H      -1.956888      0.760449      0.665359
  H       2.435285     -0.437408     -0.186249
  O      -4.779723     -0.350900     -0.584689
  C      -4.084610     -0.105113     -1.483238
  O      -3.514563      0.119316     -2.470997
14
Coordinates from ORCA-job ./orca E -398.982807369163
  O       1.659383     -0.307877     -0.740609
  N      -1.982285     -0.013724     -0.010368
  C      -0.725227     -0.048658     -0.757138
  C       0.501326     -0.268609      0.110778
  H      -0.619672      0.892172     -1.303051
  H      -0.786389     -0.848382     -1.499785
  H       0.402612     -1.212089      0.658031
  H       0.595178      0.543584      0.838696
  H      -2.074912     -0.862584      0.540807
  H      -1.963144      0.750410      0.658978
  H       2.438070     -0.425019     -0.182461
  O      -4.787208     -0.326871     -0.582252
  C      -4.088716     -0.093489     -1.481643
  O      -3.515998      0.119824     -2.470664
14
Coordinates from ORCA-job ./orca E -398.982819451703
  O       1.664150     -0.295894     -0.737272
  N      -1.981940     -0.033970     -0.013390
  C      -0.724261     -0.059884     -0.759774
  C       0.502657     -0.266085      0.110238
  H      -0.626039      0.879666     -1.309416
  H      -0.777247     -0.861306     -1.501297
  H       0.412091     -1.209065      0.659733
  H       0.587056      0.548448      0.836760
  H      -2.064218     -0.879261      0.545075
  H      -1.972045      0.735232      0.650519
  H       2.441147     -0.410096     -0.176205
  O      -4.798683     -0.290588     -0.578661
  C      -4.093779     -0.076993     -1.478433
  O      -3.515873      0.118483     -2.468558
14
Coordinates from ORCA-job ./orca E -398.982824255346
  O       1.666541     -0.288563     -0.734911
  N      -1.980920     -0.044909     -0.014384
  C      -0.723856     -0.064966     -0.762392
  C       0.502915     -0.263811      0.109629
  H      -0.629654      0.874231     -1.313307
  H      -0.771957     -0.867198     -1.503362
  H       0.415936     -1.206461      0.660225
  H       0.581238      0.552282      0.835174
  H      -2.058409     -0.889201      0.545892
  H      -1.975638      0.726454      0.646774
  H       2.441814     -0.405691     -0.172085
  O      -4.805312     -0.270365     -0.576582
  C      -4.095642     -0.068815     -1.475699
  O      -3.514036      0.115700     -2.465652
14
Coordinates from ORCA-job ./orca E -398.982831922541
  O       1.668808     -0.278065     -0.734281
  N      -1.981825     -0.062079     -0.015711
  C      -0.723554     -0.074260     -0.762653
  C       0.505247     -0.261050      0.109953
  H      -0.635833      0.864587     -1.315012
  H      -0.763515     -0.879693     -1.500693
  H       0.425395     -1.203163      0.662456
  H       0.575765      0.557769      0.833286
  H      -2.052347     -0.904816      0.547635
  H      -1.984559      0.713946      0.639895
  H       2.444340     -0.394662     -0.171656
  O      -4.814022     -0.238845     -0.575597
  C      -4.098692     -0.054865     -1.474096
  O      -3.512191      0.113882     -2.464206
14
Coordinates from ORCA-job ./orca E -398.982834494376
  O       1.668347     -0.275552     -0.732203
  N      -1.979186     -0.062505     -0.015088
  C      -0.723451     -0.072942     -0.766333
  C       0.503996     -0.258982      0.109931
  H      -0.636911      0.866931     -1.316716
  H      -0.763181     -0.879259     -1.503165
  H       0.422485     -1.201174      0.661912
  H       0.571062      0.560658      0.832726
  H      -2.051424     -0.907798      0.543061
  H      -1.979902      0.711562      0.641961
  H       2.442622     -0.400744     -0.169643
  O      -4.814582     -0.235284     -0.574410
  C      -4.097169     -0.055498     -1.471853
  O      -3.509689      0.109274     -2.460858
14
Coordinates from ORCA-job ./orca E -398.982843455409
  O       1.668974     -0.272286     -0.732971
  N      -1.980685     -0.068122     -0.015967
  C      -0.723504     -0.077327     -0.764792
  C       0.505162     -0.259148      0.110317
  H      -0.639107      0.861968     -1.316583
  H      -0.761236     -0.884956     -1.500365
  H       0.427466     -1.201376      0.662794
  H       0.570567      0.560752      0.832921
  H      -2.049947     -0.911981      0.545363
  H      -1.983887      0.707488      0.639666
  H       2.444497     -0.392285     -0.170993
  O      -4.816285     -0.224082     -0.574527
  C      -4.098573     -0.049893     -1.472773
  O      -3.510424      0.109934     -2.462770
14
Coordinates from ORCA-job ./orca E -398.982829236329
  O       1.669395     -0.269057     -0.732920
  N      -1.981181     -0.072280     -0.016579
  C      -0.723553     -0.080559     -0.764565
  C       0.505555     -0.258869      0.110551
  H      -0.641094      0.858355     -1.317347
  H      -0.760094     -0.889365     -1.498880
  H       0.430629     -1.201145      0.663314
  H       0.568894      0.561275      0.833028
  H      -2.048897     -0.915816      0.545747
  H      -1.985154      0.703331      0.639280
  H       2.445555     -0.386455     -0.171271
  O      -4.817110     -0.214096     -0.574031
  C      -4.099181     -0.045657     -1.473093
  O      -3.510747      0.109025     -2.463913
14
Coordinates from ORCA-job ./orca E -398.982844402737
  O       1.670297     -0.261018     -0.732427
  N      -1.981833     -0.081700     -0.017672
  C      -0.723713     -0.087685     -0.764650
  C       0.506166     -0.257572      0.110951
  H      -0.645798      0.850254     -1.319854
  H      -0.757439     -0.899247     -1.495945
  H       0.437458     -1.199781      0.664605
  H       0.564285      0.563391      0.832892
  H      -2.047524     -0.925680      0.544671
  H      -1.986710      0.692592      0.640059
  H       2.447482     -0.374419     -0.171381
  O      -4.818572     -0.189819     -0.572417
  C      -4.100029     -0.036074     -1.473429
  O      -3.511052      0.105445     -2.466082
14
Coordinates from ORCA-job ./orca E -398.982850944006
  O       1.670522     -0.257961     -0.731692
  N      -1.981468     -0.084172     -0.018023
  C      -0.723750     -0.090035     -0.765324
  C       0.505887     -0.256420      0.111134
  H      -0.647552      0.847161     -1.322144
  H      -0.757152     -0.902780     -1.495195
  H       0.439338     -1.198216      0.665752
  H       0.562035      0.565219      0.832458
  H      -2.049162     -0.930346      0.540798
  H      -1.984373      0.686708      0.643791
  H       2.447799     -0.370542     -0.170621
  O      -4.817423     -0.179751     -0.570719
  C      -4.099748     -0.032835     -1.473468
  O      -3.511935      0.102656     -2.467426
14
Coordinates from ORCA-job ./orca E -398.982854073958
  O       1.671086     -0.253414     -0.731103
  N      -1.981246     -0.089600     -0.018186
  C      -0.723745     -0.093460     -0.765709
  C       0.506279     -0.253734      0.111357
  H      -0.650172      0.842501     -1.325070
  H      -0.754652     -0.907891     -1.493739
  H       0.442882     -1.194293      0.668428
  H       0.559562      0.569966      0.830613
  H      -2.052319     -0.939506      0.534163
  H      -1.983134      0.677070      0.648315
  H       2.448129     -0.366884     -0.169898
  O      -4.817577     -0.163584     -0.568623
  C      -4.099688     -0.027340     -1.472968
  O      -3.512387      0.098855     -2.468261
14
Coordinates from ORCA-job ./orca E -398.982857394340
  O       1.671902     -0.249218     -0.730704
  N      -1.981189     -0.095490     -0.018388
  C      -0.723605     -0.096676     -0.765754
  C       0.507012     -0.251006      0.111527
  H      -0.652341      0.837791     -1.327989
  H      -0.751438     -0.912412     -1.492486
  H       0.446537     -1.190205      0.671172
  H       0.557573      0.574926      0.828503
  H      -2.055479     -0.948926      0.527669
  H      -1.982968      0.667757      0.651844
  H       2.448418     -0.363644     -0.168933
  O      -4.818792     -0.147694     -0.566697
  C      -4.100024     -0.021869     -1.472067
  O      -3.512591      0.095351     -2.468376
14
Coordinates from ORCA-job ./orca E -398.982860041342
  O       1.672631     -0.245476     -0.730473
  N      -1.981450     -0.100800     -0.018869
  C      -0.723473     -0.099786     -0.765669
  C       0.507670     -0.249690      0.111657
  H      -0.654175      0.833698     -1.329816
  H      -0.748960     -0.916558     -1.491384
  H       0.449857     -1.188381      0.672389
  H       0.555624      0.577317      0.827598
  H      -2.056036     -0.955496      0.525096
  H      -1.984047      0.661411      0.652500
  H       2.449028     -0.358882     -0.168316
  O      -4.820473     -0.134450     -0.565669
  C      -4.100675     -0.017048     -1.471430
  O      -3.512504      0.092827     -2.468295
14
Coordinates from ORCA-job ./orca E -398.982861900209
  O       1.673140     -0.245233     -0.729600
  N      -1.980940     -0.101538     -0.019471
  C      -0.723092     -0.100168     -0.766478
  C       0.507521     -0.249517      0.111661
  H      -0.653809      0.832818     -1.331470
  H      -0.748538     -0.916837     -1.492345
  H       0.449521     -1.188070      0.672582
  H       0.554588      0.577791      0.827317
  H      -2.056176     -0.957055      0.523035
  H      -1.982759      0.659825      0.652855
  H       2.448951     -0.357203     -0.166331
  O      -4.820962     -0.131408     -0.564396
  C      -4.101167     -0.016346     -1.470485
  O      -3.513261      0.091627     -2.467555
14
Coordinates from ORCA-job ./orca E -398.981933991718
  O       1.671211     -0.245614     -0.726373
  N      -1.991623     -0.101062     -0.030065
  C      -0.724644     -0.099569     -0.774589
  C       0.501715     -0.248982      0.109523
  H      -0.651216      0.833516     -1.339258
  H      -0.746069     -0.917350     -1.499381
  H       0.440957     -1.187363      0.670447
  H       0.545993      0.578839      0.824768
  H      -2.054356     -0.966935      0.524459
  H      -1.981077      0.667986      0.656950
  H       2.444381     -0.357600     -0.159471
  O      -4.816218     -0.133507     -0.556941
  C      -4.074773     -0.015847     -1.454033
  O      -3.511264      0.092174     -2.466715
14
Coordinates from ORCA-job ./orca E -398.982322154076
  O       1.668855     -0.245398     -0.725373
  N      -1.988737     -0.101307     -0.030514
  C      -0.725806     -0.100236     -0.773990
  C       0.499678     -0.249485      0.110721
  H      -0.653648      0.833054     -1.337799
  H      -0.748542     -0.918090     -1.498334
  H       0.438978     -1.187910      0.671457
  H       0.543472      0.578198      0.826076
  H      -2.050824     -0.954717      0.517426
  H      -1.978116      0.656107      0.646629
  H       2.442313     -0.355320     -0.158490
  O      -4.810330     -0.132554     -0.554994
  C      -4.074253     -0.015770     -1.450994
  O      -3.510024      0.092113     -2.462502
14
Coordinates from ORCA-job ./orca E -398.982356133875
  O       1.668558     -0.245501     -0.725551
  N      -1.988170     -0.101577     -0.030354
  C      -0.726367     -0.100705     -0.774172
  C       0.499282     -0.249874      0.110475
  H      -0.654457      0.832677     -1.337869
  H      -0.749325     -0.918453     -1.498646
  H       0.438715     -1.188311      0.671244
  H       0.542908      0.577714      0.825947
  H      -2.052432     -0.955105      0.517033
  H      -1.979618      0.656679      0.645618
  H       2.442228     -0.353496     -0.158564
  O      -4.807135     -0.131732     -0.554069
  C      -4.073789     -0.015658     -1.450661
  O      -3.507380      0.092029     -2.461112
14
Coordinates from ORCA-job ./orca E -398.982395680296
  O       1.668190     -0.246070     -0.726752
  N      -1.987451     -0.102484     -0.029384
  C      -0.727855     -0.102110     -0.773957
  C       0.498978     -0.251061      0.109563
  H      -0.656464      0.831387     -1.337638
  H      -0.751354     -0.919485     -1.498895
  H       0.439029     -1.189531      0.670437
  H       0.542516      0.576304      0.825276
  H      -2.058860     -0.956596      0.516448
  H      -1.985911      0.658827      0.643362
  H       2.442644     -0.347823     -0.159662
  O      -4.799469     -0.129340     -0.551156
  C      -4.072299     -0.015204     -1.450739
  O      -3.498676      0.091872     -2.457582
14
Coordinates from ORCA-job ./orca E -398.982403132706
  O       1.668065     -0.246511     -0.727561
  N      -1.987525     -0.102906     -0.028896
  C      -0.728159     -0.102562     -0.773384
  C       0.499314     -0.251441      0.109339
  H      -0.656932      0.830860     -1.337254
  H      -0.751881     -0.919838     -1.498456
  H       0.439698     -1.189907      0.670286
  H       0.543192      0.575960      0.824980
  H      -2.061574     -0.957091      0.516318
  H      -1.988837      0.659370      0.642657
  H       2.442926     -0.345730     -0.160590
  O      -4.797997     -0.128545     -0.550308
  C      -4.071667     -0.014940     -1.451245
  O      -3.495605      0.091967     -2.456567
14
Coordinates from ORCA-job ./orca E -398.982405733111
  O       1.667971     -0.247058     -0.728286
  N      -1.987634     -0.103367     -0.028618
  C      -0.728140     -0.102891     -0.772729
  C       0.499807     -0.251663      0.109333
  H      -0.657087      0.830395     -1.336870
  H      -0.752040     -0.920158     -1.497838
  H       0.440450     -1.190061      0.670442
  H       0.544166      0.575904      0.824745
  H      -2.063442     -0.957543      0.516142
  H      -1.991127      0.659492      0.642130
  H       2.443209     -0.344091     -0.161446
  O      -4.797906     -0.127912     -0.550039
  C      -4.071256     -0.014606     -1.451678
  O      -3.493952      0.092245     -2.455967
14
Coordinates from ORCA-job ./orca E -398.982403651832
  O       1.668018     -0.247433     -0.728487
  N      -1.987598     -0.103714     -0.028678
  C      -0.727971     -0.103083     -0.772492
  C       0.500074     -0.251717      0.109422
  H      -0.657051      0.830119     -1.336789
  H      -0.751883     -0.920394     -1.497575
  H       0.440764     -1.190003      0.670729
  H       0.544667      0.576023      0.824609
  H      -2.063916     -0.957887      0.515937
  H      -1.991948      0.659317      0.641818
  H       2.443403     -0.343253     -0.161636
  O      -4.798365     -0.127507     -0.550087
  C      -4.071251     -0.014329     -1.451654
  O      -3.493923      0.092548     -2.455796
14
Coordinates from ORCA-job ./orca E -398.981465698469
  O       1.666063     -0.247787     -0.725298
  N      -1.998264     -0.103212     -0.039207
  C      -0.729519     -0.102491     -0.780572
  C       0.494280     -0.251191      0.107264
  H      -0.654494      0.830826     -1.344531
  H      -0.749424     -0.920899     -1.504603
  H       0.432233     -1.189318      0.668548
  H       0.536093      0.577044      0.822052
  H      -2.062205     -0.967788      0.517502
  H      -1.990305      0.667570      0.645919
  H       2.438814     -0.343626     -0.154847
  O      -4.793579     -0.129452     -0.542674
  C      -4.044755     -0.014043     -1.435268
  O      -3.491920      0.093055     -2.454963
14
Coordinates from ORCA-job ./orca E -398.981853077916
  O       1.663538     -0.247382     -0.724450
  N      -1.995194     -0.103866     -0.039381
  C      -0.730657     -0.103293     -0.779878
  C       0.492271     -0.251433      0.108542
  H      -0.657127      0.830023     -1.343310
  H      -0.751795     -0.921753     -1.503472
  H       0.430492     -1.189434      0.669920
  H       0.533605      0.576903      0.823177
  H      -2.058726     -0.956090      0.510317
  H      -1.987384      0.655242      0.635942
  H       2.436513     -0.341656     -0.154078
  O      -4.787871     -0.128155     -0.541095
  C      -4.043905     -0.013667     -1.432114
  O      -3.490742      0.093247     -2.450800
14
Coordinates from ORCA-job ./orca E -398.981885596007
  O       1.663249     -0.247251     -0.724749
  N      -1.994552     -0.104549     -0.038988
  C      -0.731229     -0.103940     -0.779927
  C       0.491977     -0.251549      0.108336
  H      -0.658205      0.829310     -1.343546
  H      -0.752481     -0.922341     -1.503606
  H       0.430574     -1.189393      0.670047
  H       0.533098      0.576918      0.822835
  H      -2.060494     -0.957106      0.509831
  H      -1.989030      0.655365      0.635245
  H       2.436408     -0.340111     -0.154364
  O      -4.784969     -0.126901     -0.540525
  C      -4.043206     -0.013204     -1.431730
  O      -3.488122      0.093439     -2.449539
14
Coordinates from ORCA-job ./orca E -398.981920793811
  O       1.662919     -0.246916     -0.726293
  N      -1.993611     -0.106855     -0.037338
  C      -0.732796     -0.106039     -0.779274
  C       0.491986     -0.251852      0.107556
  H      -0.661220      0.826863     -1.343791
  H      -0.754194     -0.924351     -1.503130
  H       0.432076     -1.189201      0.670315
  H       0.532776      0.577105      0.821498
  H      -2.067395     -0.960547      0.508831
  H      -1.995764      0.655825      0.633867
  H       2.436836     -0.335176     -0.156177
  O      -4.778165     -0.122870     -0.538662
  C      -4.041011     -0.011506     -1.431656
  O      -3.479420      0.094207     -2.446425
14
Coordinates from ORCA-job ./orca E -398.981928343430
  O       1.662787     -0.246790     -0.727304
  N      -1.993588     -0.108092     -0.036533
  C      -0.733243     -0.107057     -0.778504
  C       0.492447     -0.251880      0.107333
  H      -0.662370      0.825570     -1.343624
  H      -0.754636     -0.925516     -1.502227
  H       0.433433     -1.188995      0.670592
  H       0.533321      0.577436      0.820850
  H      -2.070695     -0.962108      0.508437
  H      -1.999231      0.655522      0.633426
  H       2.437182     -0.332865     -0.157521
  O      -4.776600     -0.120858     -0.538048
  C      -4.039996     -0.010469     -1.432148
  O      -3.475791      0.094790     -2.445409
14
Coordinates from ORCA-job ./orca E -398.981932393146
  O       1.662673     -0.246652     -0.728237
  N      -1.993693     -0.109462     -0.036004
  C      -0.733357     -0.108086     -0.777650
  C       0.493086     -0.251768      0.107330
  H      -0.663230      0.824193     -1.343471
  H      -0.754637     -0.926904     -1.500998
  H       0.434993     -1.188624      0.671125
  H       0.534096      0.578021      0.820282
  H      -2.073178     -0.963669      0.508012
  H      -2.002119      0.654672      0.633125
  H       2.437570     -0.330700     -0.158830
  O      -4.776407     -0.118728     -0.537896
  C      -4.039256     -0.009222     -1.432672
  O      -3.473523      0.095617     -2.444796
14
Coordinates from ORCA-job ./orca E -398.981935658032
  O       1.662713     -0.246514     -0.728541
  N      -1.993705     -0.110478     -0.035983
  C      -0.733233     -0.108812     -0.777311
  C       0.493460     -0.251611      0.107445
  H      -0.663608      0.823219     -1.343614
  H      -0.754296     -0.927982     -1.500282
  H       0.435884     -1.188246      0.671668
  H       0.534413      0.578556      0.819961
  H      -2.073924     -0.964778      0.507663
  H      -2.003242      0.653750      0.632945
  H       2.437836     -0.329336     -0.159267
  O      -4.776907     -0.117165     -0.537994
  C      -4.039118     -0.008250     -1.432728
  O      -3.473256      0.096334     -2.444641
14
Coordinates from ORCA-job ./orca E -398.980998077316
  O       1.660741     -0.246846     -0.725403
  N      -2.004350     -0.109884     -0.046446
  C      -0.734776     -0.108200     -0.785354
  C       0.487686     -0.251094      0.105268
  H      -0.661076      0.823957     -1.351301
  H      -0.751841     -0.928459     -1.507286
  H       0.427373     -1.187589      0.669444
  H       0.525898      0.579539      0.817401
  H      -2.072376     -0.974687      0.509362
  H      -2.001635      0.662121      0.637051
  H       2.433244     -0.329709     -0.152568
  O      -4.772101     -0.118931     -0.530627
  C      -4.012529     -0.008300     -1.416395
  O      -3.471239      0.096768     -2.443826
14
Coordinates from ORCA-job ./orca E -398.981398132181
  O       1.658062     -0.246356     -0.724609
  N      -2.001188     -0.110590     -0.046511
  C      -0.735896     -0.108916     -0.784662
  C       0.485636     -0.251209      0.106606
  H      -0.663845      0.823199     -1.350150
  H      -0.754147     -0.929293     -1.506037
  H       0.425606     -1.187599      0.670841
  H       0.523408      0.579502      0.818591
  H      -2.068570     -0.962997      0.502227
  H      -1.998644      0.649737      0.627316
  H       2.430804     -0.328146     -0.151978
  O      -4.766472     -0.117622     -0.529309
  C      -4.011505     -0.007930     -1.413239
  O      -3.470231      0.096906     -2.439767
14
Coordinates from ORCA-job ./orca E -398.981418056904
  O       1.657776     -0.246072     -0.724918
  N      -2.000529     -0.111349     -0.046042
  C      -0.736456     -0.109531     -0.784691
  C       0.485365     -0.251209      0.106422
  H      -0.665030      0.822485     -1.350426
  H      -0.754764     -0.929916     -1.506073
  H       0.425749     -1.187448      0.670974
  H       0.522905      0.579621      0.818283
  H      -2.070157     -0.964158      0.501816
  H      -2.000288      0.649776      0.626788
  H       2.430698     -0.326915     -0.152362
  O      -4.763768     -0.116265     -0.528948
  C      -4.010725     -0.007416     -1.412853
  O      -3.467757      0.097085     -2.438650
14
Coordinates from ORCA-job ./orca E -398.981445767593
  O       1.657461     -0.245188     -0.726431
  N      -1.999563     -0.113898     -0.044213
  C      -0.737968     -0.111559     -0.783983
  C       0.485429     -0.251155      0.105728
  H      -0.668317      0.820034     -1.350745
  H      -0.756228     -0.932035     -1.505333
  H       0.427448     -1.186924      0.671271
  H       0.522529      0.580138      0.817069
  H      -2.076320     -0.967880      0.501002
  H      -2.006782      0.649757      0.625806
  H       2.431088     -0.322982     -0.154383
  O      -4.757726     -0.111864     -0.527706
  C      -4.008364     -0.005553     -1.412732
  O      -3.459669      0.097797     -2.436032
14
Coordinates from ORCA-job ./orca E -398.981458079356
  O       1.657308     -0.244665     -0.727523
  N      -1.999489     -0.115467     -0.043217
  C      -0.738507     -0.112739     -0.783131
  C       0.485911     -0.251033      0.105491
  H      -0.669818      0.818529     -1.350604
  H      -0.756660     -0.933419     -1.504282
  H       0.429068     -1.186554      0.671570
  H       0.522962      0.580638      0.816390
  H      -2.079709     -0.969821      0.500646
  H      -2.010527      0.649175      0.625424
  H       2.431429     -0.320797     -0.155935
  O      -4.756079     -0.109249     -0.527252
  C      -4.007134     -0.004284     -1.413203
  O      -3.455737      0.098374     -2.435055
14
Coordinates from ORCA-job ./orca E -398.981460707736
  O       1.657169     -0.244069     -0.728576
  N      -1.999590     -0.117256     -0.042493
  C      -0.738725     -0.114020     -0.782159
  C       0.486597     -0.250795      0.105463
  H      -0.671041      0.816849     -1.350451
  H      -0.756652     -0.935105     -1.502884
  H       0.431011     -1.186040      0.672128
  H       0.523599      0.581392      0.815764
  H      -2.082421     -0.971822      0.500266
  H      -2.013798      0.647992      0.625131
  H       2.431815     -0.318585     -0.157486
  O      -4.755757     -0.106322     -0.527167
  C      -4.006165     -0.002737     -1.413773
  O      -3.453023      0.099204     -2.434443
14
Coordinates from ORCA-job ./orca E -398.981464615856
  O       1.657181     -0.243599     -0.728957
  N      -1.999633     -0.118578     -0.042387
  C      -0.738646     -0.114947     -0.781736
  C       0.487012     -0.250565      0.105578
  H      -0.671624      0.815634     -1.350591
  H      -0.756273     -0.936426     -1.502039
  H       0.432202     -1.185589      0.672692
  H       0.523810      0.582027      0.815421
  H      -2.083269     -0.973222      0.499957
  H      -2.015128      0.646801      0.624943
  H       2.432074     -0.317107     -0.158076
  O      -4.756237     -0.104132     -0.527294
  C      -4.005909     -0.001534     -1.413890
  O      -3.452541      0.099925     -2.434301
14
Coordinates from ORCA-job ./orca E -398.980563478236
  O       1.652839     -0.243994     -0.724894
  N      -2.007624     -0.118352     -0.052513
  C      -0.742583     -0.113751     -0.792164
  C       0.477652     -0.249517      0.102617
  H      -0.667475      0.816778     -1.360677
  H      -0.752242     -0.937665     -1.510013
  H       0.418799     -1.184065      0.670126
  H       0.510754      0.583599      0.812038
  H      -2.077567     -0.984181      0.500769
  H      -2.008921      0.654365      0.629015
  H       2.424253     -0.317589     -0.149302
  O      -4.748720     -0.105892     -0.517200
  C      -3.977466     -0.001859     -1.396025
  O      -3.448682      0.100810     -2.432458
14
Coordinates from ORCA-job ./orca E -398.980948234479
  O       1.651417     -0.243436     -0.725757
  N      -2.006779     -0.118674     -0.051172
  C      -0.743260     -0.114403     -0.789256
  C       0.478118     -0.249887      0.104155
  H      -0.672075      0.816182     -1.357198
  H      -0.756053     -0.937368     -1.507687
  H       0.420628     -1.184701      0.671251
  H       0.512131      0.583016      0.813733
  H      -2.077070     -0.971823      0.495656
  H      -2.009753      0.643001      0.620878
  H       2.424017     -0.316643     -0.151764
  O      -4.745028     -0.104176     -0.519614
  C      -3.976578     -0.001981     -1.394729
  O      -3.446696      0.099580     -2.429175
14
Coordinates from ORCA-job ./orca E -398.980963992552
  O       1.651012     -0.243002     -0.726863
  N      -2.006645     -0.119297     -0.050121
  C      -0.743461     -0.114832     -0.788337
  C       0.478551     -0.249915      0.104177
  H      -0.674321      0.815831     -1.356381
  H      -0.757489     -0.937372     -1.507208
  H       0.421882     -1.184813      0.671224
  H       0.512917      0.582926      0.813779
  H      -2.079422     -0.972705      0.496062
  H      -2.012488      0.643224      0.620894
  H       2.424225     -0.315948     -0.153638
  O      -4.742994     -0.102406     -0.520822
  C      -3.975460     -0.001795     -1.395049
  O      -3.443289      0.098790     -2.428397
14
Coordinates from ORCA-job ./orca E -398.980992120303
  O       1.650346     -0.241667     -0.729544
  N      -2.006329     -0.121362     -0.047439
  C      -0.744108     -0.116044     -0.786149
  C       0.479534     -0.249826      0.103871
  H      -0.679484      0.814684     -1.354695
  H      -0.760466     -0.937867     -1.505809
  H       0.424931     -1.184849      0.670913
  H       0.514442      0.582907      0.813518
  H      -2.085609     -0.975623      0.496788
  H      -2.019775      0.643464      0.621027
  H       2.424870     -0.313883     -0.157963
  O      -4.738778     -0.097162     -0.522394
  C      -3.972445     -0.000951     -1.396053
  O      -3.434110      0.096865     -2.426751
14
Coordinates from ORCA-job ./orca E -398.980998646644
  O       1.650184     -0.240874     -0.730619
  N      -2.006066     -0.122898     -0.046272
  C      -0.744545     -0.116782     -0.785307
  C       0.479882     -0.249575      0.103575
  H      -0.681509      0.813830     -1.354272
  H      -0.761215     -0.938583     -1.505025
  H       0.426303     -1.184514      0.670855
  H       0.514810      0.583283      0.813076
  H      -2.088404     -0.977578      0.496601
  H      -2.023357      0.642802      0.620925
  H       2.425117     -0.312637     -0.159542
  O      -4.737285     -0.093777     -0.522220
  C      -3.970936     -0.000127     -1.396488
  O      -3.429959      0.096116     -2.425968
14
Coordinates from ORCA-job ./orca E -398.981001706729
  O       1.650202     -0.239921     -0.731240
  N      -2.005749     -0.124880     -0.045559
  C      -0.744989     -0.117711     -0.784848
  C       0.480116     -0.249159      0.103306
  H      -0.682682      0.812653     -1.354343
  H      -0.760955     -0.939822     -1.504289
  H       0.427546     -1.183882      0.671044
  H       0.514725      0.584011      0.812481
  H      -2.090381     -0.979989      0.495868
  H      -2.026356      0.641344      0.620655
  H       2.425295     -0.311124     -0.160323
  O      -4.736532     -0.089598     -0.521412
  C      -3.969812      0.001123     -1.396652
  O      -3.427410      0.095641     -2.425369
14
Coordinates from ORCA-job ./orca E -398.981008676643
  O       1.650345     -0.239134     -0.731250
  N      -2.005565     -0.126410     -0.045575
  C      -0.745150     -0.118509     -0.784837
  C       0.480248     -0.248843      0.103278
  H      -0.682844      0.811641     -1.354687
  H      -0.760054     -0.940972     -1.503919
  H       0.428338     -1.183380      0.671386
  H       0.514342      0.584619      0.812157
  H      -2.090844     -0.981782      0.495115
  H      -2.027616      0.639906      0.620332
  H       2.425417     -0.309868     -0.160251
  O      -4.736573     -0.086273     -0.520694
  C      -3.969599      0.002217     -1.396462
  O      -3.427427      0.095475     -2.425272
14
Coordinates from ORCA-job ./orca E -398.981007605672
  O       1.650781     -0.237344     -0.730890
  N      -2.005240     -0.129771     -0.046129
  C      -0.745195     -0.120370     -0.785036
  C       0.480567     -0.248196      0.103430
  H      -0.682890      0.809362     -1.355575
  H      -0.757688     -0.943574     -1.503341
  H       0.430026     -1.182340      0.672314
  H       0.513283      0.585914      0.811644
  H      -2.091002     -0.985619      0.493428
  H      -2.029598      0.636562      0.619458
  H       2.425757     -0.307008     -0.159636
  O      -4.736989     -0.078791     -0.519162
  C      -3.969750      0.004683     -1.395756
  O      -3.429043      0.095178     -2.425430
14
Coordinates from ORCA-job ./orca E -398.981021011096
  O       1.651535     -0.234595     -0.730073
  N      -2.004873     -0.134539     -0.047365
  C      -0.744846     -0.123145     -0.785458
  C       0.481084     -0.247422      0.103823
  H      -0.683057      0.806103     -1.356850
  H      -0.754282     -0.947223     -1.502814
  H       0.432489     -1.181135      0.673570
  H       0.511557      0.587447      0.811256
  H      -2.090661     -0.990903      0.491215
  H      -2.031932      0.631838      0.617950
  H       2.426385     -0.302674     -0.158445
  O      -4.737592     -0.067701     -0.517008
  C      -3.970468      0.008183     -1.394562
  O      -3.432321      0.094452     -2.425921
14
Coordinates from ORCA-job ./orca E -398.981017947488
  O       1.652712     -0.230856     -0.728610
  N      -2.004484     -0.140594     -0.049496
  C      -0.743870     -0.126736     -0.786209
  C       0.481753     -0.246634      0.104446
  H      -0.683556      0.802060     -1.358501
  H      -0.750039     -0.951652     -1.502629
  H       0.435545     -1.180013      0.674920
  H       0.509017      0.588929      0.811191
  H      -2.089546     -0.997300      0.488648
  H      -2.034454      0.625891      0.615543
  H       2.427332     -0.296884     -0.156417
  O      -4.738178     -0.052965     -0.514005
  C      -3.971923      0.012537     -1.392852
  O      -3.437292      0.092904     -2.426709
14
Coordinates from ORCA-job ./orca E -398.981027476717
  O       1.653625     -0.228878     -0.727295
  N      -2.004353     -0.143881     -0.051317
  C      -0.742766     -0.128552     -0.786938
  C       0.482071     -0.246315      0.104865
  H      -0.684067      0.800193     -1.359482
  H      -0.747749     -0.953627     -1.503172
  H       0.436847     -1.179638      0.675493
  H       0.507375      0.589450      0.811423
  H      -2.088003     -1.000450      0.487463
  H      -2.035444      0.622683      0.613697
  H       2.427969     -0.293860     -0.154600
  O      -4.738357     -0.044649     -0.511902
  C      -3.973354      0.014710     -1.391748
  O      -3.440776      0.091501     -2.427168
14
Coordinates from ORCA-job ./orca E -398.981032749805
  O       1.654633     -0.227505     -0.725735
  N      -2.004321     -0.146403     -0.053385
  C      -0.741448     -0.129673     -0.787891
  C       0.482183     -0.246186      0.105152
  H      -0.684705      0.799253     -1.360324
  H      -0.746020     -0.954533     -1.504367
  H       0.437279     -1.179611      0.675627
  H       0.505841      0.589513      0.811823
  H      -2.085823     -1.002466      0.486798
  H      -2.035987      0.620322      0.611606
  H       2.428516     -0.291775     -0.152337
  O      -4.738239     -0.038003     -0.509517
  C      -3.975056      0.016099     -1.390795
  O      -3.443836      0.089656     -2.427337
14
Coordinates from ORCA-job ./orca E -398.981028738887
  O       1.655177     -0.227198     -0.724821
  N      -2.004364     -0.147355     -0.054576
  C      -0.740793     -0.129808     -0.788536
  C       0.482062     -0.246211      0.105170
  H      -0.684969      0.799347     -1.360669
  H      -0.745303     -0.954359     -1.505384
  H       0.436901     -1.179758      0.675426
  H       0.505111      0.589321      0.812054
  H      -2.084271     -1.002928      0.486745
  H      -2.036188      0.619552      0.610298
  H       2.428670     -0.291240     -0.150878
  O      -4.737981     -0.035440     -0.507962
  C      -3.976058      0.016375     -1.390423
  O      -3.444977      0.088389     -2.427124
14
Coordinates from ORCA-job ./orca E -398.981029689909
  O       1.655529     -0.227254     -0.724141
  N      -2.004454     -0.148019     -0.055518
  C      -0.740485     -0.129651     -0.789094
  C       0.481842     -0.246258      0.105096
  H      -0.684971      0.799763     -1.360813
  H      -0.744655     -0.953866     -1.506356
  H       0.436245     -1.179901      0.675169
  H       0.504648      0.589118      0.812176
  H      -2.082759     -1.003088      0.486877
  H      -2.036541      0.619147      0.609093
  H       2.428636     -0.291103     -0.149667
  O      -4.737667     -0.033804     -0.506536
  C      -3.976856      0.016374     -1.390236
  O      -3.445495      0.087228     -2.426729
14
Coordinates from ORCA-job ./orca E -398.981028097230
  O       1.655553     -0.227404     -0.723993
  N      -2.004550     -0.148392     -0.055835
  C      -0.740572     -0.129529     -0.789266
  C       0.481719     -0.246290      0.105057
  H      -0.684781      0.800038     -1.360703
  H      -0.744197     -0.953578     -1.506746
  H       0.435916     -1.179951      0.675093
  H       0.504571      0.589053      0.812182
  H      -2.081987     -1.003203      0.487070
  H      -2.036991      0.618999      0.608490
  H       2.428531     -0.291037     -0.149324
  O      -4.737522     -0.033068     -0.505960
  C      -3.977142      0.016351     -1.390230
  O      -3.445530      0.086696     -2.426514
14
Coordinates from ORCA-job ./orca E -398.980166495700
  O       1.651131     -0.228015     -0.720000
  N      -2.012504     -0.147669     -0.065824
  C      -0.744518     -0.128060     -0.799619
  C       0.472342     -0.245222      0.102074
  H      -0.680588      0.801440     -1.370825
  H      -0.740288     -0.954566     -1.514504
  H       0.422315     -1.178406      0.672552
  H       0.491726      0.590643      0.808694
  H      -2.076274     -1.013950      0.488069
  H      -2.030885      0.626893      0.612551
  H       2.420630     -0.291895     -0.140679
  O      -4.729902     -0.034583     -0.495873
  C      -3.948490      0.014342     -1.372650
  O      -3.441676      0.087735     -2.424646
14
Coordinates from ORCA-job ./orca E -398.980548415726
  O       1.649403     -0.227941     -0.721089
  N      -2.011584     -0.147142     -0.064148
  C      -0.745362     -0.128085     -0.796660
  C       0.472699     -0.245834      0.103567
  H      -0.684702      0.801748     -1.366737
  H      -0.744637     -0.953258     -1.512573
  H       0.423678     -1.179477      0.673274
  H       0.493441      0.589566      0.810653
  H      -2.075846     -1.000338      0.483187
  H      -2.031722      0.616877      0.604763
  H       2.420123     -0.291907     -0.143466
  O      -4.725975     -0.034810     -0.498574
  C      -3.947302      0.013409     -1.371550
  O      -3.439196      0.085879     -2.421327
14
Coordinates from ORCA-job ./orca E -398.980564845932
  O       1.648853     -0.227936     -0.722412
  N      -2.011436     -0.146743     -0.062763
  C      -0.745721     -0.127808     -0.795592
  C       0.473100     -0.246148      0.103523
  H      -0.686512      0.802350     -1.365268
  H      -0.746724     -0.952197     -1.512365
  H       0.424536     -1.180114      0.672749
  H       0.494634      0.588850      0.811026
  H      -2.078293     -1.000059      0.484087
  H      -2.034616      0.618356      0.604775
  H       2.420240     -0.292116     -0.145674
  O      -4.723772     -0.035018     -0.500157
  C      -3.945964      0.012766     -1.372053
  O      -3.435308      0.084503     -2.420555
14
Coordinates from ORCA-job ./orca E -398.980598349063
  O       1.647774     -0.227962     -0.725727
  N      -2.011109     -0.145734     -0.059124
  C      -0.746776     -0.126835     -0.792922
  C       0.473993     -0.246883      0.103029
  H      -0.690472      0.804118     -1.361676
  H      -0.751544     -0.949473     -1.511689
  H       0.426361     -1.181672      0.670994
  H       0.497459      0.587017      0.811699
  H      -2.084749     -0.999545      0.486363
  H      -2.042249      0.622302      0.604853
  H       2.420632     -0.292892     -0.151010
  O      -4.719179     -0.035685     -0.502857
  C      -3.942343      0.011051     -1.373596
  O      -3.424781      0.080880     -2.419017
14
Coordinates from ORCA-job ./orca E -398.980599222181
  O       1.647417     -0.228086     -0.726968
  N      -2.010878     -0.145308     -0.057633
  C      -0.747328     -0.126181     -0.791937
  C       0.474225     -0.247109      0.102671
  H      -0.691557      0.805065     -1.360305
  H      -0.753080     -0.948261     -1.511388
  H       0.426798     -1.182221      0.670132
  H       0.498539      0.586343      0.811844
  H      -2.087278     -0.999250      0.487050
  H      -2.045359      0.623814      0.604740
  H       2.420690     -0.293534     -0.152878
  O      -4.717825     -0.036129     -0.503263
  C      -3.940737      0.010238     -1.374268
  O      -3.420609      0.079305     -2.418477
14
Coordinates from ORCA-job ./orca E -398.980598228663
  O       1.647225     -0.228248     -0.727644
  N      -2.010645     -0.144985     -0.056751
  C      -0.747756     -0.125548     -0.791410
  C       0.474302     -0.247205      0.102416
  H      -0.691711      0.805882     -1.359460
  H      -0.753598     -0.947362     -1.511222
  H       0.426873     -1.182527      0.669537
  H       0.499237      0.585949      0.811936
  H      -2.088684     -0.999001      0.487284
  H      -2.047226      0.624755      0.604561
  H       2.420646     -0.294250     -0.153829
  O      -4.717347     -0.036522     -0.503232
  C      -3.939728      0.009593     -1.374637
  O      -3.418570      0.078158     -2.418229
14
Coordinates from ORCA-job ./orca E -398.980599322930
  O       1.647192     -0.228307     -0.727754
  N      -2.010549     -0.144818     -0.056597
  C      -0.747867     -0.125252     -0.791304
  C       0.474333     -0.247234      0.102399
  H      -0.691429      0.806264     -1.359165
  H      -0.753458     -0.946982     -1.511230
  H       0.426833     -1.182652      0.669362
  H       0.499480      0.585797      0.812069
  H      -2.088898     -0.998852      0.487253
  H      -2.047624      0.625062      0.604441
  H       2.420622     -0.294640     -0.153997
  O      -4.717427     -0.036645     -0.503210
  C      -3.939556      0.009300     -1.374649
  O      -3.418632      0.077643     -2.418298
14
Coordinates from ORCA-job ./orca E -398.979831471030
  O       1.642807     -0.228893     -0.723803
  N      -2.018467     -0.144145     -0.066593
  C      -0.751785     -0.123795     -0.801648
  C       0.465003     -0.246186      0.099402
  H      -0.687268      0.807698     -1.369256
  H      -0.749525     -0.947958     -1.519033
  H       0.413321     -1.181144      0.666771
  H       0.486663      0.587347      0.808607
  H      -2.083290     -1.009679      0.488321
  H      -2.041677      0.633052      0.608547
  H       2.412773     -0.295479     -0.145405
  O      -4.709819     -0.038161     -0.493176
  C      -3.910915      0.007372     -1.357011
  O      -3.414802      0.078657     -2.416404
14
Coordinates from ORCA-job ./orca E -398.980215750189
  O       1.641188     -0.228921     -0.724562
  N      -2.017238     -0.143656     -0.065161
  C      -0.752361     -0.123770     -0.799010
  C       0.465320     -0.246685      0.100947
  H      -0.691234      0.808014     -1.365470
  H      -0.753648     -0.946651     -1.517318
  H       0.414440     -1.181990      0.667700
  H       0.488240      0.586514      0.810455
  H      -2.082730     -0.996201      0.482880
  H      -2.042180      0.622797      0.600630
  H       2.412216     -0.295720     -0.147666
  O      -4.706042     -0.038422     -0.495603
  C      -3.909836      0.006459     -1.355523
  O      -3.413117      0.076919     -2.412978
14
Coordinates from ORCA-job ./orca E -398.980230997429
  O       1.640877     -0.228953     -0.725602
  N      -2.016916     -0.143263     -0.064019
  C      -0.752488     -0.123478     -0.798154
  C       0.465772     -0.246919      0.100928
  H      -0.692861      0.808607     -1.364233
  H      -0.755492     -0.945622     -1.517245
  H       0.415193     -1.182473      0.667299
  H       0.489351      0.585952      0.810764
  H      -2.085200     -0.996072      0.483330
  H      -2.044926      0.624177      0.600517
  H       2.412438     -0.296096     -0.149429
  O      -4.704073     -0.038601     -0.496933
  C      -3.908685      0.005835     -1.355714
  O      -3.409972      0.075594     -2.412190
14
Coordinates from ORCA-job ./orca E -398.980263404976
  O       1.640457     -0.229016     -0.728112
  N      -2.016181     -0.142259     -0.061142
  C      -0.752908     -0.122502     -0.796022
  C       0.466819     -0.247449      0.100544
  H      -0.696181      0.810304     -1.361268
  H      -0.759513     -0.943048     -1.516890
  H       0.416795     -1.183658      0.665889
  H       0.491935      0.584503      0.811343
  H      -2.091671     -0.995865      0.484285
  H      -2.052057      0.627749      0.600180
  H       2.413131     -0.297248     -0.153524
  O      -4.700178     -0.039117     -0.498813
  C      -3.905706      0.004199     -1.356420
  O      -3.401723      0.072096     -2.410730
14
Coordinates from ORCA-job ./orca E -398.980263702285
  O       1.640354     -0.229089     -0.729115
  N      -2.015748     -0.141745     -0.059922
  C      -0.753176     -0.121814     -0.795124
  C       0.467195     -0.247638      0.100258
  H      -0.697027      0.811284     -1.359993
  H      -0.760812     -0.941785     -1.516682
  H       0.417284     -1.184170      0.665083
  H       0.493041      0.583858      0.811565
  H      -2.094637     -0.995647      0.484315
  H      -2.055335      0.629288      0.599786
  H       2.413357     -0.298048     -0.155069
  O      -4.698877     -0.039444     -0.498812
  C      -3.904307      0.003336     -1.356762
  O      -3.398294      0.070300     -2.410211
14
Coordinates from ORCA-job ./orca E -398.980264074327
  O       1.640364     -0.229190     -0.729610
  N      -2.015357     -0.141292     -0.059301
  C      -0.753378     -0.121102     -0.794618
  C       0.467412     -0.247725      0.100076
  H      -0.696862      0.812186     -1.359160
  H      -0.761069     -0.940769     -1.516582
  H       0.417441     -1.184505      0.664490
  H       0.493811      0.583427      0.811786
  H      -2.096609     -0.995420      0.483880
  H      -2.057514      0.630321      0.599293
  H       2.413457     -0.298917     -0.155795
  O      -4.698303     -0.039726     -0.498234
  C      -3.903484      0.002598     -1.356901
  O      -3.396891      0.068801     -2.410007
14
Coordinates from ORCA-job ./orca E -398.980265812567
  O       1.640454     -0.229195     -0.729576
  N      -2.015188     -0.141008     -0.059370
  C      -0.753370     -0.120716     -0.794547
  C       0.467504     -0.247769      0.100114
  H      -0.696243      0.812669     -1.358868
  H      -0.760680     -0.940278     -1.516658
  H       0.417417     -1.184702      0.664272
  H       0.494075      0.583190      0.812058
  H      -2.097112     -0.995226      0.483416
  H      -2.058057      0.630715      0.598935
  H       2.413507     -0.299403     -0.155771
  O      -4.698301     -0.039770     -0.497752
  C      -3.903486      0.002213     -1.356796
  O      -3.397505      0.067967     -2.410138
14
Coordinates from ORCA-job ./orca E -398.979620143940
  O       1.634461     -0.228923     -0.728014
  N      -2.022996     -0.140998     -0.067092
  C      -0.759071     -0.120224     -0.803357
  C       0.457938     -0.246845      0.096640
  H      -0.699958      0.812637     -1.368343
  H      -0.755061     -0.944066     -1.521018
  H       0.405321     -1.183415      0.661174
  H       0.481535      0.584561      0.808172
  H      -2.092590     -1.006255      0.486594
  H      -2.053047      0.638262      0.605386
  H       2.405036     -0.298852     -0.150837
  O      -4.689618     -0.040000     -0.490850
  C      -3.871916      0.001850     -1.340750
  O      -3.387016      0.070954     -2.408385
14
Coordinates from ORCA-job ./orca E -398.980005808078
  O       1.633240     -0.229748     -0.728322
  N      -2.022006     -0.141509     -0.065877
  C      -0.759159     -0.120380     -0.801249
  C       0.458456     -0.246412      0.098334
  H      -0.701549      0.812572     -1.365580
  H      -0.759902     -0.942682     -1.519991
  H       0.405965     -1.182536      0.663447
  H       0.483611      0.585629      0.809088
  H      -2.092372     -0.994604      0.480491
  H      -2.053301      0.626430      0.597625
  H       2.404666     -0.299586     -0.152313
  O      -4.686447     -0.040580     -0.493186
  C      -3.871452      0.001391     -1.338766
  O      -3.386732      0.070701     -2.404382
14
Coordinates from ORCA-job ./orca E -398.980018931191
  O       1.633222     -0.229997     -0.728884
  N      -2.021640     -0.141726     -0.065135
  C      -0.758961     -0.120532     -0.800803
  C       0.458931     -0.246281      0.098418
  H      -0.701792      0.812526     -1.365026
  H      -0.762150     -0.942041     -1.520324
  H       0.406564     -1.182194      0.663915
  H       0.484475      0.585991      0.808818
  H      -2.094727     -0.995379      0.480072
  H      -2.055537      0.626959      0.597482
  H       2.404990     -0.299638     -0.153274
  O      -4.684841     -0.040704     -0.494070
  C      -3.870755      0.001240     -1.338497
  O      -3.384761      0.070463     -2.403372
14
Coordinates from ORCA-job ./orca E -398.980038528796
  O       1.633560     -0.230013     -0.729913
  N      -2.020775     -0.141858     -0.063705
  C      -0.758634     -0.120876     -0.799851
  C       0.459847     -0.246389      0.098268
  H      -0.702159      0.812392     -1.363928
  H      -0.766090     -0.941090     -1.520712
  H       0.408007     -1.182134      0.664143
  H       0.485599      0.586002      0.808408
  H      -2.099989     -0.996689      0.479033
  H      -2.060452      0.628584      0.596781
  H       2.405849     -0.299163     -0.154908
  O      -4.682154     -0.040566     -0.494370
  C      -3.869212      0.000968     -1.338067
  O      -3.380380      0.069519     -2.401857
14
Coordinates from ORCA-job ./orca E -398.980041773837
  O       1.633928     -0.229694     -0.730281
  N      -2.020120     -0.141584     -0.063149
  C      -0.758456     -0.120916     -0.799363
  C       0.460323     -0.246758      0.098078
  H      -0.702068      0.812491     -1.363300
  H      -0.767435     -0.940639     -1.520790
  H       0.408948     -1.182696      0.663690
  H       0.485892      0.585370      0.808526
  H      -2.103145     -0.996865      0.478086
  H      -2.063399      0.629832      0.595782
  H       2.406343     -0.298665     -0.155432
  O      -4.680898     -0.040219     -0.493453
  C      -3.868399      0.000693     -1.337802
  O      -3.378497      0.068336     -2.401272
14
Coordinates from ORCA-job ./orca E -398.980049532286
  O       1.634447     -0.229099     -0.730284
  N      -2.019392     -0.140889     -0.063143
  C      -0.758195     -0.120619     -0.799043
  C       0.460767     -0.247386      0.097951
  H      -0.701381      0.812983     -1.362661
  H      -0.767398     -0.940069     -1.520853
  H       0.409826     -1.183889      0.662659
  H       0.486001      0.584056      0.809260
  H      -2.106048     -0.996372      0.476813
  H      -2.066136      0.631417      0.594163
  H       2.406816     -0.298230     -0.155412
  O      -4.679946     -0.039606     -0.491609
  C      -3.868016      0.000153     -1.337433
  O      -3.378324      0.066237     -2.401088
14
Coordinates from ORCA-job ./orca E -398.980050692236
  O       1.634836     -0.228899     -0.729901
  N      -2.019019     -0.140259     -0.063757
  C      -0.757873     -0.120055     -0.799102
  C       0.460986     -0.247726      0.098064
  H      -0.700414      0.813745     -1.362320
  H      -0.766233     -0.939419     -1.521071
  H       0.409927     -1.184686      0.661988
  H       0.486152      0.583172      0.810049
  H      -2.107009     -0.995728      0.475815
  H      -2.067150      0.632327      0.592940
  H       2.407049     -0.298535     -0.154889
  O      -4.679694     -0.039353     -0.490083
  C      -3.868411     -0.000431     -1.337064
  O      -3.380130      0.064534     -2.401350
14
Coordinates from ORCA-job ./orca E -398.979554627415
  O       1.626157     -0.228341     -0.733844
  N      -2.027404     -0.139886     -0.066061
  C      -0.766588     -0.119626     -0.801972
  C       0.452680     -0.247216      0.094649
  H      -0.709437      0.814166     -1.365235
  H      -0.775228     -0.939003     -1.523922
  H       0.401924     -1.184169      0.658612
  H       0.478122      0.583696      0.806608
  H      -2.105844     -1.005563      0.485179
  H      -2.065574      0.640666      0.603552
  H       2.398632     -0.297926     -0.159177
  O      -4.669257     -0.039547     -0.491945
  C      -3.830474     -0.002364     -1.325810
  O      -3.354690      0.063800     -2.401316
14
Coordinates from ORCA-job ./orca E -398.979937882623
  O       1.625360     -0.228994     -0.732758
  N      -2.026377     -0.140044     -0.065433
  C      -0.765660     -0.119297     -0.802256
  C       0.452306     -0.246983      0.095757
  H      -0.708771      0.814595     -1.365054
  H      -0.774045     -0.938912     -1.523671
  H       0.400767     -1.183704      0.659937
  H       0.477895      0.584316      0.807183
  H      -2.104589     -0.993928      0.478337
  H      -2.065105      0.629324      0.595824
  H       2.397691     -0.298752     -0.157932
  O      -4.666747     -0.040017     -0.492458
  C      -3.831545     -0.002664     -1.322187
  O      -3.358161      0.063747     -2.395971
14
Coordinates from ORCA-job ./orca E -398.979952445514
  O       1.625734     -0.229350     -0.732314
  N      -2.025838     -0.140053     -0.065524
  C      -0.765061     -0.119017     -0.803086
  C       0.452377     -0.246814      0.095755
  H      -0.708272      0.814939     -1.365598
  H      -0.773240     -0.938713     -1.524275
  H       0.400275     -1.183406      0.660086
  H       0.477930      0.584587      0.807046
  H      -2.105873     -0.994711      0.476961
  H      -2.066442      0.629995      0.595021
  H       2.397856     -0.299289     -0.157195
  O      -4.665647     -0.040212     -0.491949
  C      -3.831917     -0.002823     -1.320987
  O      -3.358863      0.063551     -2.394624
14
Coordinates from ORCA-job ./orca E -398.979958479447
  O       1.626720     -0.229835     -0.731569
  N      -2.024849     -0.139946     -0.065951
  C      -0.764157     -0.118548     -0.804002
  C       0.452735     -0.246636      0.095752
  H      -0.707628      0.815624     -1.365974
  H      -0.772240     -0.938287     -1.524997
  H       0.399772     -1.183112      0.660171
  H       0.478235      0.584778      0.807001
  H      -2.108487     -0.995852      0.474214
  H      -2.069055      0.631340      0.593082
  H       2.398511     -0.300097     -0.156025
  O      -4.664294     -0.040409     -0.489945
  C      -3.832459     -0.003162     -1.319255
  O      -3.359786      0.062828     -2.393184
14
Coordinates from ORCA-job ./orca E -398.979970804810
  O       1.627855     -0.230185     -0.730811
  N      -2.023793     -0.139700     -0.066755
  C      -0.763199     -0.118093     -0.804459
  C       0.453335     -0.246605      0.095867
  H      -0.706757      0.816360     -1.365900
  H      -0.771233     -0.937744     -1.525507
  H       0.399666     -1.183104      0.660168
  H       0.478794      0.584700      0.807220
  H      -2.111529     -0.996557      0.471055
  H      -2.071994      0.632661      0.590575
  H       2.399353     -0.300737     -0.154918
  O      -4.663212     -0.040435     -0.487087
  C      -3.833032     -0.003570     -1.317780
  O      -3.361237      0.061695     -2.392348
14
Coordinates from ORCA-job ./orca E -398.979975553450
  O       1.629308     -0.230423     -0.729751
  N      -2.022567     -0.139238     -0.068341
  C      -0.761898     -0.117563     -0.804649
  C       0.454249     -0.246753      0.096190
  H      -0.705090      0.817242     -1.365527
  H      -0.769699     -0.936902     -1.526105
  H       0.399895     -1.183460      0.660088
  H       0.479573      0.584278      0.807853
  H      -2.115202     -0.996788      0.467097
  H      -2.075421      0.634032      0.587189
  H       2.400439     -0.301272     -0.153424
  O      -4.662110     -0.040193     -0.482880
  C      -3.833988     -0.004125     -1.316314
  O      -3.364469      0.059852     -2.392104
14
Coordinates from ORCA-job ./orca E -398.979976977124
  O       1.630179     -0.230390     -0.728920
  N      -2.021986     -0.138821     -0.069897
  C      -0.760960     -0.117284     -0.804620
  C       0.454867     -0.247008      0.096583
  H      -0.703389      0.817680     -1.365279
  H      -0.768345     -0.936277     -1.526565
  H       0.400232     -1.183979      0.660033
  H       0.479962      0.583744      0.808590
  H      -2.116994     -0.996373      0.464826
  H      -2.076960      0.634543      0.585102
  H       2.401079     -0.301323     -0.152303
  O      -4.661629     -0.039798     -0.479974
  C      -3.834985     -0.004473     -1.315661
  O      -3.368055      0.058445     -2.392595
14
Coordinates from ORCA-job ./orca E -398.979979884607
  O       1.631026     -0.230244     -0.727805
  N      -2.021594     -0.138315     -0.071921
  C      -0.759892     -0.117021     -0.804790
  C       0.455371     -0.247354      0.097090
  H      -0.701154      0.818038     -1.365301
  H      -0.766624     -0.935615     -1.527288
  H       0.400444     -1.184660      0.659976
  H       0.480024      0.583038      0.809549
  H      -2.117923     -0.995630      0.462831
  H      -2.077593      0.634771      0.583222
  H       2.401618     -0.301193     -0.150782
  O      -4.661305     -0.039240     -0.476999
  C      -3.836462     -0.004810     -1.315049
  O      -3.372918      0.056921     -2.393413
14
Coordinates from ORCA-job ./orca E -398.979977266955
  O       1.631836     -0.230125     -0.726496
  N      -2.021328     -0.137810     -0.074020
  C      -0.758821     -0.116727     -0.805327
  C       0.455644     -0.247670      0.097555
  H      -0.698916      0.818414     -1.365647
  H      -0.764877     -0.934986     -1.528261
  H       0.400284     -1.185282      0.659902
  H       0.479735      0.582355      0.810471
  H      -2.117984     -0.994901      0.461102
  H      -2.077410      0.634857      0.581662
  H       2.402025     -0.301084     -0.148936
  O      -4.661115     -0.038672     -0.474278
  C      -3.838188     -0.005133     -1.314325
  O      -3.377866      0.055451     -2.394081
14
Coordinates from ORCA-job ./orca E -398.979984276610
  O       1.632855     -0.230021     -0.724768
  N      -2.021000     -0.137205     -0.076433
  C      -0.757560     -0.116284     -0.806344
  C       0.455767     -0.248010      0.097975
  H      -0.696488      0.819027     -1.366263
  H      -0.762957     -0.934212     -1.529663
  H       0.399673     -1.185980      0.659651
  H       0.479097      0.581530      0.811477
  H      -2.117555     -0.994184      0.459050
  H      -2.076765      0.635054      0.579885
  H       2.402437     -0.301049     -0.146403
  O      -4.660927     -0.037924     -0.471126
  C      -3.840318     -0.005569     -1.313240
  O      -3.383241      0.053513     -2.394479
14
Coordinates from ORCA-job ./orca E -398.979984145356
  O       1.633174     -0.230169     -0.724169
  N      -2.020943     -0.136982     -0.077118
  C      -0.757186     -0.115975     -0.806854
  C       0.455677     -0.248052      0.098029
  H      -0.695924      0.819482     -1.366471
  H      -0.762497     -0.933806     -1.530259
  H       0.399128     -1.186098      0.659529
  H       0.478847      0.581360      0.811678
  H      -2.117006     -0.994064      0.458386
  H      -2.076289      0.635143      0.579468
  H       2.402509     -0.301291     -0.145491
  O      -4.660999     -0.037725     -0.470286
  C      -3.841053     -0.005814     -1.312809
  O      -3.384419      0.052678     -2.394312
14
Coordinates from ORCA-job ./orca E -398.979668587363
  O       1.624565     -0.229638     -0.727942
  N      -2.029323     -0.136621     -0.079568
  C      -0.765831     -0.115569     -0.809762
  C       0.447367     -0.247555      0.094685
  H      -0.704827      0.819871     -1.369437
  H      -0.771360     -0.933424     -1.533138
  H       0.391071     -1.185587      0.656234
  H       0.470755      0.581880      0.808299
  H      -2.116440     -1.003728      0.467351
  H      -2.075388      0.643378      0.589722
  H       2.394114     -0.300703     -0.149541
  O      -4.649166     -0.037992     -0.471134
  C      -3.803131     -0.007614     -1.301831
  O      -3.359386      0.051989     -2.394616
14
Coordinates from ORCA-job ./orca E -398.980036878350
  O       1.623511     -0.230382     -0.727232
  N      -2.028262     -0.136614     -0.078391
  C      -0.765050     -0.115023     -0.809898
  C       0.446898     -0.247394      0.095633
  H      -0.704630      0.820644     -1.368907
  H      -0.771114     -0.932886     -1.532963
  H       0.389837     -1.185255      0.657286
  H       0.470626      0.582337      0.808810
  H      -2.115167     -0.992180      0.461179
  H      -2.075257      0.632583      0.582326
  H       2.393023     -0.301748     -0.148842
  O      -4.646635     -0.038682     -0.472255
  C      -3.803610     -0.008183     -1.298476
  O      -3.361151      0.051470     -2.388949
14
Coordinates from ORCA-job ./orca E -398.980050721801
  O       1.623693     -0.230765     -0.727174
  N      -2.027770     -0.136490     -0.077899
  C      -0.764675     -0.114580     -0.810517
  C       0.446923     -0.247311      0.095469
  H      -0.704615      0.821263     -1.369074
  H      -0.771132     -0.932351     -1.533539
  H       0.389377     -1.185121      0.657150
  H       0.470796      0.582405      0.808638
  H      -2.116299     -0.992844      0.460416
  H      -2.076709      0.633613      0.581874
  H       2.393110     -0.302411     -0.148659
  O      -4.645960     -0.038952     -0.472717
  C      -3.803530     -0.008575     -1.297440
  O      -3.360191      0.050807     -2.387210
14
Coordinates from ORCA-job ./orca E -398.980055823024
  O       1.624180     -0.231245     -0.727222
  N      -2.026965     -0.136167     -0.077169
  C      -0.764330     -0.113856     -0.810952
  C       0.447134     -0.247296      0.095179
  H      -0.704910      0.822378     -1.368722
  H      -0.771613     -0.931389     -1.534096
  H       0.388958     -1.185146      0.656710
  H       0.471316      0.582220      0.808541
  H      -2.118380     -0.993630      0.459098
  H      -2.079254      0.635392      0.580811
  H       2.393513     -0.303367     -0.148640
  O      -4.645360     -0.039227     -0.472622
  C      -3.803148     -0.009293     -1.296201
  O      -3.358124      0.049313     -2.385393
14
Coordinates from ORCA-job ./orca E -398.980061038331
  O       1.624566     -0.231536     -0.727388
  N      -2.026321     -0.135783     -0.076690
  C      -0.764141     -0.113214     -0.810843
  C       0.447463     -0.247396      0.095021
  H      -0.705072      0.823415     -1.367941
  H      -0.772036     -0.930418     -1.534321
  H       0.388922     -1.185417      0.656220
  H       0.472022      0.581831      0.808688
  H      -2.120327     -0.993852      0.457984
  H      -2.081550      0.636788      0.579715
  H       2.393908     -0.304090     -0.148877
  O      -4.645002     -0.039283     -0.472076
  C      -3.802689     -0.009986     -1.295564
  O      -3.356725      0.047627     -2.384608
14
Coordinates from ORCA-job ./orca E -398.980066161946
  O       1.624900     -0.231700     -0.727549
  N      -2.025758     -0.135309     -0.076529
  C      -0.763939     -0.112578     -0.810422
  C       0.447905     -0.247601      0.095021
  H      -0.704841      0.824440     -1.366904
  H      -0.772139     -0.929338     -1.534440
  H       0.389138     -1.185912      0.655715
  H       0.472871      0.581249      0.809104
  H      -2.122286     -0.993655      0.456913
  H      -2.083758      0.637946      0.578546
  H       2.394296     -0.304662     -0.149177
  O      -4.644589     -0.039123     -0.471127
  C      -3.802301     -0.010706     -1.295272
  O      -3.356480      0.045636     -2.384557
14
Coordinates from ORCA-job ./orca E -398.980064353206
  O       1.625127     -0.231669     -0.727506
  N      -2.025467     -0.134918     -0.076824
  C      -0.763694     -0.112158     -0.810088
  C       0.448249     -0.247826      0.095173
  H      -0.704182      0.825088     -1.366204
  H      -0.771770     -0.928526     -1.534596
  H       0.389389     -1.186439      0.655372
  H       0.473399      0.580676      0.809663
  H      -2.123425     -0.993222      0.456214
  H      -2.084958      0.638517      0.577727
  H       2.394549     -0.304896     -0.149210
  O      -4.644212     -0.038761     -0.470154
  C      -3.802313     -0.011195     -1.295213
  O      -3.357674      0.044017     -2.385034
14
Coordinates from ORCA-job ./orca E -398.980064443723
  O       1.625414     -0.231584     -0.727198
  N      -2.025251     -0.134505     -0.077517
  C      -0.763285     -0.111739     -0.809952
  C       0.448546     -0.248065      0.095426
  H      -0.703115      0.825702     -1.365729
  H      -0.770999     -0.927710     -1.534959
  H       0.389528     -1.186995      0.655084
  H       0.473728      0.580056      0.810360
  H      -2.124153     -0.992700      0.455456
  H      -2.085688      0.638890      0.576937
  H       2.394794     -0.305076     -0.148875
  O      -4.643816     -0.038242     -0.468934
  C      -3.802717     -0.011655     -1.295092
  O      -3.359969      0.042311     -2.385688
14
Coordinates from ORCA-job ./orca E -398.979926859563
  O       1.616878     -0.231073     -0.730897
  N      -2.033592     -0.134162     -0.080089
  C      -0.771852     -0.111356     -0.812914
  C       0.440267     -0.247581      0.092093
  H      -0.711913      0.826060     -1.368757
  H      -0.779746     -0.927360     -1.537881
  H       0.381472     -1.186490      0.651809
  H       0.465628      0.580572      0.806984
  H      -2.123721     -1.002431      0.464306
  H      -2.084978      0.647227      0.587092
  H       2.386442     -0.304500     -0.152811
  O      -4.631974     -0.038484     -0.469833
  C      -3.764904     -0.013371     -1.283900
  O      -3.334990      0.041636     -2.385882
14
Coordinates from ORCA-job ./orca E -398.980300433005
  O       1.615817     -0.231728     -0.729991
  N      -2.032468     -0.134056     -0.079263
  C      -0.770796     -0.110729     -0.813199
  C       0.439819     -0.247476      0.093212
  H      -0.711166      0.826895     -1.368326
  H      -0.779049     -0.926647     -1.537914
  H       0.380228     -1.186304      0.652872
  H       0.465427      0.580864      0.807787
  H      -2.122306     -0.990670      0.458036
  H      -2.084733      0.636437      0.579435
  H       2.385328     -0.305609     -0.151916
  O      -4.629400     -0.039163     -0.470688
  C      -3.765687     -0.014025     -1.280404
  O      -3.337996      0.040898     -2.380320
14
Coordinates from ORCA-job ./orca E -398.980313143738
  O       1.616127     -0.232020     -0.729705
  N      -2.031932     -0.133828     -0.079122
  C      -0.770206     -0.110219     -0.813933
  C       0.439889     -0.247457      0.093154
  H      -0.710738      0.827597     -1.368551
  H      -0.778756     -0.925989     -1.538664
  H       0.379765     -1.186321      0.652689
  H       0.465521      0.580752      0.807858
  H      -2.123314     -0.991143      0.457128
  H      -2.086120      0.637548      0.578698
  H       2.385497     -0.306325     -0.151459
  O      -4.628747     -0.039399     -0.470807
  C      -3.765913     -0.014504     -1.279233
  O      -3.338055      0.039995     -2.378734
14
Coordinates from ORCA-job ./orca E -398.980316382105
  O       1.616856     -0.232346     -0.729319
  N      -2.031069     -0.133327     -0.079038
  C      -0.769507     -0.109381     -0.814570
  C       0.440161     -0.247550      0.093028
  H      -0.710333      0.828867     -1.368299
  H      -0.778703     -0.924822     -1.539532
  H       0.379304     -1.186598      0.652149
  H       0.465881      0.580266      0.808155
  H      -2.125075     -0.991554      0.455554
  H      -2.088453      0.639417      0.577119
  H       2.386025     -0.307386     -0.150885
  O      -4.628231     -0.039612     -0.470018
  C      -3.766087     -0.015368     -1.277786
  O      -3.337750      0.038080     -2.377239
14
Coordinates from ORCA-job ./orca E -398.980325929427
  O       1.617552     -0.232625     -0.729018
  N      -2.030246     -0.132741     -0.079146
  C      -0.768920     -0.108521     -0.814749
  C       0.440553     -0.247723      0.092984
  H      -0.709854      0.830216     -1.367600
  H      -0.778635     -0.923529     -1.540156
  H       0.379085     -1.187047      0.651565
  H       0.466485      0.579651      0.808594
  H      -2.126910     -0.991543      0.453911
  H      -2.090830      0.641074      0.575340
  H       2.386564     -0.308392     -0.150478
  O      -4.627856     -0.039715     -0.468646
  C      -3.766142     -0.016291     -1.276767
  O      -3.337831      0.035874     -2.376514
14
Coordinates from ORCA-job ./orca E -398.980326587843
  O       1.618274     -0.232737     -0.728714
  N      -2.029433     -0.131951     -0.079552
  C      -0.768284     -0.107513     -0.814569
  C       0.441116     -0.248066      0.093068
  H      -0.708955      0.831814     -1.366423
  H      -0.778298     -0.921840     -1.540772
  H       0.379113     -1.187897      0.650739
  H       0.467325      0.578632      0.809441
  H      -2.129009     -0.991023      0.452188
  H      -2.093468      0.642781      0.573221
  H       2.387154     -0.309376     -0.150132
  O      -4.627357     -0.039465     -0.466673
  C      -3.766232     -0.017424     -1.276051
  O      -3.338929      0.032751     -2.376451
14
Coordinates from ORCA-job ./orca E -398.980327275605
  O       1.618638     -0.232696     -0.728457
  N      -2.029089     -0.131415     -0.080144
  C      -0.767868     -0.106891     -0.814325
  C       0.441484     -0.248349      0.093263
  H      -0.707990      0.832771     -1.365623
  H      -0.777705     -0.920690     -1.541183
  H       0.379231     -1.188585      0.650242
  H       0.467840      0.577866      0.810193
  H      -2.130043     -0.990394      0.451267
  H      -2.094756      0.643531      0.572023
  H       2.387453     -0.309841     -0.149863
  O      -4.626924     -0.039028     -0.465211
  C      -3.766482     -0.018120     -1.275897
  O      -3.340770      0.030529     -2.376964
14
Coordinates from ORCA-job ./orca E -398.980328720431
  O       1.618953     -0.232588     -0.728047
  N      -2.028904     -0.130920     -0.081019
  C      -0.767405     -0.106324     -0.814216
  C       0.441761     -0.248636      0.093534
  H      -0.706762      0.833612     -1.365032
  H      -0.776810     -0.919595     -1.541727
  H       0.379256     -1.189276      0.649817
  H       0.468140      0.577094      0.811030
  H      -2.130558     -0.989709      0.450489
  H      -2.095439      0.643951      0.571080
  H       2.387672     -0.310148     -0.149382
  O      -4.626473     -0.038342     -0.463716
  C      -3.767024     -0.018719     -1.275817
  O      -3.343388      0.028286     -2.377676
14
Coordinates from ORCA-job ./orca E -398.980390477208
  O       1.610479     -0.232102     -0.731680
  N      -2.037210     -0.130606     -0.083674
  C      -0.775909     -0.105975     -0.817210
  C       0.433511     -0.248169      0.090221
  H      -0.715478      0.833929     -1.368104
  H      -0.785461     -0.919289     -1.544670
  H       0.371209     -1.188781      0.646573
  H       0.460038      0.577603      0.807663
  H      -2.130221     -0.999488      0.459246
  H      -2.094905      0.652385      0.581139
  H       2.379359     -0.309586     -0.153219
  O      -4.614624     -0.038552     -0.464667
  C      -3.729293     -0.020321     -1.264487
  O      -3.318476      0.027639     -2.377811
14
Coordinates from ORCA-job ./orca E -398.980765473006
  O       1.609355     -0.232632     -0.730726
  N      -2.036088     -0.130602     -0.082956
  C      -0.774779     -0.105413     -0.817598
  C       0.433018     -0.248086      0.091378
  H      -0.714652      0.834691     -1.367751
  H      -0.784613     -0.918636     -1.544774
  H       0.369961     -1.188643      0.647621
  H       0.459698      0.577854      0.808530
  H      -2.128740     -0.987835      0.452932
  H      -2.094511      0.641415      0.573435
  H       2.378181     -0.310464     -0.152267
  O      -4.611995     -0.038870     -0.465401
  C      -3.730149     -0.020863     -1.260980
  O      -3.321669      0.026771     -2.372123
14
Coordinates from ORCA-job ./orca E -398.980777856467
  O       1.609694     -0.232826     -0.730379
  N      -2.035580     -0.130496     -0.082922
  C      -0.774151     -0.104995     -0.818391
  C       0.433085     -0.248079      0.091336
  H      -0.714215      0.835300     -1.368030
  H      -0.784228     -0.918090     -1.545554
  H       0.369545     -1.188677      0.647448
  H       0.459689      0.577728      0.808620
  H      -2.129708     -0.988430      0.451950
  H      -2.095819      0.642354      0.572675
  H       2.378373     -0.310942     -0.151719
  O      -4.611308     -0.038714     -0.465409
  C      -3.730469     -0.021213     -1.259797
  O      -3.321889      0.025767     -2.370510
14
Coordinates from ORCA-job ./orca E -398.980780102539
  O       1.610443     -0.232992     -0.729908
  N      -2.034794     -0.130227     -0.083008
  C      -0.773432     -0.104335     -0.819082
  C       0.433337     -0.248178      0.091234
  H      -0.713829      0.836376     -1.367864
  H      -0.784036     -0.917143     -1.546431
  H       0.369170     -1.188958      0.646943
  H       0.459869      0.577252      0.808926
  H      -2.131299     -0.989043      0.450306
  H      -2.097934      0.643833      0.571129
  H       2.378907     -0.311572     -0.151010
  O      -4.610760     -0.038221     -0.464437
  C      -3.730779     -0.021829     -1.258386
  O      -3.321844      0.023724     -2.369092
14
Coordinates from ORCA-job ./orca E -398.980789952626
  O       1.611141     -0.233162     -0.729531
  N      -2.034036     -0.129911     -0.083256
  C      -0.772826     -0.103646     -0.819324
  C       0.433694     -0.248324      0.091211
  H      -0.713401      0.837532     -1.367267
  H      -0.783819     -0.916069     -1.547066
  H       0.369002     -1.189342      0.646445
  H       0.460301      0.576724      0.809319
  H      -2.132932     -0.989315      0.448561
  H      -2.100117      0.645046      0.569429
  H       2.379436     -0.312184     -0.150478
  O      -4.610335     -0.037586     -0.462916
  C      -3.730948     -0.022485     -1.257385
  O      -3.322141      0.021410     -2.368421
14
Coordinates from ORCA-job ./orca E -398.980790396981
  O       1.611910     -0.233079     -0.729121
  N      -2.033248     -0.129423     -0.083784
  C      -0.772155     -0.102796     -0.819240
  C       0.434226     -0.248671      0.091292
  H      -0.712574      0.838981     -1.366169
  H      -0.783339     -0.914542     -1.547764
  H       0.369094     -1.190214      0.645590
  H       0.460920      0.575681      0.810185
  H      -2.134873     -0.989155      0.446673
  H      -2.102675      0.646338      0.567325
  H       2.380044     -0.312663     -0.149948
  O      -4.609747     -0.036239     -0.460731
  C      -3.731132     -0.023352     -1.256630
  O      -3.323433      0.017821     -2.368360
14
Coordinates from ORCA-job ./orca E -398.980790984034
  O       1.612267     -0.232899     -0.728848
  N      -2.032922     -0.129080     -0.084367
  C      -0.771756     -0.102255     -0.819025
  C       0.434565     -0.248959      0.091468
  H      -0.711711      0.839867     -1.365381
  H      -0.782720     -0.913455     -1.548218
  H       0.369255     -1.190932      0.645031
  H       0.461308      0.574876      0.810956
  H      -2.135777     -0.988763      0.445726
  H      -2.103938      0.646835      0.566205
  H       2.380330     -0.312816     -0.149634
  O      -4.609278     -0.035036     -0.459253
  C      -3.731363     -0.023898     -1.256485
  O      -3.325243      0.015200     -2.368855
14
Coordinates from ORCA-job ./orca E -398.980792144724
  O       1.612562     -0.232649     -0.728467
  N      -2.032750     -0.128741     -0.085176
  C      -0.771333     -0.101701     -0.818892
  C       0.434831     -0.249269      0.091715
  H      -0.710597      0.840737     -1.364697
  H      -0.781844     -0.912297     -1.548821
  H       0.369345     -1.191706      0.644483
  H       0.461547      0.574003      0.811853
  H      -2.136193     -0.988275      0.444966
  H      -2.104696      0.647059      0.565356
  H       2.380538     -0.312870     -0.149180
  O      -4.608802     -0.033515     -0.457807
  C      -3.731826     -0.024418     -1.256450
  O      -3.327763      0.012327     -2.369563
14
Coordinates from ORCA-job ./orca E -398.981061880619
  O       1.604154     -0.232185     -0.732029
  N      -2.041019     -0.128444     -0.087919
  C      -0.779769     -0.101374     -0.821920
  C       0.426611     -0.248817      0.088422
  H      -0.719222      0.841027     -1.367810
  H      -0.790397     -0.912020     -1.551791
  H       0.361303     -1.191223      0.641265
  H       0.453446      0.574502      0.808502
  H      -2.135949     -0.998112      0.453618
  H      -2.104329      0.655579      0.575320
  H       2.372267     -0.312327     -0.152912
  O      -4.596951     -0.033682     -0.458802
  C      -3.694185     -0.025941     -1.244985
  O      -3.302940      0.011702     -2.369641
14
Coordinates from ORCA-job ./orca E -398.981439594099
  O       1.603042     -0.232546     -0.730939
  N      -2.039890     -0.128697     -0.087379
  C      -0.778540     -0.101028     -0.822500
  C       0.426066     -0.248726      0.089596
  H      -0.718334      0.841528     -1.367694
  H      -0.789294     -0.911662     -1.551966
  H       0.360082     -1.191041      0.642390
  H       0.452834      0.574831      0.809321
  H      -2.134457     -0.986760      0.447072
  H      -2.103704      0.644231      0.567566
  H       2.371054     -0.312757     -0.151728
  O      -4.594218     -0.033401     -0.459245
  C      -3.695178     -0.026199     -1.241406
  O      -3.306446      0.010912     -2.363768
14
Coordinates from ORCA-job ./orca E -398.981447212423
  O       1.603454     -0.232582     -0.730468
  N      -2.039401     -0.128864     -0.087514
  C      -0.777856     -0.100856     -0.823414
  C       0.426129     -0.248701      0.089566
  H      -0.717921      0.841843     -1.368173
  H      -0.788736     -0.911465     -1.552745
  H       0.359772     -1.191010      0.642321
  H       0.452608      0.574798      0.809347
  H      -2.135439     -0.987675      0.445847
  H      -2.104853      0.644784      0.566792
  H       2.371285     -0.312764     -0.150968
  O      -4.593454     -0.032598     -0.459012
  C      -3.695639     -0.026240     -1.240168
  O      -3.306932      0.010017     -2.362092
14
Coordinates from ORCA-job ./orca E -398.981455838399
  O       1.604292     -0.232488     -0.729817
  N      -2.038659     -0.129074     -0.087862
  C      -0.777075     -0.100622     -0.824258
  C       0.426362     -0.248751      0.089490
  H      -0.717613      0.842399     -1.368338
  H      -0.788276     -0.911126     -1.553578
  H       0.359585     -1.191156      0.642006
  H       0.452426      0.574512      0.809526
  H      -2.136990     -0.988854      0.443845
  H      -2.106653      0.645553      0.565303
  H       2.371866     -0.312596     -0.149949
  O      -4.592807     -0.030966     -0.457665
  C      -3.696146     -0.026318     -1.238708
  O      -3.307292      0.008174     -2.360676
14
Coordinates from ORCA-job ./orca E -398.981462614844
  O       1.605123     -0.232228     -0.729221
  N      -2.037914     -0.129262     -0.088367
  C      -0.776391     -0.100378     -0.824681
  C       0.426707     -0.248908      0.089472
  H      -0.717261      0.843037     -1.368055
  H      -0.787806     -0.910629     -1.554241
  H       0.359664     -1.191560      0.641520
  H       0.452408      0.573986      0.809924
  H      -2.138626     -0.989713      0.441716
  H      -2.108578      0.646087      0.563583
  H       2.372464     -0.312216     -0.149036
  O      -4.592243     -0.028740     -0.455720
  C      -3.696516     -0.026430     -1.237599
  O      -3.308014      0.005639     -2.359976
14
Coordinates from ORCA-job ./orca E -398.981464450833
  O       1.605925     -0.231866     -0.728665
  N      -2.037195     -0.129450     -0.089112
  C      -0.775700     -0.100043     -0.824730
  C       0.427201     -0.249148      0.089580
  H      -0.716624      0.843838     -1.367341
  H      -0.787039     -0.909816     -1.554854
  H       0.359993     -1.192191      0.640949
  H       0.452634      0.573264      0.810580
  H      -2.140415     -0.990389      0.439408
  H      -2.110790      0.646340      0.561742
  H       2.373080     -0.311696     -0.148228
  O      -4.591557     -0.025716     -0.453273
  C      -3.696850     -0.026602     -1.236819
  O      -3.309645      0.002162     -2.359918
14
Coordinates from ORCA-job ./orca E -398.981465429568
  O       1.606374     -0.231505     -0.728301
  N      -2.036829     -0.129543     -0.089836
  C      -0.775239     -0.099719     -0.824548
  C       0.427586     -0.249389      0.089776
  H      -0.715848      0.844496     -1.366625
  H      -0.786187     -0.908963     -1.555326
  H       0.360336     -1.192830      0.640477
  H       0.452887      0.572566      0.811305
  H      -2.141437     -0.990620      0.437965
  H      -2.112209      0.646219      0.560651
  H       2.373442     -0.311231     -0.147742
  O      -4.590963     -0.023011     -0.451468
  C      -3.697139     -0.026785     -1.236604
  O      -3.311754     -0.000998     -2.360405
14
Coordinates from ORCA-job ./orca E -398.981466498785
  O       1.606660     -0.231105     -0.727951
  N      -2.036669     -0.129580     -0.090603
  C      -0.774855     -0.099349     -0.824400
  C       0.427854     -0.249642      0.090013
  H      -0.714946      0.845158     -1.365990
  H      -0.785248     -0.908014     -1.555885
  H       0.360566     -1.193509      0.639995
  H       0.453028      0.571806      0.812129
  H      -2.141845     -0.990663      0.436994
  H      -2.113030      0.645898      0.560032
  H       2.373668     -0.310787     -0.147306
  O      -4.590448     -0.020258     -0.450064
  C      -3.697533     -0.027001     -1.236584
  O      -3.314183     -0.004268     -2.361062
14
Coordinates from ORCA-job ./orca E -398.981468094508
  O       1.606891     -0.230695     -0.727538
  N      -2.036604     -0.129589     -0.091390
  C      -0.774487     -0.098878     -0.824423
  C       0.427989     -0.249891      0.090225
  H      -0.714052      0.845956     -1.365427
  H      -0.784339     -0.906927     -1.556630
  H       0.360583     -1.194204      0.639439
  H       0.453007      0.570989      0.812992
  H      -2.141718     -0.990693      0.436226
  H      -2.113388      0.645484      0.559699
  H       2.373812     -0.310414     -0.146779
  O      -4.590066     -0.017302     -0.448935
  C      -3.698065     -0.027276     -1.236530
  O      -3.316544     -0.007873     -2.361611
14
Coordinates from ORCA-job ./orca E -398.981469364851
  O       1.607223     -0.230108     -0.726892
  N      -2.036542     -0.129589     -0.092432
  C      -0.773984     -0.098080     -0.824656
  C       0.428052     -0.250236      0.090434
  H      -0.712973      0.847318     -1.364635
  H      -0.783250     -0.905226     -1.557887
  H       0.360361     -1.195205      0.638493
  H       0.452813      0.569768      0.814201
  H      -2.141111     -0.990830      0.435185
  H      -2.113581      0.644901      0.559401
  H       2.373968     -0.309989     -0.145918
  O      -4.589713     -0.012795     -0.447578
  C      -3.698899     -0.027744     -1.236312
  O      -3.319346     -0.013498     -2.362087
14
Coordinates from ORCA-job ./orca E -398.981466967591
  O       1.607696     -0.229253     -0.725963
  N      -2.036451     -0.129598     -0.093738
  C      -0.773329     -0.096747     -0.825130
  C       0.428015     -0.250718      0.090594
  H      -0.711772      0.849619     -1.363350
  H      -0.782031     -0.902528     -1.559875
  H       0.359805     -1.196677      0.636886
  H       0.452419      0.567932      0.815892
  H      -2.139888     -0.991203      0.433673
  H      -2.113681      0.644070      0.559154
  H       2.374136     -0.309510     -0.144638
  O      -4.589380     -0.005756     -0.445918
  C      -3.700052     -0.028525     -1.235876
  O      -3.322469     -0.022418     -2.362392
14
Coordinates from ORCA-job ./orca E -398.981471786790
  O       1.608732     -0.227126     -0.724032
  N      -2.036209     -0.129627     -0.096264
  C      -0.771998     -0.093414     -0.826133
  C       0.427869     -0.251889      0.090751
  H      -0.709610      0.855443     -1.359845
  H      -0.779829     -0.895831     -1.564558
  H       0.358457     -1.200297      0.632647
  H       0.451538      0.563394      0.819828
  H      -2.137089     -0.992294      0.430195
  H      -2.114167      0.642302      0.558754
  H       2.374475     -0.308460     -0.141940
  O      -4.588586      0.011624     -0.442686
  C      -3.702351     -0.030511     -1.234865
  O      -3.328213     -0.044628     -2.362533
14
Coordinates from ORCA-job ./orca E -398.981474080522
  O       1.609200     -0.225556     -0.723149
  N      -2.036131     -0.129667     -0.097249
  C      -0.771429     -0.090721     -0.826559
  C       0.427671     -0.252708      0.090628
  H      -0.708925      0.860152     -1.356643
  H      -0.779109     -0.890514     -1.567814
  H       0.357451     -1.202975      0.629165
  H       0.451114      0.560005      0.822558
  H      -2.135005     -0.993311      0.428096
  H      -2.114731      0.641082      0.559118
  H       2.374554     -0.307983     -0.140709
  O      -4.588038      0.025010     -0.441579
  C      -3.703362     -0.032133     -1.234391
  O      -3.330241     -0.061993     -2.362152
14
Coordinates from ORCA-job ./orca E -398.981478367202
  O       1.609405     -0.222594     -0.722723
  N      -2.036234     -0.129817     -0.097303
  C      -0.771240     -0.085306     -0.826508
  C       0.427231     -0.254144      0.090032
  H      -0.709299      0.869579     -1.349373
  H      -0.779379     -0.879885     -1.573315
  H       0.355813     -1.207959      0.622127
  H       0.450982      0.553634      0.827364
  H      -2.131411     -0.995584      0.425257
  H      -2.116443      0.638863      0.561219
  H       2.374403     -0.307638     -0.140211
  O      -4.586819      0.051038     -0.442259
  C      -3.703769     -0.035407     -1.234262
  O      -3.330221     -0.096093     -2.360726
14
Coordinates from ORCA-job ./orca E -398.981480644904
  O       1.608551     -0.221811     -0.724212
  N      -2.036594     -0.129972     -0.095072
  C      -0.772301     -0.083478     -0.825402
  C       0.427041     -0.254357      0.089499
  H      -0.711365      0.872706     -1.345999
  H      -0.781349     -0.876395     -1.573947
  H       0.355733     -1.209155      0.619849
  H       0.451840      0.552068      0.828271
  H      -2.130860     -0.996636      0.426001
  H      -2.117682      0.638217      0.563756
  H       2.373976     -0.308271     -0.142480
  O      -4.586461      0.058902     -0.445594
  C      -3.701986     -0.036490     -1.235246
  O      -3.325524     -0.106642     -2.360104
14
Coordinates from ORCA-job ./orca E -398.981484558178
  O       1.606998     -0.220255     -0.726918
  N      -2.037171     -0.130258     -0.091386
  C      -0.774092     -0.080908     -0.823136
  C       0.426992     -0.254712      0.088890
  H      -0.714310      0.877044     -1.340652
  H      -0.784078     -0.871249     -1.574382
  H       0.356347     -1.211073      0.616527
  H       0.453529      0.549570      0.829931
  H      -2.130963     -0.998148      0.427524
  H      -2.120284      0.637124      0.567902
  H       2.373372     -0.308995     -0.146781
  O      -4.585355      0.071034     -0.451159
  C      -3.698767     -0.038011     -1.237184
  O      -3.319201     -0.122477     -2.359858
14
Coordinates from ORCA-job ./orca E -398.981482660167
  O       1.606146     -0.219952     -0.728346
  N      -2.037416     -0.130390     -0.089632
  C      -0.774980     -0.080920     -0.821979
  C       0.427125     -0.254542      0.088847
  H      -0.715413      0.876917     -1.339760
  H      -0.785038     -0.871196     -1.573293
  H       0.357224     -1.210905      0.616582
  H       0.454406      0.549757      0.829852
  H      -2.131936     -0.998371      0.428925
  H      -2.121231      0.636895      0.569633
  H       2.373135     -0.309418     -0.149124
  O      -4.585076      0.071376     -0.453664
  C      -3.697095     -0.037947     -1.238191
  O      -3.316833     -0.122618     -2.360531
14
Coordinates from ORCA-job ./orca E -398.981964227278
  O       1.597806     -0.219597     -0.731836
  N      -2.045649     -0.130095     -0.092473
  C      -0.783342     -0.080627     -0.825040
  C       0.418935     -0.254157      0.085576
  H      -0.723929      0.877159     -1.342934
  H      -0.793505     -0.870966     -1.576287
  H       0.349154     -1.210484      0.613392
  H       0.446334      0.550196      0.826519
  H      -2.131561     -1.008369      0.437297
  H      -2.121253      0.645377      0.579675
  H       2.364903     -0.309004     -0.152750
  O      -4.573174      0.071708     -0.454713
  C      -3.659566     -0.039298     -1.226552
  O      -3.292136     -0.123155     -2.360554
14
Coordinates from ORCA-job ./orca E -398.982346012001
  O       1.596688     -0.219592     -0.730713
  N      -2.044525     -0.130783     -0.091983
  C      -0.782073     -0.080821     -0.825703
  C       0.418422     -0.253952      0.086820
  H      -0.723046      0.876871     -1.343344
  H      -0.792049     -0.871507     -1.576107
  H       0.348321     -1.210049      0.614873
  H       0.445455      0.550860      0.827197
  H      -2.130654     -0.997402      0.430609
  H      -2.120318      0.633508      0.571885
  H       2.363727     -0.308846     -0.151555
  O      -4.570270      0.071760     -0.454982
  C      -3.660559     -0.038964     -1.222961
  O      -3.296101     -0.122396     -2.354716
14
Coordinates from ORCA-job ./orca E -398.982359240410
  O       1.597132     -0.219384     -0.730217
  N      -2.044057     -0.131333     -0.092175
  C      -0.781381     -0.081137     -0.826640
  C       0.418551     -0.253765      0.086859
  H      -0.722751      0.876457     -1.344279
  H      -0.791282     -0.872163     -1.576519
  H       0.348396     -1.209683      0.615219
  H       0.445068      0.551252      0.827014
  H      -2.131997     -0.998764      0.429144
  H      -2.121331      0.633549      0.571213
  H       2.364027     -0.308467     -0.150796
  O      -4.569408      0.072487     -0.454696
  C      -3.661035     -0.038468     -1.221716
  O      -3.296913     -0.121895     -2.353090
14
Coordinates from ORCA-job ./orca E -398.982361602447
  O       1.597997     -0.218966     -0.729532
  N      -2.043324     -0.132162     -0.092606
  C      -0.780608     -0.081720     -0.827513
  C       0.418867     -0.253507      0.086885
  H      -0.722696      0.875786     -1.345213
  H      -0.790530     -0.873251     -1.576736
  H       0.348790     -1.209187      0.615655
  H       0.444613      0.551774      0.826758
  H      -2.134049     -1.000673      0.426763
  H      -2.122864      0.633498      0.569899
  H       2.364685     -0.307785     -0.149778
  O      -4.568634      0.073918     -0.453295
  C      -3.661542     -0.037698     -1.220238
  O      -3.297687     -0.121340     -2.351730
14
Coordinates from ORCA-job ./orca E -398.982369259818
  O       1.598798     -0.218570     -0.728943
  N      -2.042610     -0.132975     -0.093161
  C      -0.779966     -0.082324     -0.827943
  C       0.419267     -0.253249      0.086968
  H      -0.722671      0.875110     -1.345797
  H      -0.789788     -0.874270     -1.576700
  H       0.349365     -1.208711      0.616139
  H       0.444369      0.552341      0.826511
  H      -2.136044     -1.002280      0.424322
  H      -2.124443      0.633149      0.568473
  H       2.365301     -0.307132     -0.148912
  O      -4.568008      0.075468     -0.451395
  C      -3.661873     -0.036964     -1.219161
  O      -3.298680     -0.120908     -2.351079
14
Coordinates from ORCA-job ./orca E -398.982369354089
  O       1.599541     -0.218115     -0.728397
  N      -2.041963     -0.133764     -0.093898
  C      -0.779379     -0.082963     -0.828050
  C       0.419754     -0.253031      0.087137
  H      -0.722448      0.874364     -1.346186
  H      -0.788848     -0.875202     -1.576540
  H       0.350144     -1.208327      0.616646
  H       0.444253      0.552870      0.826360
  H      -2.137998     -1.003615      0.421930
  H      -2.126065      0.632540      0.567032
  H       2.365877     -0.306396     -0.148114
  O      -4.567322      0.077223     -0.449159
  C      -3.662140     -0.036250     -1.218453
  O      -3.300388     -0.120647     -2.350989
14
Coordinates from ORCA-job ./orca E -398.982370340896
  O       1.599835     -0.217862     -0.728130
  N      -2.041735     -0.134086     -0.094434
  C      -0.779105     -0.083243     -0.827933
  C       0.420032     -0.252970      0.087311
  H      -0.722071      0.874002     -1.346289
  H      -0.788167     -0.875502     -1.576467
  H       0.350606     -1.208242      0.616899
  H       0.444271      0.553045      0.826428
  H      -2.138782     -1.004007      0.420907
  H      -2.126808      0.632079      0.566380
  H       2.366103     -0.306016     -0.147745
  O      -4.566881      0.078178     -0.447937
  C      -3.662308     -0.035961     -1.218366
  O      -3.301971     -0.120728     -2.351304
14
Coordinates from ORCA-job ./orca E -398.982371836390
  O       1.599957     -0.217722     -0.727940
  N      -2.041691     -0.134181     -0.094874
  C      -0.778934     -0.083314     -0.827862
  C       0.420168     -0.252978      0.087459
  H      -0.721629      0.873876     -1.346339
  H      -0.787630     -0.875484     -1.576533
  H       0.350802     -1.208284      0.617003
  H       0.444271      0.553032      0.826594
  H      -2.138939     -1.004032      0.420521
  H      -2.127073      0.631794      0.566094
  H       2.366183     -0.305848     -0.147495
  O      -4.566599      0.078713     -0.447256
  C      -3.662517     -0.035887     -1.218425
  O      -3.303352     -0.120998     -2.351626
14
Coordinates from ORCA-job ./orca E -398.982956126110
  O       1.587346     -0.217033     -0.736272
  N      -2.052783     -0.134156     -0.094372
  C      -0.791808     -0.082981     -0.830408
  C       0.409539     -0.252588      0.081982
  H      -0.735923      0.874286     -1.348901
  H      -0.802191     -0.875050     -1.579166
  H       0.341606     -1.207979      0.611559
  H       0.435308      0.553322      0.821172
  H      -2.139288     -1.013310      0.431811
  H      -2.127107      0.638860      0.578984
  H       2.354993     -0.305120     -0.157696
  O      -4.559376      0.080265     -0.457046
  C      -3.624449     -0.036763     -1.208164
  O      -3.242849     -0.123063     -2.334165
14
Coordinates from ORCA-job ./orca E -398.983393170894
  O       1.588680     -0.216928     -0.731869
  N      -2.050929     -0.134761     -0.096547
  C      -0.788470     -0.083152     -0.831892
  C       0.409718     -0.252348      0.084169
  H      -0.732039      0.874000     -1.350077
  H      -0.797039     -0.875555     -1.579690
  H       0.340578     -1.207596      0.613748
  H       0.433813      0.553863      0.823026
  H      -2.136966     -1.003276      0.423476
  H      -2.124646      0.627703      0.570093
  H       2.355136     -0.304791     -0.151706
  O      -4.551660      0.080928     -0.450289
  C      -3.626690     -0.036684     -1.204476
  O      -3.266468     -0.122716     -2.338645
14
Coordinates from ORCA-job ./orca E -398.983436972674
  O       1.590581     -0.216917     -0.729324
  N      -2.049645     -0.135107     -0.098402
  C      -0.786007     -0.083188     -0.833387
  C       0.410491     -0.252188      0.085005
  H      -0.729475      0.873984     -1.351287
  H      -0.793887     -0.875843     -1.580813
  H       0.340520     -1.207317      0.614681
  H       0.433466      0.554158      0.823733
  H      -2.137549     -1.004177      0.419882
  H      -2.125330      0.627511      0.567508
  H       2.356230     -0.304614     -0.148041
  O      -4.548918      0.081828     -0.446429
  C      -3.628150     -0.036589     -1.202380
  O      -3.279309     -0.122854     -2.341426
14
Coordinates from ORCA-job ./orca E -398.983452553946
  O       1.592631     -0.217029     -0.727147
  N      -2.048126     -0.135376     -0.100397
  C      -0.783707     -0.083122     -0.834644
  C       0.411424     -0.252094      0.085605
  H      -0.727343      0.874220     -1.352121
  H      -0.791415     -0.875926     -1.581921
  H       0.340591     -1.207111      0.615344
  H       0.433416      0.554339      0.824236
  H      -2.138662     -1.005766      0.416207
  H      -2.126896      0.628268      0.564738
  H       2.357554     -0.304554     -0.144875
  O      -4.548250      0.082898     -0.442627
  C      -3.629503     -0.036594     -1.200233
  O      -3.288696     -0.123467     -2.342845
14
Coordinates from ORCA-job ./orca E -398.983458836813
  O       1.593942     -0.217222     -0.725911
  N      -2.046929     -0.135497     -0.101803
  C      -0.782284     -0.082951     -0.835318
  C       0.412070     -0.252098      0.085888
  H      -0.726061      0.874600     -1.352400
  H      -0.790025     -0.875697     -1.582689
  H       0.340600     -1.207077      0.615594
  H       0.433523      0.554357      0.824487
  H      -2.139740     -1.006557      0.413563
  H      -2.128609      0.628808      0.562436
  H       2.358421     -0.304609     -0.143037
  O      -4.548532      0.083682     -0.439987
  C      -3.630312     -0.036727     -1.198751
  O      -3.293044     -0.124326     -2.342754
14
Coordinates from ORCA-job ./orca E -398.983460857031
  O       1.594703     -0.217454     -0.725314
  N      -2.046075     -0.135489     -0.102733
  C      -0.781483     -0.082684     -0.835580
  C       0.412520     -0.252190      0.086002
  H      -0.725235      0.875083     -1.352291
  H      -0.789232     -0.875190     -1.583250
  H       0.340588     -1.207213      0.615567
  H       0.433776      0.554200      0.824666
  H      -2.140856     -1.006725      0.411849
  H      -2.130478      0.629219      0.560584
  H       2.358948     -0.304717     -0.142125
  O      -4.548744      0.084228     -0.438164
  C      -3.630743     -0.036981     -1.197847
  O      -3.294670     -0.125400     -2.342044
14
Coordinates from ORCA-job ./orca E -398.983458669435
  O       1.594863     -0.217607     -0.725276
  N      -2.045822     -0.135375     -0.103031
  C      -0.781341     -0.082430     -0.835517
  C       0.412677     -0.252321      0.085999
  H      -0.724905      0.875474     -1.351984
  H      -0.789005     -0.874652     -1.583511
  H       0.340550     -1.207450      0.615357
  H       0.434018      0.553922      0.824821
  H      -2.141523     -1.006456      0.411469
  H      -2.131686      0.629492      0.559770
  H       2.359089     -0.304795     -0.142052
  O      -4.548468      0.084419     -0.437439
  C      -3.630819     -0.037249     -1.197702
  O      -3.294608     -0.126286     -2.341584
14
Coordinates from ORCA-job ./orca E -398.983461757531
  O       1.594843     -0.217714     -0.725358
  N      -2.045814     -0.135220     -0.103135
  C      -0.781384     -0.082195     -0.835390
  C       0.412722     -0.252463      0.085986
  H      -0.724703      0.875814     -1.351654
  H      -0.788924     -0.874158     -1.583673
  H       0.340489     -1.207720      0.615113
  H       0.434218      0.553593      0.825012
  H      -2.141869     -1.006077      0.411579
  H      -2.132444      0.629750      0.559364
  H       2.359105     -0.304837     -0.142173
  O      -4.547976      0.084468     -0.437075
  C      -3.630831     -0.037511     -1.197815
  O      -3.294414     -0.127043     -2.341459
14
Coordinates from ORCA-job ./orca E -398.984559401364
  O       1.587272     -0.217421     -0.726120
  N      -2.054504     -0.134646     -0.110480
  C      -0.788746     -0.081722     -0.840449
  C       0.403682     -0.252076      0.083087
  H      -0.731058      0.876281     -1.356615
  H      -0.794993     -0.873688     -1.588742
  H       0.330419     -1.207325      0.612088
  H       0.423903      0.553982      0.822148
  H      -2.151556     -1.005493      0.404065
  H      -2.142273      0.630334      0.551858
  H       2.350473     -0.304600     -0.141552
  O      -4.518367      0.082910     -0.422924
  C      -3.599856     -0.039143     -1.182005
  O      -3.261378     -0.128707     -2.325040
14
Coordinates from ORCA-job ./orca E -398.984678569500
  O       1.588921     -0.217778     -0.722946
  N      -2.052610     -0.134307     -0.113689
  C      -0.785607     -0.081176     -0.842577
  C       0.404115     -0.252103      0.084046
  H      -0.727201      0.876933     -1.358074
  H      -0.790762     -0.873057     -1.590506
  H       0.329338     -1.207465      0.612626
  H       0.423200      0.553793      0.823264
  H      -2.147449     -1.004971      0.402335
  H      -2.139050      0.630289      0.549689
  H       2.350916     -0.305313     -0.136878
  O      -4.522619      0.082640     -0.419880
  C      -3.601915     -0.039824     -1.179582
  O      -3.276257     -0.128974     -2.328508
14
Coordinates from ORCA-job ./orca E -398.984730012760
  O       1.590709     -0.218870     -0.720091
  N      -2.050126     -0.132724     -0.115638
  C      -0.782280     -0.079296     -0.844658
  C       0.404737     -0.252469      0.084890
  H      -0.723237      0.879508     -1.358526
  H      -0.787670     -0.870718     -1.593000
  H       0.327546     -1.208234      0.612344
  H       0.423367      0.552674      0.824881
  H      -2.142516     -1.002950      0.402032
  H      -2.135918      0.631858      0.548231
  H       2.351625     -0.307629     -0.132784
  O      -4.528775      0.079793     -0.420119
  C      -3.602805     -0.040375     -1.176798
  O      -3.291640     -0.131883     -2.331444
14
Coordinates from ORCA-job ./orca E -398.984593708336
  O       1.590623     -0.217972     -0.720343
  N      -2.049707     -0.137547     -0.114475
  C      -0.782434     -0.082859     -0.844976
  C       0.404907     -0.251787      0.084965
  H      -0.726045      0.875057     -1.360673
  H      -0.787006     -0.876036     -1.591435
  H       0.329321     -1.206461      0.614589
  H       0.422176      0.555061      0.823095
  H      -2.139153     -1.006242      0.406334
  H      -2.137492      0.629468      0.546380
  H       2.351866     -0.303804     -0.133016
  O      -4.529402      0.089553     -0.422842
  C      -3.602911     -0.053662     -1.175569
  O      -3.291727     -0.114083     -2.332714
14
Coordinates from ORCA-job ./orca E -398.984739885052
  O       1.590483     -0.219115     -0.720806
  N      -2.049989     -0.132731     -0.114255
  C      -0.782660     -0.079032     -0.844301
  C       0.404806     -0.252606      0.084663
  H      -0.724162      0.879970     -1.357797
  H      -0.788838     -0.870282     -1.592803
  H       0.327548     -1.208434      0.611967
  H       0.423860      0.552389      0.824783
  H      -2.142131     -1.002666      0.403877
  H      -2.136751      0.632584      0.548587
  H       2.351678     -0.307924     -0.133868
  O      -4.529296      0.079988     -0.422480
  C      -3.601800     -0.042259     -1.176845
  O      -3.289728     -0.131196     -2.331402
14
Coordinates from ORCA-job ./orca E -398.984741895433
  O       1.590278     -0.219296     -0.721280
  N      -2.049998     -0.132400     -0.113491
  C      -0.782942     -0.078588     -0.843995
  C       0.404811     -0.252767      0.084507
  H      -0.724577      0.880637     -1.357064
  H      -0.789629     -0.869547     -1.592778
  H       0.327434     -1.208762      0.611488
  H       0.424264      0.551966      0.824898
  H      -2.142175     -1.002232      0.404745
  H      -2.137276      0.633256      0.548845
  H       2.351641     -0.308349     -0.134598
  O      -4.529353      0.079644     -0.423593
  C      -3.601182     -0.042627     -1.177056
  O      -3.288278     -0.132248     -2.331309
14
Coordinates from ORCA-job ./orca E -398.985984788234
  O       1.582681     -0.219001     -0.722024
  N      -2.058689     -0.131867     -0.120816
  C      -0.790308     -0.078139     -0.849030
  C       0.395754     -0.252392      0.081620
  H      -0.730954      0.881080     -1.361997
  H      -0.795693     -0.869100     -1.597823
  H       0.317363     -1.208381      0.608464
  H       0.413921      0.552342      0.822043
  H      -2.151859     -1.001691      0.397256
  H      -2.147114      0.633797      0.541359
  H       2.342977     -0.308101     -0.133965
  O      -4.499699      0.078151     -0.409504
  C      -3.570172     -0.044183     -1.161288
  O      -3.255188     -0.133828     -2.314975
14
Coordinates from ORCA-job ./orca E -398.986125719817
  O       1.584268     -0.219551     -0.718977
  N      -2.056770     -0.131134     -0.123688
  C      -0.787228     -0.077175     -0.851170
  C       0.396128     -0.252490      0.082424
  H      -0.727208      0.882307     -1.363147
  H      -0.791849     -0.867850     -1.599773
  H       0.315966     -1.208712      0.608581
  H       0.413355      0.551882      0.823214
  H      -2.147253     -1.000638      0.396185
  H      -2.143757      0.634311      0.539357
  H       2.343318     -0.309427     -0.129446
  O      -4.504496      0.077176     -0.407176
  C      -3.571970     -0.045365     -1.158901
  O      -3.269486     -0.134646     -2.318162
14
Coordinates from ORCA-job ./orca E -398.986163656150
  O       1.585785     -0.220823     -0.716551
  N      -2.054450     -0.128514     -0.124932
  C      -0.784194     -0.074275     -0.853028
  C       0.396616     -0.253111      0.083004
  H      -0.723434      0.886277     -1.362624
  H      -0.789733     -0.863950     -1.602582
  H       0.313684     -1.210146      0.607202
  H       0.413885      0.549854      0.825253
  H      -2.142031     -0.997389      0.396957
  H      -2.140699      0.637173      0.538344
  H       2.343796     -0.312967     -0.126011
  O      -4.510833      0.072969     -0.408568
  C      -3.572301     -0.046021     -1.156520
  O      -3.283075     -0.140392     -2.320624
14
Coordinates from ORCA-job ./orca E -398.985835061979
  O       1.586003     -0.219448     -0.716201
  N      -2.053466     -0.134985     -0.123777
  C      -0.783689     -0.078716     -0.854022
  C       0.396910     -0.252334      0.083260
  H      -0.726594      0.880908     -1.365565
  H      -0.788104     -0.870602     -1.601182
  H       0.315759     -1.208211      0.609796
  H       0.412055      0.552516      0.823454
  H      -2.135423     -1.001184      0.403668
  H      -2.142238      0.634433      0.535052
  H       2.344175     -0.308248     -0.125343
  O      -4.512939      0.087085     -0.412618
  C      -3.572808     -0.066545     -1.154198
  O      -3.286623     -0.115982     -2.323007
14
Coordinates from ORCA-job ./orca E -398.986174898656
  O       1.585545     -0.220840     -0.717290
  N      -2.054396     -0.128576     -0.123518
  C      -0.784603     -0.073960     -0.852625
  C       0.396693     -0.253328      0.082772
  H      -0.724419      0.886877     -1.361696
  H      -0.790932     -0.863360     -1.602445
  H       0.313793     -1.210579      0.606560
  H       0.414340      0.549288      0.825376
  H      -2.141368     -0.996929      0.399254
  H      -2.141756      0.638070      0.538435
  H       2.343850     -0.313254     -0.127174
  O      -4.511249      0.074024     -0.411052
  C      -3.571391     -0.048993     -1.156592
  O      -3.281089     -0.139753     -2.320686
14
Coordinates from ORCA-job ./orca E -398.986177212051
  O       1.585358     -0.220905     -0.717721
  N      -2.054434     -0.128102     -0.122828
  C      -0.784856     -0.073334     -0.852320
  C       0.396689     -0.253561      0.082618
  H      -0.724709      0.887820     -1.360778
  H      -0.791707     -0.862309     -1.602560
  H       0.313644     -1.211113      0.605829
  H       0.414729      0.548597      0.825703
  H      -2.141359     -0.996315      0.400135
  H      -2.142325      0.638922      0.538580
  H       2.343809     -0.313818     -0.127870
  O      -4.511223      0.073910     -0.412091
  C      -3.570851     -0.049444     -1.156822
  O      -3.279747     -0.141663     -2.320555
14
Coordinates from ORCA-job ./orca E -398.987521190157
  O       1.577740     -0.220605     -0.718446
  N      -2.063125     -0.127636     -0.130145
  C      -0.792224     -0.072926     -0.857338
  C       0.387620     -0.253206      0.079740
  H      -0.731113      0.888224     -1.365688
  H      -0.797752     -0.861902     -1.607590
  H       0.303584     -1.210754      0.602801
  H       0.404351      0.548952      0.822857
  H      -2.151036     -0.995845      0.392662
  H      -2.152179      0.639392      0.531103
  H       2.335118     -0.313552     -0.127222
  O      -4.481535      0.072523     -0.398051
  C      -3.539820     -0.050873     -1.141078
  O      -3.246612     -0.143106     -2.304285
14
Coordinates from ORCA-job ./orca E -398.987663277861
  O       1.579306     -0.221028     -0.715383
  N      -2.061311     -0.126975     -0.133031
  C      -0.789140     -0.071989     -0.859547
  C       0.387951     -0.253270      0.080497
  H      -0.727382      0.889480     -1.366777
  H      -0.793894     -0.860615     -1.609664
  H       0.302202     -1.211029      0.602893
  H       0.403660      0.548561      0.823951
  H      -2.146458     -0.995060      0.391290
  H      -2.148166      0.639387      0.529759
  H       2.335409     -0.314653     -0.122654
  O      -4.486540      0.072024     -0.395949
  C      -3.541576     -0.051105     -1.138799
  O      -3.261041     -0.145042     -2.307266
14
Coordinates from ORCA-job ./orca E -398.987573029976
  O       1.580531     -0.219964     -0.713111
  N      -2.059528     -0.131124     -0.134034
  C      -0.786713     -0.074587     -0.861721
  C       0.388426     -0.252798      0.081213
  H      -0.727145      0.886520     -1.369580
  H      -0.790190     -0.864642     -1.610151
  H       0.303034     -1.209979      0.604682
  H       0.401767      0.550020      0.823580
  H      -2.139024     -0.997468      0.394647
  H      -2.145870      0.636839      0.527489
  H       2.335959     -0.311624     -0.119195
  O      -4.491695      0.082303     -0.398059
  C      -3.543014     -0.064054     -1.135672
  O      -3.273519     -0.130756     -2.310768
14
Coordinates from ORCA-job ./orca E -398.987537155238
  O       1.582801     -0.222672     -0.709772
  N      -2.056267     -0.121255     -0.135481
  C      -0.781973     -0.065478     -0.864031
  C       0.389097     -0.254878      0.081741
  H      -0.718938      0.898772     -1.365140
  H      -0.789044     -0.851650     -1.616479
  H       0.297657     -1.214879      0.598894
  H       0.404145      0.543153      0.829121
  H      -2.134240     -0.988388      0.392683
  H      -2.138781      0.644233      0.529990
  H       2.336528     -0.321360     -0.114774
  O      -4.502247      0.066606     -0.401495
  C      -3.541915     -0.049995     -1.133620
  O      -3.293807     -0.163522     -2.312319
14
Coordinates from ORCA-job ./orca E -398.987685564863
  O       1.579831     -0.221176     -0.715038
  N      -2.060221     -0.124954     -0.131869
  C      -0.788011     -0.069527     -0.859959
  C       0.388326     -0.254138      0.080467
  H      -0.726320      0.893148     -1.364694
  H      -0.794577     -0.856880     -1.611317
  H       0.301309     -1.213054      0.600471
  H       0.404424      0.545844      0.825849
  H      -2.143688     -0.992596      0.393618
  H      -2.146895      0.641804      0.530648
  H       2.335754     -0.316841     -0.122390
  O      -4.490569      0.071864     -0.400240
  C      -3.540392     -0.051739     -1.137972
  O      -3.265952     -0.153067     -2.308254
14
Coordinates from ORCA-job ./orca E -398.987713804209
  O       1.580302     -0.220844     -0.714175
  N      -2.059447     -0.125638     -0.132165
  C      -0.787011     -0.069576     -0.860712
  C       0.388487     -0.254197      0.080679
  H      -0.725822      0.893342     -1.364925
  H      -0.793448     -0.856935     -1.611981
  H       0.301212     -1.213277      0.600318
  H       0.403976      0.545575      0.826275
  H      -2.140912     -0.992773      0.394682
  H      -2.145914      0.641552      0.530072
  H       2.335918     -0.316517     -0.121131
  O      -4.492705      0.075002     -0.401249
  C      -3.540695     -0.055265     -1.136885
  O      -3.270922     -0.151763     -2.309481
14
Coordinates from ORCA-job ./orca E -398.987712006739
  O       1.580241     -0.220756     -0.714329
  N      -2.059478     -0.125152     -0.131917
  C      -0.787104     -0.068966     -0.860564
  C       0.388467     -0.254391      0.080587
  H      -0.725795      0.894243     -1.364206
  H      -0.793839     -0.855912     -1.612260
  H       0.301048     -1.213789      0.599614
  H       0.404160      0.544903      0.826690
  H      -2.141035     -0.992358      0.394767
  H      -2.146127      0.642015      0.530295
  H       2.335891     -0.316941     -0.121409
  O      -4.492580      0.075188     -0.401642
  C      -3.540437     -0.054739     -1.137058
  O      -3.270394     -0.154661     -2.309247
14
Coordinates from ORCA-job ./orca E -398.989085528084
  O       1.572606     -0.220453     -0.715034
  N      -2.068167     -0.124735     -0.139231
  C      -0.794469     -0.068588     -0.865568
  C       0.379388     -0.254052      0.077717
  H      -0.732215      0.894621     -1.369096
  H      -0.799864     -0.855532     -1.617278
  H       0.290996     -1.213448      0.596583
  H       0.393751      0.545240      0.823850
  H      -2.150708     -0.991940      0.387303
  H      -2.155995      0.642433      0.522826
  H       2.327176     -0.316664     -0.120744
  O      -4.462866      0.073881     -0.387645
  C      -3.509392     -0.056075     -1.121333
  O      -3.237224     -0.156003     -2.293032
14
Coordinates from ORCA-job ./orca E -398.989220791883
  O       1.574114     -0.220561     -0.712073
  N      -2.066554     -0.124702     -0.142105
  C      -0.791457     -0.068214     -0.867742
  C       0.379746     -0.253931      0.078487
  H      -0.728775      0.895202     -1.370376
  H      -0.795938     -0.854977     -1.619130
  H       0.290059     -1.213311      0.597154
  H       0.392873      0.545418      0.824563
  H      -2.146761     -0.992339      0.384977
  H      -2.151170      0.640883      0.522710
  H       2.327498     -0.316727     -0.116291
  O      -4.467979      0.074924     -0.385822
  C      -3.511057     -0.054309     -1.119257
  O      -3.251581     -0.158668     -2.295774
14
Coordinates from ORCA-job ./orca E -398.988455038092
  O       1.575742     -0.216329     -0.708150
  N      -2.064606     -0.138790     -0.144844
  C      -0.788071     -0.078693     -0.871798
  C       0.380310     -0.251619      0.079929
  H      -0.731486      0.882350     -1.379028
  H      -0.787452     -0.870327     -1.617429
  H       0.294668     -1.208150      0.604460
  H       0.386855      0.552612      0.820753
  H      -2.134970     -1.004270      0.388549
  H      -2.146446      0.628207      0.519675
  H       2.328240     -0.303768     -0.109903
  O      -4.473497      0.106186     -0.387345
  C      -3.515097     -0.079777     -1.113844
  O      -3.271172     -0.118945     -2.301705
14
Coordinates from ORCA-job ./orca E -398.989253516823
  O       1.575619     -0.219626     -0.709604
  N      -2.064679     -0.126367     -0.143159
  C      -0.788470     -0.068910     -0.869955
  C       0.380392     -0.253799      0.079225
  H      -0.727013      0.894869     -1.371775
  H      -0.792622     -0.856167     -1.620726
  H       0.290375     -1.213147      0.597823
  H       0.391558      0.545645      0.825158
  H      -2.141586     -0.994358      0.384433
  H      -2.145717      0.637455      0.524715
  H       2.328227     -0.314674     -0.112625
  O      -4.474792      0.082151     -0.388914
  C      -3.511579     -0.054935     -1.116682
  O      -3.266694     -0.159450     -2.298595
14
Coordinates from ORCA-job ./orca E -398.989255420321
  O       1.574874     -0.219160     -0.711077
  N      -2.065384     -0.126359     -0.141535
  C      -0.789904     -0.068765     -0.868858
  C       0.380226     -0.253986      0.078780
  H      -0.728836      0.895120     -1.370559
  H      -0.794788     -0.855680     -1.619967
  H       0.290911     -1.213650      0.596919
  H       0.391913      0.545024      0.825182
  H      -2.143464     -0.994533      0.385352
  H      -2.147745      0.637905      0.525417
  H       2.328059     -0.314405     -0.114870
  O      -4.472515      0.083593     -0.390240
  C      -3.510475     -0.055034     -1.117748
  O      -3.259851     -0.161384     -2.297476
14
Coordinates from ORCA-job ./orca E -398.989250282669
  O       1.574938     -0.218740     -0.710990
  N      -2.065263     -0.126657     -0.141385
  C      -0.789769     -0.068717     -0.868938
  C       0.380266     -0.254031      0.078779
  H      -0.728982      0.895349     -1.370301
  H      -0.794727     -0.855489     -1.620169
  H       0.291073     -1.213873      0.596603
  H       0.391733      0.544753      0.825420
  H      -2.143104     -0.995060      0.385187
  H      -2.147363      0.637302      0.525978
  H       2.328114     -0.313929     -0.114762
  O      -4.472874      0.085932     -0.390918
  C      -3.510321     -0.054945     -1.117619
  O      -3.260703     -0.163209     -2.297564
14
Coordinates from ORCA-job ./orca E -398.989266248232
  O       1.574912     -0.217783     -0.711102
  N      -2.065247     -0.127198     -0.140925
  C      -0.789847     -0.068503     -0.868828
  C       0.380284     -0.254171      0.078678
  H      -0.729563      0.895970     -1.369456
  H      -0.794966     -0.854819     -1.620495
  H       0.291455     -1.214478      0.595694
  H       0.391461      0.544004      0.825969
  H      -2.142921     -0.996104      0.384840
  H      -2.147291      0.636245      0.527022
  H       2.328168     -0.313008     -0.114981
  O      -4.472726      0.091035     -0.392104
  C      -3.509939     -0.054821     -1.117650
  O      -3.260761     -0.167682     -2.297343
14
Coordinates from ORCA-job ./orca E -398.989262850594
  O       1.574829     -0.216547     -0.711298
  N      -2.065309     -0.128004     -0.140396
  C      -0.790031     -0.068028     -0.868592
  C       0.380285     -0.254290      0.078545
  H      -0.730395      0.897068     -1.368094
  H      -0.795214     -0.853572     -1.621028
  H       0.291887     -1.215227      0.594461
  H       0.391214      0.543060      0.826718
  H      -2.142749     -0.997744      0.383998
  H      -2.147521      0.634573      0.528464
  H       2.328200     -0.311938     -0.115350
  O      -4.472101      0.098658     -0.393493
  C      -3.509511     -0.054705     -1.117777
  O      -3.260566     -0.174618     -2.296839
14
Coordinates from ORCA-job ./orca E -398.989266407433
  O       1.574670     -0.211840     -0.711709
  N      -2.065564     -0.130865     -0.139101
  C      -0.790538     -0.065815     -0.867785
  C       0.380287     -0.254780      0.078126
  H      -0.732932      0.901773     -1.362739
  H      -0.795490     -0.848054     -1.623570
  H       0.293283     -1.218241      0.589564
  H       0.390316      0.539154      0.829919
  H      -2.141909     -1.003752      0.380210
  H      -2.148715      0.628321      0.533365
  H       2.328313     -0.308278     -0.116279
  O      -4.469075      0.128125     -0.398085
  C      -3.508452     -0.054544     -1.118191
  O      -3.261177     -0.202517     -2.294406
14
Coordinates from ORCA-job ./orca E -398.989267828224
  O       1.574729     -0.212289     -0.711542
  N      -2.065553     -0.130432     -0.139572
  C      -0.790401     -0.065467     -0.867845
  C       0.380273     -0.254750      0.078211
  H      -0.732369      0.902109     -1.362805
  H      -0.795104     -0.847585     -1.623788
  H       0.292894     -1.218144      0.589716
  H       0.390549      0.539208      0.829975
  H      -2.141738     -1.003120      0.380107
  H      -2.148933      0.628870      0.532734
  H       2.328269     -0.309118     -0.116040
  O      -4.469082      0.126462     -0.397257
  C      -3.508836     -0.054889     -1.118140
  O      -3.261680     -0.202168     -2.294434
14
Coordinates from ORCA-job ./orca E -398.990584661637
  O       1.567090     -0.212006     -0.712223
  N      -2.074233     -0.129956     -0.146903
  C      -0.797747     -0.065052     -0.872845
  C       0.371188     -0.254410      0.075346
  H      -0.738757      0.902527     -1.367688
  H      -0.801112     -0.847160     -1.628807
  H       0.282821     -1.217806      0.586681
  H       0.380135      0.539538      0.827139
  H      -2.151415     -1.002646      0.372626
  H      -2.158800      0.629343      0.525260
  H       2.319536     -0.308883     -0.115346
  O      -4.439364      0.125089     -0.383271
  C      -3.477810     -0.056306     -1.102401
  O      -3.228514     -0.203585     -2.278246
14
Coordinates from ORCA-job ./orca E -398.990714588955
  O       1.568807     -0.212468     -0.708947
  N      -2.072719     -0.130357     -0.150576
  C      -0.794441     -0.065351     -0.875258
  C       0.371652     -0.253861      0.076316
  H      -0.734881      0.902077     -1.369909
  H      -0.796213     -0.847785     -1.630367
  H       0.282012     -1.216609      0.588630
  H       0.379224      0.541064      0.827090
  H      -2.148376     -1.004136      0.368361
  H      -2.153044      0.626162      0.525768
  H       2.319982     -0.308388     -0.110336
  O      -4.444633      0.125218     -0.380207
  C      -3.479841     -0.051753     -1.100449
  O      -3.244510     -0.205127     -2.280796
14
Coordinates from ORCA-job ./orca E -398.988963701952
  O       1.572015     -0.206897     -0.700573
  N      -2.069616     -0.155481     -0.159126
  C      -0.787268     -0.085354     -0.883352
  C       0.372560     -0.248326      0.079645
  H      -0.736871      0.876615     -1.388265
  H      -0.777513     -0.877504     -1.626696
  H       0.289335     -1.203824      0.606336
  H       0.368552      0.558298      0.817817
  H      -2.130997     -1.028413      0.366370
  H      -2.139944      0.598554      0.523013
  H       2.320954     -0.284803     -0.096606
  O      -4.453336      0.172620     -0.376669
  C      -3.489768     -0.082428     -1.089859
  O      -3.285084     -0.134370     -2.292716
14
Coordinates from ORCA-job ./orca E -398.990748283600
  O       1.569863     -0.211669     -0.706961
  N      -2.071478     -0.135598     -0.151984
  C      -0.792221     -0.069637     -0.877338
  C       0.372216     -0.252356      0.077267
  H      -0.735118      0.896712     -1.374172
  H      -0.791930     -0.854604     -1.629803
  H       0.283748     -1.213137      0.593404
  H       0.377202      0.545629      0.824757
  H      -2.145097     -1.010590      0.365758
  H      -2.147689      0.617748      0.528889
  H       2.320630     -0.302918     -0.107076
  O      -4.449217      0.135171     -0.381592
  C      -3.480967     -0.052305     -1.097940
  O      -3.256923     -0.193759     -2.283888
14
Coordinates from ORCA-job ./orca E -398.990774728701
  O       1.569450     -0.211606     -0.707783
  N      -2.071707     -0.135408     -0.150776
  C      -0.792907     -0.069475     -0.876823
  C       0.372131     -0.252423      0.077029
  H      -0.736182      0.896926     -1.373594
  H      -0.793341     -0.854347     -1.629373
  H       0.283928     -1.213271      0.593074
  H       0.377406      0.545441      0.824645
  H      -2.146317     -1.011000      0.365754
  H      -2.147878      0.617666      0.530318
  H       2.320558     -0.302706     -0.108303
  O      -4.448619      0.135212     -0.383087
  C      -3.479875     -0.050372     -1.098543
  O      -3.253628     -0.195950     -2.283219
14
Coordinates from ORCA-job ./orca E -398.990760531917
  O       1.569343     -0.211399     -0.708002
  N      -2.071748     -0.136124     -0.150306
  C      -0.793104     -0.069997     -0.876738
  C       0.372131     -0.252257      0.076988
  H      -0.736937      0.896287     -1.373775
  H      -0.793613     -0.855108     -1.629014
  H       0.284288     -1.212901      0.593465
  H       0.377224      0.545935      0.824255
  H      -2.146662     -1.012209      0.365297
  H      -2.147493      0.616471      0.531333
  H       2.320589     -0.301732     -0.108578
  O      -4.448533      0.137044     -0.383836
  C      -3.479480     -0.049627     -1.098589
  O      -3.252986     -0.195697     -2.283179
14
Coordinates from ORCA-job ./orca E -398.991886272351
  O       1.561681     -0.211130     -0.708667
  N      -2.080422     -0.135538     -0.157622
  C      -0.800445     -0.069517     -0.881718
  C       0.363032     -0.251890      0.074135
  H      -0.743285      0.896768     -1.378642
  H      -0.799649     -0.854620     -1.634003
  H       0.274160     -1.212532      0.590442
  H       0.366830      0.546294      0.821420
  H      -2.156355     -1.011622      0.357835
  H      -2.157345      0.617057      0.523886
  H       2.311824     -0.301536     -0.107872
  O      -4.418779      0.135510     -0.369909
  C      -3.448437     -0.051240     -1.082894
  O      -3.219792     -0.197318     -2.267072
14
Coordinates from ORCA-job ./orca E -398.991938476493
  O       1.563597     -0.211427     -0.705032
  N      -2.078922     -0.137855     -0.161408
  C      -0.797131     -0.071668     -0.884662
  C       0.363428     -0.250739      0.075059
  H      -0.740363      0.893883     -1.382585
  H      -0.794271     -0.858240     -1.634831
  H       0.273836     -1.209866      0.594034
  H       0.364985      0.549776      0.819873
  H      -2.153569     -1.015680      0.352249
  H      -2.150348      0.610996      0.525363
  H       2.312328     -0.298840     -0.102051
  O      -4.423606      0.138118     -0.366213
  C      -3.450498     -0.045883     -1.080657
  O      -3.236447     -0.193887     -2.269821
14
Coordinates from ORCA-job ./orca E -398.990865542768
  O       1.565458     -0.206396     -0.699496
  N      -2.077288     -0.162574     -0.166041
  C      -0.793343     -0.092125     -0.891023
  C       0.363559     -0.245032      0.076981
  H      -0.746877      0.867658     -1.400143
  H      -0.781225     -0.889054     -1.629206
  H       0.281125     -1.196287      0.611336
  H       0.354401      0.567727      0.808350
  H      -2.142683     -1.041648      0.348744
  H      -2.139226      0.582548      0.526969
  H       2.312743     -0.274355     -0.092236
  O      -4.426572      0.181745     -0.363980
  C      -3.456913     -0.067770     -1.072872
  O      -3.260142     -0.125749     -2.278063
14
Coordinates from ORCA-job ./orca E -398.992061489804
  O       1.564700     -0.210743     -0.702723
  N      -2.077633     -0.145074     -0.162682
  C      -0.794964     -0.078106     -0.887357
  C       0.363774     -0.248465      0.075911
  H      -0.741859      0.885622     -1.388935
  H      -0.789869     -0.868594     -1.633409
  H       0.275839     -1.204367      0.601014
  H       0.361721      0.556933      0.815395
  H      -2.151440     -1.025781      0.346790
  H      -2.142470      0.598545      0.530931
  H       2.312844     -0.290513     -0.097931
  O      -4.427810      0.149744     -0.367001
  C      -3.451027     -0.042001     -1.078031
  O      -3.248787     -0.178513     -2.272653
14
Coordinates from ORCA-job ./orca E -398.992089799974
  O       1.564197     -0.210743     -0.703711
  N      -2.077999     -0.145610     -0.161405
  C      -0.795850     -0.078490     -0.886725
  C       0.363687     -0.248285      0.075694
  H      -0.743481      0.885079     -1.388683
  H      -0.791235     -0.869100     -1.632610
  H       0.276234     -1.203937      0.601326
  H       0.361849      0.557471      0.814792
  H      -2.152913     -1.027077      0.346447
  H      -2.142951      0.597503      0.532576
  H       2.312798     -0.289710     -0.099374
  O      -4.426754      0.150853     -0.368377
  C      -3.449984     -0.040406     -1.078621
  O      -3.244582     -0.178862     -2.272011
14
Coordinates from ORCA-job ./orca E -398.992069660085
  O       1.564019     -0.210677     -0.703984
  N      -2.078087     -0.147380     -0.160834
  C      -0.796165     -0.079856     -0.886697
  C       0.363647     -0.247709      0.075677
  H      -0.744978      0.883285     -1.389555
  H      -0.791381     -0.871158     -1.631820
  H       0.276778     -1.202584      0.602807
  H       0.361387      0.559200      0.813519
  H      -2.153708     -1.030030      0.344814
  H      -2.142056      0.594347      0.534679
  H       2.312822     -0.287587     -0.099633
  O      -4.426338      0.154220     -0.369108
  C      -3.449396     -0.038464     -1.078628
  O      -3.243526     -0.176921     -2.271916
14
Coordinates from ORCA-job ./orca E -398.992070229425
  O       1.563837     -0.210552     -0.704101
  N      -2.078203     -0.152176     -0.160205
  C      -0.796601     -0.083435     -0.886988
  C       0.363532     -0.246143      0.075724
  H      -0.748242      0.878598     -1.392180
  H      -0.790792     -0.876516     -1.630182
  H       0.277929     -1.198946      0.606793
  H       0.359979      0.563806      0.810229
  H      -2.155333     -1.037871      0.339862
  H      -2.139633      0.585779      0.539498
  H       2.312881     -0.281925     -0.099369
  O      -4.425057      0.163782     -0.369661
  C      -3.448505     -0.033848     -1.078338
  O      -3.242774     -0.171865     -2.271763
14
Coordinates from ORCA-job ./orca E -398.992072692609
  O       1.563829     -0.210368     -0.703881
  N      -2.078255     -0.155840     -0.160317
  C      -0.796733     -0.085983     -0.887329
  C       0.363442     -0.245072      0.075822
  H      -0.750210      0.875338     -1.394018
  H      -0.789706     -0.880156     -1.629354
  H       0.278655     -1.196457      0.609572
  H       0.358849      0.566946      0.808036
  H      -2.156463     -1.043800      0.335575
  H      -2.137993      0.579105      0.542670
  H       2.312913     -0.277308     -0.098694
  O      -4.423654      0.172334     -0.369232
  C      -3.448229     -0.030521     -1.078012
  O      -3.243427     -0.169532     -2.271517
14
Coordinates from ORCA-job ./orca E -398.992072679650
  O       1.563920     -0.210471     -0.703745
  N      -2.078205     -0.154822     -0.160661
  C      -0.796558     -0.085082     -0.887311
  C       0.363474     -0.245419      0.075841
  H      -0.749352      0.876527     -1.393423
  H      -0.789588     -0.878761     -1.629886
  H       0.278273     -1.197295      0.608668
  H       0.359202      0.565883      0.808846
  H      -2.155991     -1.042214      0.336325
  H      -2.138565      0.580794      0.541594
  H       2.312909     -0.278426     -0.098551
  O      -4.423819      0.170907     -0.368849
  C      -3.448583     -0.031565     -1.078032
  O      -3.244100     -0.171368     -2.271497
14
Coordinates from ORCA-job ./orca E -398.992854696065
  O       1.556241     -0.210241     -0.704391
  N      -2.086865     -0.153897     -0.167956
  C      -0.803878     -0.084400     -0.892266
  C       0.354364     -0.244963      0.073003
  H      -0.755564      0.877202     -1.398289
  H      -0.795704     -0.878078     -1.634831
  H       0.268009     -1.196824      0.605672
  H       0.348909      0.566338      0.806003
  H      -2.165729     -1.041276      0.328885
  H      -2.148367      0.581728      0.534191
  H       2.304111     -0.278342     -0.097831
  O      -4.394043      0.168864     -0.354991
  C      -3.417551     -0.033792     -1.062394
  O      -3.210916     -0.173631     -2.255486
14
Coordinates from ORCA-job ./orca E -398.992985976430
  O       1.558583     -0.211470     -0.700042
  N      -2.085222     -0.153526     -0.172706
  C      -0.799936     -0.083922     -0.895513
  C       0.354698     -0.244308      0.073863
  H      -0.750646      0.877673     -1.400979
  H      -0.789963     -0.877744     -1.637338
  H       0.265911     -1.195464      0.607421
  H       0.347811      0.567924      0.805831
  H      -2.161667     -1.042134      0.323470
  H      -2.141508      0.578478      0.534393
  H       2.304527     -0.279007     -0.091060
  O      -4.399276      0.168088     -0.350172
  C      -3.420068     -0.028511     -1.060246
  O      -3.230225     -0.177390     -2.257602
14
Coordinates from ORCA-job ./orca E -398.990988302914
  O       1.563625     -0.207336     -0.687374
  N      -2.081752     -0.179607     -0.185420
  C      -0.790436     -0.103649     -0.907115
  C       0.354531     -0.237940      0.076712
  H      -0.750246      0.852279     -1.422441
  H      -0.766842     -0.907074     -1.636401
  H       0.268911     -1.180807      0.625382
  H       0.334253      0.586437      0.794713
  H      -2.138159     -1.067743      0.318401
  H      -2.123520      0.547700      0.530228
  H       2.304496     -0.256218     -0.070477
  O      -4.406690      0.218249     -0.340101
  C      -3.433416     -0.061308     -1.048078
  O      -3.281736     -0.104295     -2.268708
14
Coordinates from ORCA-job ./orca E -398.993026460940
  O       1.559553     -0.210883     -0.697910
  N      -2.084294     -0.159234     -0.174170
  C      -0.797968     -0.088294     -0.897809
  C       0.354917     -0.242669      0.074502
  H      -0.751539      0.872245     -1.405401
  H      -0.785803     -0.884550     -1.637050
  H       0.266950     -1.191660      0.612021
  H       0.345236      0.572660      0.802935
  H      -2.157625     -1.048948      0.321093
  H      -2.136259      0.569288      0.537282
  H       2.304767     -0.273397     -0.087474
  O      -4.402429      0.179610     -0.350814
  C      -3.421441     -0.030832     -1.057754
  O      -3.241049     -0.164650     -2.260133
14
Coordinates from ORCA-job ./orca E -398.993059454164
  O       1.559083     -0.210753     -0.698781
  N      -2.084476     -0.158532     -0.172809
  C      -0.798648     -0.087692     -0.897232
  C       0.354804     -0.242980      0.074234
  H      -0.752446      0.873069     -1.404418
  H      -0.787560     -0.883559     -1.636901
  H       0.266961     -1.192342      0.611109
  H       0.345437      0.571798      0.803282
  H      -2.158593     -1.048673      0.321537
  H      -2.136381      0.569988      0.538568
  H       2.304659     -0.273513     -0.088810
  O      -4.402115      0.179084     -0.352698
  C      -3.420205     -0.028930     -1.058360
  O      -3.237500     -0.168279     -2.259401
14
Coordinates from ORCA-job ./orca E -398.993041896480
  O       1.559053     -0.210360     -0.698893
  N      -2.084545     -0.158945     -0.172398
  C      -0.798771     -0.087944     -0.897176
  C       0.354814     -0.243036      0.074159
  H      -0.752972      0.872829     -1.404351
  H      -0.787900     -0.883808     -1.636819
  H       0.267269     -1.192473      0.610950
  H       0.345169      0.571661      0.803299
  H      -2.158683     -1.049336      0.321439
  H      -2.136060      0.569362      0.539188
  H       2.304700     -0.272652     -0.088960
  O      -4.402046      0.180968     -0.353442
  C      -3.419925     -0.028610     -1.058369
  O      -3.237084     -0.168969     -2.259307
14
Coordinates from ORCA-job ./orca E -398.993212166902
  O       1.551343     -0.210146     -0.699522
  N      -2.093203     -0.157924     -0.179665
  C      -0.806092     -0.087206     -0.902100
  C       0.345689     -0.242557      0.071337
  H      -0.759156      0.873557     -1.409189
  H      -0.794051     -0.883071     -1.641725
  H       0.256955     -1.191976      0.607966
  H       0.334897      0.572141      0.800461
  H      -2.168437     -1.048299      0.314036
  H      -2.145852      0.570393      0.531830
  H       2.295866     -0.272605     -0.088231
  O      -4.372219      0.178788     -0.339665
  C      -3.388860     -0.031006     -1.042803
  O      -3.203863     -0.171403     -2.243409
14
Coordinates from ORCA-job ./orca E -398.993358915070
  O       1.553763     -0.210782     -0.695149
  N      -2.091889     -0.158669     -0.184398
  C      -0.802121     -0.087500     -0.905327
  C       0.346118     -0.241678      0.072222
  H      -0.754801      0.873101     -1.412185
  H      -0.787839     -0.883793     -1.643837
  H       0.255476     -1.190242      0.610071
  H       0.333403      0.574237      0.799970
  H      -2.164280     -1.050503      0.308371
  H      -2.138926      0.565619      0.532503
  H       2.296418     -0.272192     -0.081499
  O      -4.376958      0.181429     -0.335040
  C      -3.391556     -0.026564     -1.040704
  O      -3.223789     -0.173775     -2.245677
14
Coordinates from ORCA-job ./orca E -398.991869982646
  O       1.556119     -0.205072     -0.688235
  N      -2.091085     -0.182095     -0.190680
  C      -0.797268     -0.104893     -0.912201
  C       0.345893     -0.236644      0.073931
  H      -0.759551      0.851087     -1.427543
  H      -0.772875     -0.909070     -1.640780
  H       0.260679     -1.178964      0.623571
  H       0.322384      0.588573      0.790825
  H      -2.147863     -1.073654      0.307467
  H      -2.128319      0.539419      0.531660
  H       2.296266     -0.251222     -0.070243
  O      -4.378428      0.229926     -0.332045
  C      -3.400777     -0.056364     -1.032549
  O      -3.252157     -0.112342     -2.253858
14
Coordinates from ORCA-job ./orca E -398.993389891173
  O       1.554406     -0.209517     -0.693634
  N      -2.091336     -0.163122     -0.184953
  C      -0.800493     -0.090656     -0.906955
  C       0.346362     -0.240580      0.072716
  H      -0.755910      0.869390     -1.414993
  H      -0.785044     -0.888567     -1.643813
  H       0.256704     -1.187910      0.612891
  H       0.331191      0.577163      0.798312
  H      -2.160509     -1.056187      0.306664
  H      -2.133991      0.557742      0.536092
  H       2.296597     -0.267529     -0.079071
  O      -4.380068      0.193339     -0.337429
  C      -3.392222     -0.027761     -1.038896
  O      -3.232669     -0.167120     -2.247609
14
Coordinates from ORCA-job ./orca E -398.993418762862
  O       1.554058     -0.209128     -0.694374
  N      -2.091567     -0.162688     -0.183758
  C      -0.801067     -0.090145     -0.906438
  C       0.346319     -0.240860      0.072488
  H      -0.756810      0.870150     -1.414023
  H      -0.786575     -0.887622     -1.643725
  H       0.256927     -1.188624      0.611941
  H       0.331320      0.576276      0.798774
  H      -2.161238     -1.056103      0.307086
  H      -2.134226      0.558133      0.537228
  H       2.296568     -0.267510     -0.080227
  O      -4.379730      0.194047     -0.339264
  C      -3.391251     -0.026522     -1.039400
  O      -3.229709     -0.170716     -2.246987
14
Coordinates from ORCA-job ./orca E -398.993408308346
  O       1.553996     -0.208418     -0.694530
  N      -2.091688     -0.163118     -0.183254
  C      -0.801215     -0.090192     -0.906315
  C       0.346323     -0.240967      0.072401
  H      -0.757466      0.870269     -1.413611
  H      -0.787037     -0.887461     -1.643794
  H       0.257321     -1.189011      0.611421
  H       0.330999      0.575820      0.799076
  H      -2.161271     -1.056900      0.306882
  H      -2.133976      0.557326      0.538078
  H       2.296603     -0.266661     -0.080485
  O      -4.379429      0.197226     -0.340347
  C      -3.390905     -0.026150     -1.039477
  O      -3.229236     -0.173076     -2.246725
