14
Coordinates from ORCA-job ./orca E -398.986588172401
  O           1.55387945781249     -0.41099777329608     -0.89664528031579
  N          -1.91424193053235      0.18381918375868      0.32986964224134
  C          -0.79280811261206      0.00518905095937     -0.59826707136151
  C           0.52817260114735     -0.26532459205402      0.09944227202264
  H          -0.69920192464812      0.90539307553399     -1.21084898201759
  H          -1.02303346273695     -0.82355689480103     -1.27176873771736
  H           0.44994563834083     -1.17941654413579      0.69727685057698
  H           0.76835985219542      0.56558365294979      0.77108340429844
  H          -2.01227255448483     -0.65241335898435      0.89900715922891
  H          -1.69033287682600      0.93300810434492      0.97925055605906
  H           2.38904079465946     -0.58026994832031     -0.44298631501047
  O          -4.86854807009036     -0.73483263175501     -1.06518965534758
  C          -4.16379078783460     -0.25965832410394     -1.85423438454436
  O          -3.47215067469019      0.21216367240378     -2.65666979901267
