14
Coordinates from ORCA-job ./orca E -398.986177212051
  O           1.58535807177845     -0.22090509522420     -0.71772096736133
  N          -2.05443371920814     -0.12810162411859     -0.12282787519011
  C          -0.78485636725948     -0.07333362076286     -0.85231992978534
  C           0.39668901752484     -0.25356076090097      0.08261762873671
  H          -0.72470948400594      0.88781990625047     -1.36077804380571
  H          -0.79170680569524     -0.86230932023582     -1.60255998832919
  H           0.31364411127332     -1.21111253499663      0.60582891431236
  H           0.41472913219633      0.54859705450037      0.82570254099324
  H          -2.14135898477684     -0.99631462783692      0.40013543814371
  H          -2.14232515225081      0.63892153357081      0.53857998900420
  H           2.34380883451229     -0.31381813827789     -0.12787044603860
  O          -4.51122288156341      0.07391004788776     -0.41209086960155
  C          -3.57085107197174     -0.04944357572891     -1.15682156082150
  O          -3.27974675085329     -0.14166257162661     -2.32055517115675
