14
Coordinates from ORCA-job ./orca E -398.986738209903
  O           1.53725518051588     -0.42160942879995     -0.92704349168590
  N          -1.88545108420810      0.20108935649497      0.40701968737040
  C          -0.79313875507635      0.01837140586790     -0.55479858815132
  C           0.54607310321278     -0.26373381147139      0.10182295175568
  H          -0.71293290470939      0.91967009643960     -1.16741018471898
  H          -1.04966599018241     -0.80679998265545     -1.22320480232422
  H           0.47775445043077     -1.17605775153011      0.70342844759261
  H           0.81658362333612      0.56581116807676      0.76345317302353
  H          -1.96498389403984     -0.63233995750948      0.98281762665887
  H          -1.64333111539519      0.95437608736974      1.04476887927557
  H           2.38402984103490     -0.60292581281377     -0.50055992446652
  O          -4.95224775554336     -0.76190799406536     -1.18772520434242
  C          -4.21771237227752     -0.28513709258728     -1.94811114666041
  O          -3.48921437739823      0.18988038968382     -2.71513776422686
