14
Coordinates from ORCA-job ./orca E -398.981935658032
  O           1.66271316179381     -0.24651441417000     -0.72854051965964
  N          -1.99370537099799     -0.11047843644344     -0.03598332065914
  C          -0.73323285786614     -0.10881183410911     -0.77731071153192
  C           0.49346031830616     -0.25161127614062      0.10744451799144
  H          -0.66360773406154      0.82321897682624     -1.34361444997037
  H          -0.75429648470635     -0.92798204755866     -1.50028183049693
  H           0.43588427262199     -1.18824562337182      0.67166834093295
  H           0.53441308138567      0.57855647487113      0.81996063235585
  H          -2.07392368861531     -0.96477760380885      0.50766262133602
  H          -2.00324150654730      0.65374981028249      0.63294495565264
  H           2.43783596670620     -0.32933613420234     -0.15926728608699
  O          -4.77690682520982     -0.11716522285790     -0.53799387423390
  C          -4.03911815622311     -0.00824997861452     -1.43272799961982
  O          -3.47325622688603      0.09633398179741     -2.44464141691009
