14
Coordinates from ORCA-job ./orca E -398.989267828224
  O           1.57472939955671     -0.21228934751474     -0.71154193854735
  N          -2.06555284529249     -0.13043237191410     -0.13957201231381
  C          -0.79040103020988     -0.06546688561840     -0.86784451740119
  C           0.38027317128900     -0.25474971703338      0.07821059287871
  H          -0.73236867331346      0.90210867486880     -1.36280472076934
  H          -0.79510449389279     -0.84758458746883     -1.62378833934041
  H           0.29289354216387     -1.21814390346003      0.58971620340695
  H           0.39054935242186      0.53920837352953      0.82997470627018
  H          -2.14173795383468     -1.00312033001737      0.38010659170490
  H          -2.14893311065185      0.62887032312384      0.53273441621840
  H           2.32826850439077     -0.30911781237409     -0.11604020186411
  O          -4.46908219792248      0.12646200192524     -0.39725712132516
  C          -3.50883579478887     -0.05488940741465     -1.11813986441994
  O          -3.26167992021536     -0.20216833813181     -2.29443413539769
