14
Coordinates from ORCA-job ./orca E -398.984522813368
  O           1.62124910436644     -0.38598081270587     -0.77872746686610
  N          -1.95572800999418      0.21393849624044      0.07740293071955
  C          -0.73294030770410      0.07800854864574     -0.71932323042054
  C           0.49052783852216     -0.28838993359172      0.10329923365774
  H          -0.54656126119836      1.02177458469130     -1.23828427278802
  H          -0.89655004451456     -0.68593748402417     -1.48278069844983
  H           0.32353232690027     -1.24365419966785      0.61191734523525
  H           0.66807339321696      0.48026067330228      0.86304358858655
  H          -2.15803830644628     -0.66845506925987      0.53786955430735
  H          -1.79516578534339      0.88445670870948      0.82437475894607
  H           2.39683742993789     -0.60844471749956     -0.24910871585960
  O          -4.74877649223666     -0.64778036115681     -0.67919507221616
  C          -4.10057461896553     -0.29271446027449     -1.57409701944394
  O          -3.51286731684047      0.04160469909110     -2.51707127630822
