14
Coordinates from ORCA-job ./orca E -398.986725339124
  O           1.54007457994234     -0.41821286477023     -0.92101606096029
  N          -1.89315578647967      0.19509127133564      0.38997134232496
  C          -0.79471398788422      0.01493584989683     -0.56503621085865
  C           0.54075853542474     -0.26496064462725      0.10049763188775
  H          -0.71135530942556      0.91689345950961     -1.17630216917878
  H          -1.04448723749823     -0.81024250105182     -1.23596971920479
  H           0.47043530103171     -1.17850564948337      0.70006463876852
  H           0.80388688331094      0.56409714653402      0.76573665158371
  H          -1.97143283248980     -0.63649320892430      0.96882821995110
  H          -1.65855391743523      0.95190658825361      1.02635091035508
  H           2.38454288430948     -0.59669104948778     -0.48877041352059
  O          -4.93186174237460     -0.75297938523938     -1.15918677851352
  C          -4.20191181403727     -0.27902218272968     -1.92569161785636
  O          -3.47920760669457      0.19286984328406     -2.70015676567811
