14
Coordinates from ORCA-job ./orca E -398.993408308346
  O           1.55399642153550     -0.20841829236753     -0.69452950981219
  N          -2.09168761123013     -0.16311778351002     -0.18325396725524
  C          -0.80121507351927     -0.09019160879582     -0.90631522569564
  C           0.34632273925860     -0.24096724938724      0.07240061075500
  H          -0.75746583548344      0.87026908544200     -1.41361136497006
  H          -0.78703732663771     -0.88746052582531     -1.64379424594646
  H           0.25732057785636     -1.18901128199221      0.61142086794202
  H           0.33099891597131      0.57582032067720      0.79907557610983
  H          -2.16127142432606     -1.05690002178068      0.30688188157321
  H          -2.13397585696755      0.55732562122771      0.53807846425476
  H           2.29660261415105     -0.26666129063538     -0.08048546400934
  O          -4.37942930560390      0.19722578668273     -0.34034658069599
  C          -3.39090521574141     -0.02614974809179     -1.03947670197015
  O          -3.22923566956297     -0.17307633914364     -2.24672468117961
