14
Coordinates from ORCA-job ./orca E -398.979984145356
  O           1.63317393262493     -0.23016936080505     -0.72416917158874
  N          -2.02094348518159     -0.13698208444924     -0.07711768760787
  C          -0.75718616942353     -0.11597524700443     -0.80685441313348
  C           0.45567656065565     -0.24805207236477      0.09802919248078
  H          -0.69592389584504      0.81948208316157     -1.36647103913401
  H          -0.76249672670105     -0.93380576625033     -1.53025922006132
  H           0.39912770679477     -1.18609828476096      0.65952873770888
  H           0.47884716188260      0.58136008889877      0.81167823441648
  H          -2.11700582954127     -0.99406426393010      0.45838563976414
  H          -2.07628856472249      0.63514331900940      0.57946765038120
  H           2.40250850918604     -0.30129145983712     -0.14549054097489
  O          -4.66099939343866     -0.03772468204257     -0.47028645878167
  C          -3.84105326543924     -0.00581366657616     -1.31280896681326
  O          -3.38441859115083      0.05267806945100     -2.39431229755613
