14
Coordinates from ORCA-job ./orca E -398.986344988438
  O           1.56388692702304     -0.40758182737085     -0.87943917559397
  N          -1.92682111235937      0.18483867627909      0.28470786833853
  C          -0.78757806444126      0.00289044404155     -0.62007913297085
  C           0.52167672395922     -0.26588881101554      0.10004285542331
  H          -0.68155436045412      0.90119630208662     -1.23383783708625
  H          -1.00703132078415     -0.82698329866256     -1.29579083317326
  H           0.43655061600882     -1.18097377004563      0.69544882458463
  H           0.74858204743573      0.56485312702648      0.77652804722717
  H          -2.05357901463458     -0.65868349375723      0.83700092884223
  H          -1.70813495857855      0.92042956080341      0.95128102306553
  H           2.39221630837946     -0.57404174708391     -0.41239249561307
  O          -4.83371377284012     -0.73441623526070     -1.00532229204869
  C          -4.14242264608612     -0.25229281941797     -1.80219834093388
  O          -3.46905942292788      0.22534056487724     -2.61662978096139
