14
Coordinates from ORCA-job ./orca E -398.982371836390
  O           1.59995697597176     -0.21772245774688     -0.72794016341334
  N          -2.04169094648269     -0.13418129093261     -0.09487439509549
  C          -0.77893355331399     -0.08331415773933     -0.82786176085141
  C           0.42016819543533     -0.25297847306138      0.08745882429375
  H          -0.72162879609677      0.87387617478213     -1.34633945876155
  H          -0.78763006704088     -0.87548421242748     -1.57653313483660
  H           0.35080213345145     -1.20828390316016      0.61700271228301
  H           0.44427119615349      0.55303218338364      0.82659351581256
  H          -2.13893917954945     -1.00403173531438      0.42052115206264
  H          -2.12707340298425      0.63179405339305      0.56609366780899
  H           2.36618348883433     -0.30584751664423     -0.14749451144270
  O          -4.56659861362413      0.07871290710280     -0.44725620871413
  C          -3.66251738877750     -0.03588715910303     -1.21842497691910
  O          -3.30335209227638     -0.12099774003212     -2.35162560312651
