14
Coordinates from ORCA-job ./orca E -398.986177170583
  O           1.56394810820461     -0.40629495065020     -0.87403784016446
  N          -1.93372544337801      0.18230407769596      0.27021070700834
  C          -0.79045478116574      0.00316321132986     -0.63078956707983
  C           0.51396057255084     -0.26798352416838      0.09755297838490
  H          -0.68163636461598      0.90359254403347     -1.24071345584840
  H          -1.00504889919105     -0.82527504715545     -1.30968827964769
  H           0.42374883004345     -1.18518000692705      0.68899457076197
  H           0.73551211896510      0.56037766750505      0.77871310256498
  H          -2.05549491266893     -0.65955307461640      0.82626954165030
  H          -1.71887109561414      0.92129836659238      0.93441548949517
  H           2.38894885042916     -0.57185760999477     -0.40085155659912
  O          -4.81043270191682     -0.73315744952137     -0.98098374187346
  C          -4.12164768057993     -0.25014165656319     -1.77949504731602
  O          -3.45578865136243      0.22739412494008     -2.60027724223662
