14
Coordinates from ORCA-job ./orca E -398.980792144724
  O           1.61256185928799     -0.23264912807954     -0.72846712065736
  N          -2.03274963206556     -0.12874089079090     -0.08517603960062
  C          -0.77133334113222     -0.10170090294099     -0.81889225495640
  C           0.43483091483844     -0.24926865861523      0.09171495150430
  H          -0.71059747541282      0.84073715586927     -1.36469697201218
  H          -0.78184446234661     -0.91229742234089     -1.54882085311642
  H           0.36934493025062     -1.19170573677940      0.64448320283629
  H           0.46154739455606      0.57400289420881      0.81185346677626
  H          -2.13619334919096     -0.98827470196417      0.44496589631786
  H          -2.10469621344443      0.64705879062437      0.56535567203602
  H           2.38053790846449     -0.31286993491518     -0.14917989996825
  O          -4.60880162561682     -0.03351450962492     -0.45780682737927
  C          -3.73182625814072     -0.02441762431044     -1.25645012139123
  O          -3.32776270034715      0.01232734215924     -2.36956344128889
