14
Coordinates from ORCA-job ./orca E -398.985217678382
  O           1.62598421052313     -0.39115698148594     -0.78420898319474
  N          -1.94037684719417      0.22932270193075      0.10182970928629
  C          -0.72576875572977      0.08468934977406     -0.70628792659943
  C           0.50233059789950     -0.28897554786441      0.10620750438508
  H          -0.53760521202829      1.02691690527792     -1.22745411531032
  H          -0.90136298064332     -0.67858041203834     -1.46781103373897
  H           0.33453206773380     -1.24395250718951      0.61516792769003
  H           0.68918380819024      0.47801271726245      0.86543310081938
  H          -2.14994733317557     -0.65464016286746      0.55606895428007
  H          -1.76448597428317      0.89073716824233      0.85347408276790
  H           2.40516576123387     -0.61335356920574     -0.25973286158793
  O          -4.79081420892672     -0.66162286472683     -0.71451461027670
  C          -4.14701301984643     -0.30828612001951     -1.61272518919495
  O          -3.54680416405291      0.02957599541023     -2.54612690022562
