14
Coordinates from ORCA-job ./orca E -398.980265812567
  O           1.64045432733289     -0.22919502216240     -0.72957551512222
  N          -2.01518767876941     -0.14100796577965     -0.05936997566940
  C          -0.75336953838827     -0.12071606585584     -0.79454726256043
  C           0.46750414762146     -0.24776947368923      0.10011410279050
  H          -0.69624329520100      0.81266923391351     -1.35886757291829
  H          -0.76067969579735     -0.94027780209520     -1.51665818904860
  H           0.41741705267042     -1.18470163424743      0.66427235613557
  H           0.49407524245650      0.58318958961904      0.81205785866238
  H          -2.09711161162562     -0.99522579837377      0.48341630951219
  H          -2.05805656635081      0.63071520505405      0.59893488519128
  H           2.41350706978212     -0.29940322711587     -0.15577094017556
  O          -4.69830113093017     -0.03977038749194     -0.49775152576204
  C          -3.90348550965509      0.00221330569393     -1.35679649461340
  O          -3.39750486344539      0.06796671503081     -2.41013837732188
