14
Coordinates from ORCA-job ./orca E -398.984890217743
  O           1.62371181667303     -0.38837931928185     -0.78121906251103
  N          -1.94804743349477      0.22243406381148      0.08933209602190
  C          -0.72927902730257      0.08191869811038     -0.71299527020666
  C           0.49621519587421     -0.28892683627789      0.10467524435515
  H          -0.54157854761953      1.02505028411650     -1.23265690726864
  H          -0.89901997166667     -0.68133537605874     -1.47583611788939
  H           0.32844728665232     -1.24440114108414      0.61268094326529
  H           0.67827468064698      0.47828358004047      0.86483161036112
  H          -2.15390840423445     -0.66061516260321      0.54700054597589
  H          -1.77979973260023      0.88867802277027      0.83844819196492
  H           2.40074270118805     -0.61191516354373     -0.25414553612737
  O          -4.76904504341497     -0.65603101762805     -0.69632902357899
  C          -4.12377579534226     -0.30139343690131     -1.59321049883729
  O          -3.52991977565896      0.03531947702982     -2.53125655642482
