14
Coordinates from ORCA-job ./orca E -398.985970404571
  O           1.56292263347045     -0.40506921686802     -0.87041407907428
  N          -1.94115327265758      0.18096187540686      0.25566090472949
  C          -0.79279986762790      0.00359960583480     -0.63909105763555
  C           0.50751100704709     -0.26977582461917      0.09578151891940
  H          -0.68061208850435      0.90542999822228     -1.24629758021061
  H          -1.00358882876077     -0.82320273132436     -1.32115852946664
  H           0.41396185350459     -1.18891230053907      0.68370607671472
  H           0.72527913604264      0.55638677466969      0.78081417015544
  H          -2.06270801914540     -0.65965115533776      0.81369464441938
  H          -1.73264041383690      0.92286894171341      0.91865347366719
  H           2.38537733129402     -0.57166331571739     -0.39320122733108
  O          -4.78668530934741     -0.73394393841052     -0.95816744467915
  C          -4.10038836185325     -0.24862229240034     -1.75750249175754
  O          -3.44145784992508      0.23028025186959     -2.58315871935070
