14
Coordinates from ORCA-job ./orca E -398.980599322930
  O           1.64719183588302     -0.22830652066458     -0.72775398574507
  N          -2.01054936934149     -0.14481751792166     -0.05659690262645
  C          -0.74786707655517     -0.12525185709304     -0.79130430765271
  C           0.47433279271813     -0.24723418852863      0.10239935204599
  H          -0.69142939486731      0.80626392641752     -1.35916486800878
  H          -0.75345839317544     -0.94698159497159     -1.51123037784466
  H           0.42683270386589     -1.18265171983269      0.66936163658365
  H           0.49947988215981      0.58579704515513      0.81206888478721
  H          -2.08889827717157     -0.99885165291648      0.48725344385868
  H          -2.04762357914666      0.62506234200186      0.60444096097592
  H           2.42062207608214     -0.29463999320753     -0.15399678459141
  O          -4.71742659530475     -0.03664480225148     -0.50321021427597
  C          -3.93955632232277      0.00930017084925     -1.37464910769180
  O          -3.41863233312356      0.07764303546394     -2.41829807071450
