14
Coordinates from ORCA-job ./orca E -398.986697120616
  O           1.54411166203689     -0.41460570809514     -0.91416132995566
  N          -1.90006770703659      0.18974068575105      0.37212193915518
  C          -0.79515124384440      0.01097527358137     -0.57554366257444
  C           0.53620645625410     -0.26571451649367      0.09941650575806
  H          -0.71002345915912      0.91271862334830     -1.18681351205328
  H          -1.03954279610098     -0.81519261882601     -1.24724725981397
  H           0.46386812608566     -1.18024133600199      0.69727291825181
  H           0.79130948916944      0.56344961973829      0.76766386537817
  H          -1.98121730515612     -0.64157307009251      0.95065507730060
  H          -1.67168788388750      0.94804395924476      1.00895854548536
  H           2.38576847569235     -0.58985958086210     -0.47508964342280
  O          -4.91150217134854     -0.74433286096922     -1.12977582832492
  C          -4.18688422517030     -0.27216948113567     -1.90245021672633
  O          -3.47216946783482      0.19744768331253     -2.68568773935774
