14
Coordinates from ORCA-job ./orca E -398.987712006739
  O           1.58024131115199     -0.22075601714666     -0.71432866507621
  N          -2.05947774154871     -0.12515165795027     -0.13191716864637
  C          -0.78710395012258     -0.06896580699776     -0.86056391464837
  C           0.38846731741605     -0.25439054873950      0.08058670179158
  H          -0.72579527860254      0.89424343708821     -1.36420555885211
  H          -0.79383898565104     -0.85591159518722     -1.61226022994531
  H           0.30104816283625     -1.21378855020113      0.59961387106545
  H           0.40416010825330      0.54490307349891      0.82668957334274
  H          -2.14103519304780     -0.99235814941312      0.39476666032839
  H          -2.14612711045583      0.64201510998312      0.53029506124710
  H           2.33589092271442     -0.31694131486303     -0.12140946837591
  O          -4.49257974302870      0.07518845770885     -0.40164205812263
  C          -3.54043740277220     -0.05473876508265     -1.13705804515196
  O          -3.27039446744229     -0.15466100019773     -2.30924709985623
