14
Coordinates from ORCA-job ./orca E -398.981028097230
  O           1.65555338882461     -0.22740372893381     -0.72399310682870
  N          -2.00454973910439     -0.14839235613029     -0.05583507070629
  C          -0.74057176432227     -0.12952909154136     -0.78926635102216
  C           0.48171876087468     -0.24628960525327      0.10505707683132
  H          -0.68478114829360      0.80003799594683     -1.36070339549264
  H          -0.74419707977249     -0.95357782286278     -1.50674649003483
  H           0.43591577197300     -1.17995064476621      0.67509287121952
  H           0.50457070274077      0.58905347597925      0.81218176487905
  H          -2.08198702551362     -1.00320317486215      0.48707029475001
  H          -2.03699100907997      0.61899935337655      0.60848975104964
  H           2.42853128872679     -0.29103684225303     -0.14932396112713
  O          -4.73752200375938     -0.03306774234356     -0.50595972372029
  C          -3.97714187762629      0.01635119785467     -1.39023034896958
  O          -3.44553031596761      0.08669565828919     -2.42651365172780
