14
Coordinates from ORCA-job ./orca E -398.980064443723
  O           1.62541386778966     -0.23158442566501     -0.72719781858602
  N          -2.02525142860716     -0.13450523228193     -0.07751692389873
  C          -0.76328470438617     -0.11173867459432     -0.80995169174125
  C           0.44854580944869     -0.24806522804810      0.09542566155207
  H          -0.70311468755130      0.82570167823630     -1.36572903638999
  H          -0.77099889085526     -0.92771007620218     -1.53495859190456
  H           0.38952836412738     -1.18699503085484      0.65508426311403
  H           0.47372830870745      0.58005580980260      0.81035995863367
  H          -2.12415316720104     -0.99270004803238      0.45545574444270
  H          -2.08568778365640      0.63888952376912      0.57693708423746
  H           2.39479362916758     -0.30507581687505     -0.14887546847166
  O          -4.64381611847950     -0.03824182466227     -0.46893395883494
  C          -3.80271669242241     -0.01165464856641     -1.29509202538938
  O          -3.35996855638122      0.04231066647448     -2.38568753766327
