14
Coordinates from ORCA-job ./orca E -398.984741895433
  O           1.59027829631405     -0.21929592725827     -0.72127999350741
  N          -2.04999823371878     -0.13240003094983     -0.11349068365061
  C          -0.78294167486134     -0.07858810279877     -0.84399498024764
  C           0.40481059432543     -0.25276729973536      0.08450704715857
  H          -0.72457673158392      0.88063722650105     -1.35706412071374
  H          -0.78962884492903     -0.86954674284203     -1.59277822710998
  H           0.32743385643803     -1.20876227949178      0.61148770291971
  H           0.42426352840054      0.55196590314466      0.82489817274432
  H          -2.14217477542132     -1.00223242274701      0.40474474407390
  H          -2.13727589266249      0.63325584255327      0.54884488222727
  H           2.35164068178508     -0.30834894541740     -0.13459750190678
  O          -4.52935349343832      0.07964387440993     -0.42359297290146
  C          -3.60118159396498     -0.04262683494550     -1.17705557424720
  O          -3.28827776698261     -0.13224758792293     -2.33130883573881
