14
Coordinates from ORCA-job ./orca E -398.985497966502
  O           1.62727317480558     -0.39514692792570     -0.78878249846550
  N          -1.93307774088936      0.23514815875437      0.11489357275249
  C          -0.72209765809399      0.08744937092050     -0.69781198345072
  C           0.50961216768934     -0.28782478538547      0.10839887993928
  H          -0.53499732754047      1.02880510450197     -1.22104106123125
  H          -0.90267135513610     -0.67639236149223     -1.45770197582137
  H           0.34215069270180     -1.24118114087971      0.62053988910437
  H           0.70338528415188      0.48021874106453      0.86482050052798
  H          -2.14831972969015     -0.65008732098242      0.56382218808676
  H          -1.75117079821825      0.89138292930114      0.86954368727948
  H           2.40952293552322     -0.61664073698115     -0.26856405408696
  O          -4.81415411482419     -0.66662899345704     -0.73474936623882
  C          -4.16999914385538     -0.31455310032095     -1.63296385807757
  O          -3.56243843692374      0.02413773538216     -2.56108426121809
