14
Coordinates from ORCA-job ./orca E -398.982403651832
  O           1.66801837698836     -0.24743255600212     -0.72848682189456
  N          -1.98759788958532     -0.10371352894126     -0.02867800892961
  C          -0.72797144210157     -0.10308348577307     -0.77249175740173
  C           0.50007355894530     -0.25171739653586      0.10942170555069
  H          -0.65705108224526      0.83011935760453     -1.33678910402520
  H          -0.75188294465015     -0.92039360661326     -1.49757519615514
  H           0.44076400953947     -1.19000343564490      0.67072871249061
  H           0.54466677481190      0.57602314864264      0.82460881680221
  H          -2.06391624581755     -0.95788722989647      0.51593706163196
  H          -1.99194812934376      0.65931685540272      0.64181773071629
  H           2.44340250246857     -0.34325253877610     -0.16163560469924
  O          -4.79836544256446     -0.12750730303297     -0.55008740428188
  C          -4.07125068274417     -0.01432915026491     -1.45165424519692
  O          -3.49392341400113      0.09254754233102     -2.45579622550737
