14
Coordinates from ORCA-job ./orca E -398.983679999527
  O           1.61686555710682     -0.38027000895049     -0.77472427144129
  N          -1.97049357698982      0.19231956689842      0.05444022441995
  C          -0.73977368437342      0.06738185303522     -0.73050961179843
  C           0.48103717565986     -0.28673247766503      0.10117361550500
  H          -0.55889895021831      1.01208939633770     -1.24964859878320
  H          -0.89027833871817     -0.69932548101896     -1.49385689954603
  H           0.31766523774309     -1.24113556305891      0.61254096144638
  H           0.64959380270377      0.48608993540024      0.85860217798944
  H          -2.16506554757975     -0.68814438772952      0.52160046395970
  H          -1.82993634204444      0.87433867312135      0.79470099797772
  H           2.39095344734780     -0.59721960667732     -0.24066641378470
  O          -4.71414828385931     -0.62480711562638     -0.64793610471914
  C          -4.05463962475416     -0.27110011770212     -1.53598737548651
  O          -3.47986292232377      0.05520200613580     -2.49040950663878
