14
Coordinates from ORCA-job ./orca E -398.980328720431
  O           1.61895273489128     -0.23258847829560     -0.72804693426462
  N          -2.02890373105908     -0.13091963150781     -0.08101913204881
  C          -0.76740482429185     -0.10632412611061     -0.81421562405676
  C           0.44176092872679     -0.24863623851370      0.09353449276562
  H          -0.70676184574238      0.83361181373622     -1.36503185348843
  H          -0.77680969469320     -0.91959495953567     -1.54172705532419
  H           0.37925580090542     -1.18927579212486      0.64981726966158
  H           0.46813985639332      0.57709431382651      0.81102977619964
  H          -2.13055827007159     -0.98970906212983      0.45048892768355
  H          -2.09543948240914      0.64395083569736      0.57108020708388
  H           2.38767160693331     -0.31014763777405     -0.14938152910500
  O          -4.62647264569245     -0.03834156812915     -0.46371578753756
  C          -3.76702404607728     -0.01871911059164     -1.27581736755577
  O          -3.34338843811285      0.02828631395285     -2.37767573091300
