14
Coordinates from ORCA-job ./orca E -398.980050692236
  O           1.63483637419109     -0.22889885731722     -0.72990127587854
  N          -2.01901862811949     -0.14025884335990     -0.06375675740465
  C          -0.75787254234771     -0.12005530395543     -0.79910200097678
  C           0.46098583830589     -0.24772579836673      0.09806424806355
  H          -0.70041430306141      0.81374478544099     -1.36231981767897
  H          -0.76623327509681     -0.93941877190941     -1.52107094780129
  H           0.40992724927395     -1.18468614617787      0.66198787422748
  H           0.48615235106698      0.58317188724926      0.81004853584505
  H          -2.10700946978130     -0.99572797653327      0.47581470431531
  H          -2.06714984108366      0.63232680391147      0.59294013899561
  H           2.40704921838212     -0.29853508494037     -0.15488867236086
  O          -4.67969408960730     -0.03935254585215     -0.49008267548577
  C          -3.86841131328125     -0.00043097654584     -1.33706367449312
  O          -3.38012961914082      0.06453350085649     -2.40135002026692
