14
Coordinates from ORCA-job ./orca E -398.983187248978
  O           1.61433069040509     -0.37815657624183     -0.77215415821547
  N          -1.97822118097826      0.18195557174451      0.04275963623589
  C          -0.74324619557981      0.06380156713474     -0.73686110823349
  C           0.47530164481120     -0.28609086411313      0.09980738086182
  H          -0.56468582921402      1.00983997151542     -1.25423804412691
  H          -0.88618730773252     -0.70282406938102     -1.50168280130717
  H           0.31214507690643     -1.24038412123071      0.61145402385778
  H           0.63983785757361      0.48762460909573      0.85710848273028
  H          -2.16406709387855     -0.69678566503446      0.51686936372792
  H          -1.84742924394856      0.87116701935734      0.77821995724098
  H           2.38680407819592     -0.59460178987307     -0.23559508151572
  O          -4.69573855586182     -0.61547344704419     -0.63167310879719
  C          -4.03148828121851     -0.26206200027727     -1.51698837082677
  O          -3.46433770977999      0.06067646684793     -2.47770651253186
