14
Coordinates from ORCA-job ./orca E -398.986658907915
  O           1.55144303974198     -0.41267529629802     -0.90320598897542
  N          -1.90725911196627      0.18831406261297      0.34683019873255
  C          -0.79139818080275      0.00636255180447     -0.58701578665536
  C           0.53447540425319     -0.26336599912211      0.10134756556901
  H          -0.70080379968888      0.90457401707151     -1.20310034381525
  H          -1.02760702611426     -0.82360373059521     -1.25697257205291
  H           0.46090621513164     -1.17570850034917      0.70237360337987
  H           0.78102391076205      0.56929707582489      0.76849080965768
  H          -2.00997963372874     -0.65030867055287      0.91147748165824
  H          -1.67658947080863      0.93271000341548      0.99928553107693
  H           2.38990981835336     -0.58407920841964     -0.45652976134751
  O          -4.88799646606629     -0.73786563905736     -1.09090788960032
  C          -4.18036473732796     -0.26337170920099     -1.87777755047179
  O          -3.48274201203834      0.20840771536604     -2.67497563805566
