14
Coordinates from ORCA-job ./orca E -398.981482660167
  O           1.60614644739126     -0.21995182870848     -0.72834573491177
  N          -2.03741623573311     -0.13038987239956     -0.08963213188919
  C          -0.77498048201991     -0.08091972962332     -0.82197855200274
  C           0.42712462573301     -0.25454222978827      0.08884698501219
  H          -0.71541344251078      0.87691689307611     -1.33975960489771
  H          -0.78503766623250     -0.87119550255803     -1.57329345170232
  H           0.35722400254178     -1.21090526417406      0.61658205271468
  H           0.45440593112091      0.54975676140006      0.82985186660801
  H          -2.13193551743344     -0.99837099289560      0.42892536260567
  H          -2.12123147362981      0.63689538838906      0.56963286940793
  H           2.37313464453014     -0.30941817660438     -0.14912410950875
  O          -4.58507578758491      0.07137574235456     -0.45366378481624
  C          -3.69709455924132     -0.03794672949101     -1.23819084723638
  O          -3.31683253723101     -0.12261778647706     -2.36053126028326
