14
Coordinates from ORCA-job ./orca E -398.992072679650
  O           1.56392022004937     -0.21047075502345     -0.70374466867489
  N          -2.07820455158511     -0.15482234032902     -0.16066118872330
  C          -0.79655754495786     -0.08508191509799     -0.88731070765243
  C           0.36347378814383     -0.24541918213165      0.07584098728746
  H          -0.74935170770936      0.87652732206207     -1.39342307564819
  H          -0.78958764281306     -0.87876123177656     -1.62988605930749
  H           0.27827314896089     -1.19729504126234      0.60866828211682
  H           0.35920168908226      0.56588253811472      0.80884637148033
  H          -2.15599146546848     -1.04221440563024      0.33632518435684
  H          -2.13856537848087      0.58079352937077      0.54159413846000
  H           2.31290873979433     -0.27842555742944     -0.09855133977901
  O          -4.42381879507815      0.17090696288936     -0.36884949380834
  C          -3.44858293886488     -0.03156476293171     -1.07803182893224
  O          -3.24409961137254     -0.17136848832450     -2.27149694207542
