14
Coordinates from ORCA-job ./orca E -398.985717050639
  O           1.56265420744411     -0.40436033659602     -0.86606009907917
  N          -1.94825007209364      0.17894748322700      0.24019580206116
  C          -0.79457545978888      0.00308251673690     -0.64776311027955
  C           0.50159228465599     -0.27105035611273      0.09421722255347
  H          -0.67909831551583      0.90581712150149     -1.25300456340272
  H          -1.00115094026970     -0.82275682528262     -1.33226539793145
  H           0.40500126593184     -1.19116843663386      0.68013416006128
  H           0.71501442805114      0.55412137680605      0.78182892171868
  H          -2.07140758210596     -0.66114342954891      0.79868229759654
  H          -1.74520563643830      0.92224047306409      0.90335642964790
  H           2.38260187457951     -0.57010824421436     -0.38428324320251
  O          -4.76458170500348     -0.73382719079840     -0.93517320857325
  C          -4.08059351176067     -0.24570991501226     -1.73490056193710
  O          -3.42898288798599      0.23460243536363     -2.56564499013320
