14
Coordinates from ORCA-job ./orca E -398.984119242433
  O           1.61899116191008     -0.38348223343562     -0.77636762725435
  N          -1.96323474105438      0.20389861486312      0.06580864289776
  C          -0.73658289420385      0.07305755515099     -0.72551000473529
  C           0.48522428607407     -0.28771163091546      0.10197129660670
  H          -0.55235025061434      1.01730112509386     -1.24433113275471
  H          -0.89378210307660     -0.69203237146385     -1.48912644314877
  H           0.31955113864980     -1.24251087985394      0.61187521378283
  H           0.65810297815978      0.48292910554658      0.86072195571947
  H          -2.16173981341842     -0.67774835338660      0.52928014003440
  H          -1.81112347674927      0.87917990333418      0.81021635558974
  H           2.39359148457609     -0.60287185092357     -0.24404605330171
  O          -4.72996913022909     -0.63708611449380     -0.66264261385649
  C          -4.07754377675873     -0.28249157889278     -1.55506129280357
  O          -3.49611691356494      0.04825538187689     -2.50346877767592
