14
Coordinates from ORCA-job ./orca E -398.981464615856
  O           1.65718120867334     -0.24359900202569     -0.72895690392808
  N          -1.99963329253742     -0.11857848333454     -0.04238676924694
  C          -0.73864579944148     -0.11494734515366     -0.78173605992354
  C           0.48701161520305     -0.25056526980504      0.10557790360580
  H          -0.67162404351194      0.81563379633408     -1.35059143813509
  H          -0.75627272915384     -0.93642578365840     -1.50203896074796
  H           0.43220175791253     -1.18558897834118      0.67269193619785
  H           0.52381003003864      0.58202651606824      0.81542139722501
  H          -2.08326866027040     -0.97322190021171      0.49995714920218
  H          -2.01512795380532      0.64680117197426      0.62494250365851
  H           2.43207368809835     -0.31710723544715     -0.15807578442571
  O          -4.75623742309821     -0.10413194572034     -0.52729407945841
  C          -4.00590904271669     -0.00153377440427     -1.41389020705155
  O          -3.45254140569036      0.09992490622540     -2.43430102787197
