14
Coordinates from ORCA-job ./orca E -398.983461757531
  O           1.59484278875879     -0.21771353791322     -0.72535828174215
  N          -2.04581442965627     -0.13522047578538     -0.10313497758849
  C          -0.78138414718313     -0.08219541491063     -0.83539003863225
  C           0.41272219680948     -0.25246320391117      0.08598570478183
  H          -0.72470308143638      0.87581404209376     -1.35165397048897
  H          -0.78892368328739     -0.87415816125509     -1.58367339533479
  H           0.34048945045928     -1.20772034316744      0.61511282678626
  H           0.43421794314015      0.55359331364480      0.82501165127214
  H          -2.14186877542712     -1.00607698668806      0.41157890945304
  H          -2.13244416306338      0.62975011553920      0.55936352944454
  H           2.35910528949080     -0.30483678977332     -0.14217293451212
  O          -4.54797561646543      0.08446843123947     -0.43707512954859
  C          -3.63083137723503     -0.03751084267764     -1.19781528463345
  O          -3.29441444520406     -0.12704347393525     -2.34145895015686
