14
Coordinates from ORCA-job ./orca E -398.982861900209
  O           1.67314044028559     -0.24523274548005     -0.72960030804777
  N          -1.98094001956317     -0.10153814676231     -0.01947089111496
  C          -0.72309179088997     -0.10016761142924     -0.76647779475350
  C           0.50752124729098     -0.24951665244987      0.11166126456488
  H          -0.65380853790648      0.83281795558138     -1.33146987559215
  H          -0.74853754706508     -0.91683734013500     -1.49234454434103
  H           0.44952098330945     -1.18807005165482      0.67258233858953
  H           0.55458772449686      0.57779098109789      0.82731706352699
  H          -2.05617621740695     -0.95705454180711      0.52303463124600
  H          -1.98275888740994      0.65982507122988      0.65285548155155
  H           2.44895069852814     -0.35720315273801     -0.16633127556968
  O          -4.82096217246507     -0.13140774051960     -0.56439595425417
  C          -4.10116724187484     -0.01634649709212     -1.47048506270544
  O          -3.51326072962930      0.09162714465899     -2.46755541400014
