14
Coordinates from ORCA-job ./orca E -398.990760531917
  O           1.56934269272107     -0.21139886469129     -0.70800156450835
  N          -2.07174786825076     -0.13612381599322     -0.15030615700267
  C          -0.79310383948862     -0.06999739745855     -0.87673830906149
  C           0.37213099616473     -0.25225697784593      0.07698750800087
  H          -0.73693744484089      0.89628749142449     -1.37377483625168
  H          -0.79361277113165     -0.85510814064016     -1.62901406333948
  H           0.28428778427666     -1.21290116848831      0.59346503310219
  H           0.37722360928649      0.54593518867075      0.82425505348935
  H          -2.14666212399371     -1.01220872218892      0.36529696482436
  H          -2.14749288579173      0.61647136590506      0.53133258781551
  H           2.32058864735137     -0.30173229079827     -0.10857819597537
  O          -4.44853276811319      0.13704440692876     -0.38383585828380
  C          -3.47947968300212     -0.04962704563124     -1.09858904476627
  O          -3.25298639548731     -0.19569735669315     -2.28317945894304
