14
Coordinates from ORCA-job ./orca E -398.986479692046
  O           1.55633249109071     -0.40859240380753     -0.89045399894687
  N          -1.92124479770134      0.17974128302250      0.31242219034223
  C          -0.79364910501467      0.00312848797037     -0.60862913909431
  C           0.52269237470095     -0.26705372690242      0.09802128599153
  H          -0.69691363024745      0.90422925682485     -1.21938187583435
  H          -1.01854199345399     -0.82501513238664     -1.28467052932359
  H           0.44137743275950     -1.18276313298438      0.69299583507543
  H           0.75633754969230      0.56257151625157      0.77354922128429
  H          -2.01864628398898     -0.65478954988465      0.88425084887561
  H          -1.70453855427454      0.93245662124812      0.96017175555564
  H           2.38860131208689     -0.57549402924233     -0.43062571810373
  O          -4.84947539191660     -0.73109143772929     -1.03948914922352
  C          -4.14762721881316     -0.25525513007645     -1.83075297043330
  O          -3.46168623521952      0.21661405019627     -2.63808809706500
