14
Coordinates from ORCA-job ./orca E -398.993041896480
  O           1.55905271435528     -0.21035988050328     -0.69889271838664
  N          -2.08454535376609     -0.15894525248678     -0.17239842496444
  C          -0.79877130267567     -0.08794379541682     -0.89717612797477
  C           0.35481363515114     -0.24303589471583      0.07415937344455
  H          -0.75297167012465      0.87282855503358     -1.40435140332359
  H          -0.78790026348813     -0.88380822351968     -1.63681939154311
  H           0.26726861877028     -1.19247329040732      0.61095008367936
  H           0.34516940395482      0.57166132315034      0.80329934068986
  H          -2.15868252503043     -1.04933597452139      0.32143901080322
  H          -2.13606022113887      0.56936169770430      0.53918786910509
  H           2.30470022791324     -0.27265162218091     -0.08896007888644
  O          -4.40204604435616      0.18096839044736     -0.35344186525625
  C          -3.41992501956935     -0.02860993761626     -1.05836857947280
  O          -3.23708425029504     -0.16896942246726     -2.25930742881389
