14
Coordinates from ORCA-job forwardopt E -399.106557813567
  O       1.486565     -0.239621     -0.684532
  N      -2.164296     -0.105872     -0.233771
  C      -0.844395     -0.095693     -0.904642
  C       0.291280     -0.232035      0.093260
  H      -0.758059      0.839096     -1.449408
  H      -0.824822     -0.924919     -1.603720
  H       0.199650     -1.162052      0.659040
  H       0.301007      0.604928      0.794062
  H      -2.258299     -0.941539      0.341818
  H      -2.244732      0.683441      0.404495
  H       2.236190     -0.299244     -0.085121
  O      -4.457934      0.058989     -0.471072
  C      -3.436512     -0.066887     -1.138488
  O      -3.225038     -0.173804     -2.336836
14
Coordinates from ORCA-job forwardopt E -399.106753420317
  O       1.484589     -0.241132     -0.676149
  N      -2.154056     -0.115955     -0.233314
  C      -0.845885     -0.102562     -0.918170
  C       0.280571     -0.227083      0.086077
  H      -0.767280      0.830033     -1.468441
  H      -0.826601     -0.937522     -1.611031
  H       0.180186     -1.150835      0.659983
  H       0.277950      0.617374      0.777547
  H      -2.242347     -0.956908      0.335933
  H      -2.224652      0.667983      0.412842
  H       2.224636     -0.292886     -0.064482
  O      -4.444059      0.068756     -0.457543
  C      -3.426721     -0.065434     -1.128877
  O      -3.215728     -0.149042     -2.329291
14
Coordinates from ORCA-job forwardopt E -399.103499972315
  O       1.481260     -0.252956     -0.639034
  N      -2.115887     -0.123286     -0.236712
  C      -0.847864     -0.106640     -0.969114
  C       0.243182     -0.214119      0.058326
  H      -0.785416      0.823441     -1.527016
  H      -0.838657     -0.952238     -1.651095
  H       0.098266     -1.121123      0.647741
  H       0.201979      0.648152      0.725367
  H      -2.199515     -0.991012      0.293325
  H      -2.137622      0.626396      0.452662
  H       2.180801     -0.290280      0.018919
  O      -4.396365      0.050381     -0.400930
  C      -3.388161      0.007382     -1.095874
  O      -3.195396     -0.159311     -2.291479
14
Coordinates from ORCA-job forwardopt E -399.106910647355
  O       1.491046     -0.244968     -0.663385
  N      -2.146955     -0.132128     -0.234479
  C      -0.846397     -0.115148     -0.933454
  C       0.275196     -0.217988      0.077632
  H      -0.779948      0.812107     -1.493788
  H      -0.825709     -0.957728     -1.616955
  H       0.165605     -1.129507      0.669473
  H       0.258063      0.641016      0.751098
  H      -2.237792     -0.987420      0.312606
  H      -2.198982      0.634094      0.434547
  H       2.218903     -0.280561     -0.036052
  O      -4.435928      0.082625     -0.441914
  C      -3.420524     -0.040301     -1.118838
  O      -3.215974     -0.119305     -2.321406
14
Coordinates from ORCA-job forwardopt E -399.106931840736
  O       1.492943     -0.242762     -0.661034
  N      -2.147306     -0.138664     -0.235706
  C      -0.846017     -0.121473     -0.935380
  C       0.275743     -0.216157      0.077081
  H      -0.782838      0.803285     -1.499846
  H      -0.823612     -0.966501     -1.615732
  H       0.167923     -1.125028      0.673584
  H       0.253467      0.646476      0.745933
  H      -2.239781     -0.997509      0.305504
  H      -2.195057      0.622145      0.439665
  H       2.219468     -0.271723     -0.031817
  O      -4.434554      0.096809     -0.439220
  C      -3.420984     -0.035850     -1.117216
  O      -3.218791     -0.108262     -2.320731
14
Coordinates from ORCA-job forwardopt E -399.106941419506
  O       1.494109     -0.239948     -0.659899
  N      -2.148464     -0.143886     -0.236691
  C      -0.845509     -0.126307     -0.935667
  C       0.276928     -0.214826      0.077373
  H      -0.785143      0.796415     -1.503635
  H      -0.821877     -0.972885     -1.614031
  H       0.171682     -1.122146      0.676823
  H       0.250674      0.650187      0.743160
  H      -2.242877     -1.006838      0.297757
  H      -2.193161      0.610911      0.445666
  H       2.220494     -0.263549     -0.030282
  O      -4.433381      0.113000     -0.438396
  C      -3.421124     -0.030047     -1.116535
  O      -3.221747     -0.105293     -2.320557
14
Coordinates from ORCA-job forwardopt E -399.106941041134
  O       1.493916     -0.237749     -0.659966
  N      -2.149040     -0.146341     -0.236757
  C      -0.845408     -0.127683     -0.935235
  C       0.277195     -0.214309      0.077728
  H      -0.786560      0.794518     -1.504271
  H      -0.821346     -0.974400     -1.613430
  H       0.173322     -1.121674      0.677342
  H       0.249301      0.650945      0.743170
  H      -2.244030     -1.011981      0.293404
  H      -2.192928      0.604919      0.449588
  H       2.220766     -0.259558     -0.030810
  O      -4.431898      0.125430     -0.439075
  C      -3.420267     -0.027101     -1.116346
  O      -3.222419     -0.110229     -2.320256
14
Coordinates from ORCA-job forwardopt E -399.106949762831
  O       1.493199     -0.234800     -0.660607
  N      -2.149565     -0.148229     -0.236346
  C      -0.845549     -0.127373     -0.934363
  C       0.277132     -0.214226      0.078151
  H      -0.787969      0.795291     -1.502882
  H      -0.821106     -0.973172     -1.613703
  H       0.174589     -1.122843      0.676062
  H       0.248377      0.649785      0.745144
  H      -2.244367     -1.016512      0.289706
  H      -2.193775      0.599922      0.453372
  H       2.220891     -0.256463     -0.032416
  O      -4.429724      0.141741     -0.441021
  C      -3.418940     -0.025444     -1.116390
  O      -3.222590     -0.122891     -2.319622
14
Coordinates from ORCA-job forwardopt E -399.106952846321
  O       1.492466     -0.231650     -0.661289
  N      -2.149865     -0.149589     -0.235731
  C      -0.845850     -0.125578     -0.933596
  C       0.276802     -0.214534      0.078389
  H      -0.789193      0.798593     -1.499853
  H      -0.820864     -0.969489     -1.615240
  H       0.175233     -1.125238      0.673259
  H       0.247877      0.647135      0.748336
  H      -2.243660     -1.020063      0.287023
  H      -2.195163      0.596277      0.456344
  H       2.220835     -0.254603     -0.033938
  O      -4.427147      0.160046     -0.443594
  C      -3.417781     -0.025408     -1.116516
  O      -3.223086     -0.141112     -2.318507
14
Coordinates from ORCA-job forwardopt E -399.106947147389
  O       1.492165     -0.229157     -0.661597
  N      -2.149908     -0.150518     -0.235240
  C      -0.846160     -0.123026     -0.933301
  C       0.276432     -0.215026      0.078315
  H      -0.790086      0.803308     -1.496123
  H      -0.820390     -0.964560     -1.617789
  H       0.175247     -1.127873      0.669957
  H       0.247794      0.644116      0.751458
  H      -2.242219     -1.022462      0.285380
  H      -2.196509      0.594012      0.458108
  H       2.220656     -0.254063     -0.034474
  O      -4.424717      0.176828     -0.445925
  C      -3.417327     -0.026614     -1.116611
  O      -3.224374     -0.160179     -2.317073
14
Coordinates from ORCA-job forwardopt E -399.106956396644
  O       1.492369     -0.227102     -0.661473
  N      -2.149872     -0.151666     -0.235037
  C      -0.846357     -0.120550     -0.933384
  C       0.276253     -0.215491      0.078050
  H      -0.790949      0.808177     -1.492339
  H      -0.819518     -0.959533     -1.620870
  H       0.175197     -1.130191      0.666872
  H       0.247710      0.641464      0.753956
  H      -2.240703     -1.024954      0.283588
  H      -2.197546      0.591547      0.459569
  H       2.220487     -0.253627     -0.033987
  O      -4.422223      0.193512     -0.447820
  C      -3.417506     -0.027927     -1.116642
  O      -3.226738     -0.178871     -2.315396
14
Coordinates from ORCA-job forwardopt E -399.106955480341
  O       1.492682     -0.226488     -0.661244
  N      -2.149855     -0.152460     -0.235098
  C      -0.846357     -0.119772     -0.933536
  C       0.276340     -0.215609      0.077885
  H      -0.791418      0.809977     -1.490848
  H      -0.818940     -0.957670     -1.622286
  H       0.175264     -1.130808      0.665945
  H       0.247578      0.640799      0.754488
  H      -2.240244     -1.026450      0.282405
  H      -2.197785      0.589927      0.460341
  H       2.220442     -0.253136     -0.033342
  O      -4.421071      0.200884     -0.448332
  C      -3.417836     -0.028186     -1.116642
  O      -3.228194     -0.186218     -2.314651
14
Coordinates from ORCA-job forwardopt E -399.106955915614
  O       1.492958     -0.225278     -0.661077
  N      -2.149907     -0.153836     -0.235093
  C      -0.846372     -0.118839     -0.933532
  C       0.276480     -0.215780      0.077761
  H      -0.792281      0.812255     -1.488719
  H      -0.818208     -0.955192     -1.624091
  H       0.175603     -1.131775      0.664636
  H       0.247203      0.639787      0.755417
  H      -2.239824     -1.029169      0.280233
  H      -2.198205      0.586942      0.461993
  H       2.220429     -0.251732     -0.032822
  O      -4.419049      0.212993     -0.449475
  C      -3.418041     -0.028141     -1.116699
  O      -3.230182     -0.197445     -2.313446
14
Coordinates from ORCA-job forwardopt E -399.106963174838
  O       1.493449     -0.220331     -0.660817
  N      -2.150181     -0.158416     -0.234857
  C      -0.846530     -0.115717     -0.933167
  C       0.276765     -0.216496      0.077524
  H      -0.795228      0.819650     -1.481550
  H      -0.816097     -0.946941     -1.629696
  H       0.177022     -1.135637      0.659707
  H       0.245729      0.635635      0.759431
  H      -2.238504     -1.038379      0.272903
  H      -2.199893      0.576818      0.467833
  H       2.220421     -0.246319     -0.031939
  O      -4.411254      0.255036     -0.454780
  C      -3.418119     -0.027827     -1.116938
  O      -3.236975     -0.236288     -2.308569
14
Coordinates from ORCA-job forwardopt E -399.106970237864
  O       1.493614     -0.215196     -0.660819
  N      -2.150513     -0.161976     -0.234462
  C      -0.846773     -0.113040     -0.932604
  C       0.276903     -0.217447      0.077399
  H      -0.797585      0.825855     -1.475265
  H      -0.814686     -0.939891     -1.634173
  H       0.178655     -1.139867      0.654666
  H       0.244293      0.630979      0.763830
  H      -2.237452     -1.045520      0.267377
  H      -2.201597      0.569003      0.472422
  H       2.220450     -0.241277     -0.031778
  O      -4.403801      0.290870     -0.460836
  C      -3.417845     -0.027767     -1.117202
  O      -3.243057     -0.269937     -2.303468
14
Coordinates from ORCA-job forwardopt E -399.106985381162
  O       1.493680     -0.208732     -0.660921
  N      -2.150947     -0.165996     -0.233865
  C      -0.847134     -0.109833     -0.931808
  C       0.277028     -0.218739      0.077256
  H      -0.800326      0.833192     -1.467650
  H      -0.813255     -0.931466     -1.639315
  H       0.180783     -1.145292      0.648247
  H       0.242533      0.624924      0.769426
  H      -2.236151     -1.053493      0.261357
  H      -2.203689      0.560293      0.477569
  H       2.220459     -0.235270     -0.031823
  O      -4.394176      0.332738     -0.469491
  C      -3.417395     -0.027931     -1.117545
  O      -3.250805     -0.309607     -2.296351
14
Coordinates from ORCA-job forwardopt E -399.106999144731
  O       1.493511     -0.202309     -0.661246
  N      -2.151442     -0.169642     -0.233029
  C      -0.847603     -0.106079     -0.930764
  C       0.277095     -0.220089      0.077146
  H      -0.803039      0.841143     -1.459524
  H      -0.812136     -0.922264     -1.644389
  H       0.182786     -1.150983      0.641394
  H       0.241158      0.618440      0.775427
  H      -2.234485     -1.060858      0.255919
  H      -2.206123      0.552318      0.482514
  H       2.220433     -0.230073     -0.032361
  O      -4.383888      0.373589     -0.480062
  C      -3.416779     -0.028678     -1.117954
  O      -3.258882     -0.349729     -2.287985
14
Coordinates from ORCA-job forwardopt E -399.107001442645
  O       1.489503     -0.190222     -0.665620
  N      -2.153234     -0.168205     -0.228160
  C      -0.849698     -0.099132     -0.926091
  C       0.276034     -0.224400      0.077775
  H      -0.804589      0.852078     -1.447884
  H      -0.816721     -0.909321     -1.646705
  H       0.186883     -1.165156      0.626211
  H       0.241111      0.601600      0.790643
  H      -2.231488     -1.059598      0.261186
  H      -2.212664      0.555910      0.484679
  H       2.220584     -0.226853     -0.042136
  O      -4.376216      0.409177     -0.502212
  C      -3.412145     -0.034351     -1.118892
  O      -3.256756     -0.396740     -2.277710
14
Coordinates from ORCA-job forwardopt E -399.107002860430
  O       1.491713     -0.191049     -0.662773
  N      -2.152491     -0.173414     -0.230508
  C      -0.848877     -0.096862     -0.928050
  C       0.276404     -0.222666      0.077206
  H      -0.807054      0.857438     -1.444413
  H      -0.812479     -0.903272     -1.652554
  H       0.184983     -1.162373      0.627162
  H       0.240133      0.604884      0.788322
  H      -2.229380     -1.069828      0.249903
  H      -2.211799      0.543175      0.489768
  H       2.220178     -0.225388     -0.036031
  O      -4.365798      0.437371     -0.503783
  C      -3.413885     -0.032539     -1.118633
  O      -3.271044     -0.420689     -2.270532
14
Coordinates from ORCA-job forwardopt E -399.107009416386
  O       1.491408     -0.194274     -0.662955
  N      -2.152369     -0.170791     -0.230632
  C      -0.848756     -0.099000     -0.928457
  C       0.276155     -0.222046      0.077359
  H      -0.805317      0.852603     -1.449540
  H      -0.813869     -0.909049     -1.649102
  H       0.183909     -1.159666      0.630688
  H       0.240832      0.608041      0.785549
  H      -2.230256     -1.064779      0.254055
  H      -2.210685      0.548965      0.486650
  H       2.220195     -0.228624     -0.036604
  O      -4.373326      0.412569     -0.496685
  C      -3.413575     -0.032346     -1.118271
  O      -3.263743     -0.396814     -2.276970
14
Coordinates from ORCA-job forwardopt E -399.107003309590
  O       1.491212     -0.193659     -0.663185
  N      -2.152529     -0.170790     -0.230403
  C      -0.848832     -0.098164     -0.928150
  C       0.276127     -0.222229      0.077411
  H      -0.805494      0.853929     -1.448370
  H      -0.814007     -0.907511     -1.649582
  H       0.183993     -1.160464      0.629707
  H       0.241003      0.607050      0.786538
  H      -2.229811     -1.065028      0.253944
  H      -2.211344      0.548831      0.486974
  H       2.220231     -0.228846     -0.037157
  O      -4.372424      0.415990     -0.498444
  C      -3.413301     -0.032861     -1.118333
  O      -3.264220     -0.401461     -2.275865
14
Coordinates from ORCA-job forwardopt E -399.107003195099
  O       1.491234     -0.193902     -0.663135
  N      -2.152540     -0.170803     -0.230474
  C      -0.848788     -0.097910     -0.928189
  C       0.276121     -0.222108      0.077415
  H      -0.805540      0.854288     -1.448222
  H      -0.813940     -0.907132     -1.649762
  H       0.183757     -1.160245      0.629837
  H       0.241128      0.607274      0.786428
  H      -2.229582     -1.065161      0.253695
  H      -2.211456      0.548682      0.487030
  H       2.220222     -0.229343     -0.037084
  O      -4.372315      0.416128     -0.498430
  C      -3.413264     -0.032985     -1.118292
  O      -3.264432     -0.401996     -2.275731
14
Coordinates from ORCA-job forwardopt E -399.107004733240
  O       1.491260     -0.194129     -0.663102
  N      -2.152542     -0.170814     -0.230526
  C      -0.848755     -0.097749     -0.928226
  C       0.276125     -0.222008      0.077409
  H      -0.805592      0.854532     -1.448114
  H      -0.813877     -0.906885     -1.649896
  H       0.183579     -1.160033      0.629991
  H       0.241230      0.607494      0.786289
  H      -2.229435     -1.065229      0.253559
  H      -2.211519      0.548608      0.487034
  H       2.220212     -0.229764     -0.037019
  O      -4.372295      0.416034     -0.498363
  C      -3.413251     -0.033088     -1.118261
  O      -3.264535     -0.402181     -2.275690
14
Coordinates from ORCA-job forwardopt E -399.107006224302
  O       1.491268     -0.194215     -0.663103
  N      -2.152539     -0.170787     -0.230536
  C      -0.848748     -0.097774     -0.928239
  C       0.276132     -0.221983      0.077407
  H      -0.805588      0.854488     -1.448160
  H      -0.813872     -0.906945     -1.649868
  H       0.183552     -1.159945      0.630089
  H       0.241256      0.607590      0.786207
  H      -2.229448     -1.065163      0.253618
  H      -2.211501      0.548685      0.486977
  H       2.220212     -0.229885     -0.037013
  O      -4.372417      0.415619     -0.498240
  C      -3.413260     -0.033100     -1.118254
  O      -3.264443     -0.401796     -2.275798
