14
Coordinates from ORCA-job ./irc_IRC_F E -399.106551033350
  O           1.48656480540832     -0.23962103245891     -0.68453249694450
  N          -2.16429625798700     -0.10587248128668     -0.23377128439530
  C          -0.84439467863249     -0.09569338742501     -0.90464177039940
  C           0.29128006061430     -0.23203520940685      0.09326044176036
  H          -0.75805918533432      0.83909619863227     -1.44940761208976
  H          -0.82482220185086     -0.92491868199122     -1.60372025970373
  H           0.19965049605212     -1.16205167504957      0.65904032234358
  H           0.30100667116189      0.60492805141344      0.79406189574996
  H          -2.25829887904521     -0.94153891115330      0.34181834262934
  H          -2.24473193955369      0.68344076754645      0.40449470939779
  H           2.23618990523114     -0.29924423264888     -0.08512052738241
  O          -4.45793432363533      0.05898944890226     -0.47107197067711
  C          -3.43651214679608     -0.06688717269520     -1.13848811600684
  O          -3.22503764111936     -0.17380393785990     -2.33683608768288
