18
Coordinates from ORCA-job ./orca E -1967.169378570177
  C      -2.781600      1.622250      1.415630
  C      -1.618540      2.388350      1.293080
  C      -0.565840      2.241090      2.211060
  C      -0.700740      1.305210      3.258090
  C      -1.866820      0.541780      3.376250
  C      -2.905890      0.699930      2.456650
  H      -3.586780      1.743900      0.702600
  H      -3.806810      0.107370      2.550290
  H      -1.539150      3.098870      0.479430
  H       0.085210      1.155620      3.985720
  H      -1.964310     -0.174370      4.182090
  C       0.666250      3.095850      2.021630
  N       1.695080      2.846550      3.026190
  H       1.356820      3.192240      3.953900
  H       2.537750      3.408140      2.768610
  H       0.379300      4.170820      2.046800
  H       0.972118      2.969356      0.955485
  Cu      3.283918      1.514932      3.211224
18
Coordinates from ORCA-job ./orca E -1967.176761129655
  C      -2.775072      1.615069      1.420073
  C      -1.624162      2.386958      1.298778
  C      -0.573775      2.252033      2.210837
  C      -0.696970      1.322863      3.247032
  C      -1.850252      0.548874      3.368266
  C      -2.890738      0.693077      2.456872
  H      -3.580252      1.730829      0.705915
  H      -3.785247      0.090864      2.552336
  H      -1.547144      3.099466      0.485643
  H       0.097205      1.185345      3.967920
  H      -1.934812     -0.167691      4.175267
  C       0.652641      3.116405      2.024483
  N       1.696777      2.872381      3.019335
  H       1.383377      3.208151      3.923047
  H       2.534363      3.401650      2.778379
  H       0.362644      4.175311      2.047623
  H       1.008869      2.965344      1.001891
  Cu      3.162512      1.430961      3.211032
18
Coordinates from ORCA-job ./orca E -1967.182585269688
  C      -2.763312      1.603090      1.423958
  C      -1.628622      2.387675      1.303721
  C      -0.577590      2.267870      2.209721
  C      -0.684691      1.344084      3.236762
  C      -1.822988      0.554006      3.362424
  C      -2.866057      0.679313      2.458495
  H      -3.569204      1.710001      0.708790
  H      -3.751355      0.063908      2.556327
  H      -1.556440      3.104261      0.492616
  H       0.119443      1.225615      3.950540
  H      -1.890462     -0.162161      4.171895
  C       0.638212      3.146659      2.021907
  N       1.702954      2.909448      3.005802
  H       1.413123      3.235739      3.909251
  H       2.550007      3.398460      2.781537
  H       0.341181      4.192747      2.052348
  H       1.060955      2.967692      1.043726
  Cu      2.924811      1.299480      3.204909
18
Coordinates from ORCA-job ./orca E -1967.186438679992
  C      -2.750701      1.593971      1.426566
  C      -1.624968      2.387487      1.306500
  C      -0.569739      2.273149      2.208435
  C      -0.669794      1.351177      3.234765
  C      -1.800893      0.550942      3.361612
  C      -2.845073      0.666178      2.459862
  H      -3.557720      1.697089      0.711916
  H      -3.725204      0.043724      2.558349
  H      -1.556015      3.109044      0.499245
  H       0.136552      1.247721      3.948616
  H      -1.859550     -0.163551      4.173490
  C       0.633193      3.167589      2.016406
  N       1.717559      2.941569      2.992159
  H       1.444103      3.258821      3.907160
  H       2.576846      3.412268      2.772523
  H       0.323302      4.207279      2.061202
  H       1.099507      2.978383      1.059590
  Cu      2.668559      1.205050      3.196333
18
Coordinates from ORCA-job ./orca E -1967.189334537867
  C      -2.726640      1.572548      1.412589
  C      -1.605442      2.375880      1.301843
  C      -0.557981      2.274159      2.219247
  C      -0.673079      1.365381      3.261963
  C      -1.802592      0.558516      3.379674
  C      -2.830859      0.654183      2.456103
  H      -3.522588      1.661493      0.683850
  H      -3.708687      0.027761      2.547378
  H      -1.527178      3.090140      0.489479
  H       0.111533      1.289887      4.004217
  H      -1.872847     -0.140123      4.204190
  C       0.630031      3.186444      2.028016
  N       1.745370      2.946366      2.975299
  H       1.501135      3.214570      3.922481
  H       2.591464      3.450971      2.747633
  H       0.304757      4.221701      2.119371
  H       1.091307      3.031101      1.055895
  Cu      2.492263      1.146911      3.085501
18
Coordinates from ORCA-job ./orca E -1967.190995456646
  C      -2.705787      1.554210      1.397133
  C      -1.583747      2.361855      1.291621
  C      -0.551587      2.280569      2.232786
  C      -0.684163      1.386502      3.293107
  C      -1.811349      0.572195      3.399403
  C      -2.822647      0.649975      2.452947
  H      -3.490122      1.627127      0.654403
  H      -3.698108      0.019229      2.535975
  H      -1.494999      3.062332      0.469178
  H       0.077590      1.329771      4.061436
  H      -1.894412     -0.114332      4.232485
  C       0.629415      3.199748      2.046089
  N       1.762750      2.928044      2.965897
  H       1.546613      3.153124      3.936697
  H       2.580801      3.480314      2.722282
  H       0.301699      4.234289      2.180839
  H       1.045783      3.090645      1.043273
  Cu      2.432234      1.112292      2.979178
18
Coordinates from ORCA-job ./orca E -1967.191839703084
  C      -2.683739      1.533916      1.382969
  C      -1.566025      2.350707      1.280133
  C      -0.551481      2.299086      2.243404
  C      -0.689919      1.417745      3.315720
  C      -1.810312      0.592723      3.416585
  C      -2.807715      0.647217      2.452364
  H      -3.457331      1.584430      0.627364
  H      -3.677072      0.007301      2.530344
  H      -1.470542      3.033773      0.444290
  H       0.059351      1.373834      4.097031
  H      -1.898441     -0.085174      4.255930
  C       0.626575      3.221307      2.067810
  N       1.769421      2.900662      2.955950
  H       1.573698      3.098587      3.937193
  H       2.569725      3.477520      2.703979
  H       0.309488      4.254882      2.245698
  H       0.992346      3.160000      1.041444
  Cu      2.351937      1.059373      2.896522
18
Coordinates from ORCA-job ./orca E -1967.192389770045
  C      -2.656168      1.503292      1.363352
  C      -1.545813      2.331831      1.269929
  C      -0.556614      2.315563      2.258832
  C      -0.711800      1.457468      3.347856
  C      -1.823470      0.620050      3.439120
  C      -2.796176      0.640282      2.448770
  H      -3.410497      1.524575      0.587212
  H      -3.659283     -0.009055      2.519302
  H      -1.437258      2.992967      0.418224
  H       0.014341      1.438989      4.151441
  H      -1.925522     -0.040271      4.290760
  C       0.619038      3.246719      2.102899
  N       1.787475      2.870494      2.930444
  H       1.617727      3.029289      3.922079
  H       2.569383      3.471669      2.680117
  H       0.314934      4.271510      2.344062
  H       0.931958      3.251777      1.058643
  Cu      2.307709      1.010739      2.761687
18
Coordinates from ORCA-job ./orca E -1967.192829604137
  C      -2.624273      1.468530      1.343636
  C      -1.522229      2.308670      1.257244
  C      -0.563724      2.335247      2.272771
  C      -0.734017      1.501983      3.377812
  C      -1.835184      0.651436      3.462013
  C      -2.781942      0.632935      2.446847
  H      -3.357258      1.457755      0.547079
  H      -3.637755     -0.026670      2.511805
  H      -1.399437      2.946295      0.389529
  H      -0.028708      1.512213      4.199478
  H      -1.950762      0.010666      4.326821
  C       0.606132      3.278287      2.141851
  N       1.800834      2.839111      2.897967
  H       1.656072      2.960768      3.897309
  H       2.577149      3.449085      2.656769
  H       0.317537      4.285891      2.459813
  H       0.875970      3.355032      1.089668
  Cu      2.241560      0.960653      2.616316
18
Coordinates from ORCA-job ./orca E -1967.193251342647
  C      -2.577740      1.423454      1.320308
  C      -1.491227      2.284909      1.247808
  C      -0.574030      2.364690      2.295144
  C      -0.764982      1.559881      3.418182
  C      -1.848395      0.687406      3.488595
  C      -2.757644      0.617790      2.441264
  H      -3.279588      1.371457      0.497704
  H      -3.600532     -0.059190      2.495441
  H      -1.348932      2.896352      0.364319
  H      -0.087202      1.608711      4.261471
  H      -1.980823      0.068044      4.366565
  C       0.587292      3.321323      2.191738
  N       1.814336      2.803744      2.845925
  H       1.715004      2.892352      3.853189
  H       2.597526      3.402428      2.601263
  H       0.325331      4.296628      2.612813
  H       0.811532      3.485307      1.139933
  Cu      2.100038      0.902603      2.453065
18
Coordinates from ORCA-job ./orca E -1967.193503722977
  C      -2.541725      1.390412      1.303491
  C      -1.469235      2.271185      1.244765
  C      -0.583884      2.387563      2.314835
  C      -0.793125      1.601335      3.449520
  C      -1.860916      0.710201      3.505936
  C      -2.738611      0.603067      2.433981
  H      -3.218685      1.310343      0.462461
  H      -3.570201     -0.088404      2.477758
  H      -1.312726      2.868793      0.354377
  H      -0.137998      1.681528      4.308631
  H      -2.007669      0.105262      4.391685
  C       0.572144      3.352096      2.229159
  N       1.821443      2.779728      2.802478
  H       1.773253      2.855755      3.814862
  H       2.611666      3.357500      2.532838
  H       0.335302      4.295233      2.728796
  H       0.766884      3.579124      1.183323
  Cu      1.994048      0.867166      2.355831
18
Coordinates from ORCA-job ./orca E -1967.193829543025
  C      -2.489393      1.345788      1.281782
  C      -1.433651      2.249529      1.242164
  C      -0.594640      2.412411      2.343124
  C      -0.833971      1.650549      3.491345
  C      -1.884224      0.739718      3.528896
  C      -2.715525      0.585270      2.424326
  H      -3.130653      1.230908      0.417154
  H      -3.534376     -0.121876      2.454198
  H      -1.254783      2.830570      0.345327
  H      -0.212556      1.773710      4.370458
  H      -2.056816      0.157080      4.424866
  C       0.551674      3.388828      2.283144
  N       1.828272      2.753246      2.738842
  H       1.866626      2.806442      3.754056
  H       2.618887      3.305682      2.418277
  H       0.350788      4.275709      2.888384
  H       0.705367      3.705339      1.253933
  Cu      1.858941      0.838986      2.234452
18
Coordinates from ORCA-job ./orca E -1967.194099609025
  C      -2.429929      1.300644      1.262712
  C      -1.391269      2.226501      1.242253
  C      -0.604684      2.436900      2.374121
  C      -0.878256      1.701038      3.533934
  C      -1.910716      0.771241      3.552282
  C      -2.690254      0.569402      2.416254
  H      -3.031707      1.149889      0.375554
  H      -3.496857     -0.152100      2.432324
  H      -1.185866      2.789382      0.339742
  H      -0.293036      1.867409      4.431146
  H      -2.113358      0.212009      4.456793
  C       0.533937      3.420489      2.340537
  N       1.827350      2.729324      2.670019
  H       1.958071      2.743468      3.679473
  H       2.608903      3.262177      2.294622
  H       0.376122      4.239200      3.045065
  H       0.642565      3.830855      1.339091
  Cu      1.718950      0.830061      2.108806
18
Coordinates from ORCA-job ./orca E -1967.194367260163
  C      -2.355779      1.248223      1.246569
  C      -1.337466      2.198348      1.248665
  C      -0.617604      2.463546      2.414221
  C      -0.940019      1.762876      3.585058
  C      -1.951525      0.811694      3.580645
  C      -2.662130      0.552742      2.410078
  H      -2.906941      1.054831      0.335199
  H      -3.453661     -0.185488      2.409220
  H      -1.096682      2.738138      0.340884
  H      -0.399692      1.975813      4.500597
  H      -2.193157      0.279336      4.491726
  C       0.520800      3.446370      2.409953
  N       1.822500      2.706789      2.585259
  H       2.056682      2.655439      3.574924
  H       2.581096      3.230977      2.153378
  H       0.419315      4.179386      3.211750
  H       0.574823      3.963505      1.454590
  Cu      1.579406      0.845362      1.942014
18
Coordinates from ORCA-job ./orca E -1967.194699458957
  C      -2.281147      1.195393      1.239728
  C      -1.277684      2.161846      1.261759
  C      -0.626582      2.478770      2.456349
  C      -1.008304      1.821866      3.634480
  C      -2.005386      0.856572      3.610287
  C      -2.642656      0.541318      2.410987
  H      -2.781076      0.961879      0.308493
  H      -3.423346     -0.208310      2.395019
  H      -0.998482      2.677239      0.350625
  H      -0.514302      2.077279      4.564965
  H      -2.292578      0.354897      4.525507
  C       0.516079      3.455873      2.476822
  N       1.816263      2.694489      2.502752
  H       2.134979      2.553221      3.459148
  H       2.545041      3.231983      2.037721
  H       0.467437      4.103406      3.353167
  H       0.517345      4.070987      1.579374
  Cu      1.494365      0.899180      1.727546
18
Coordinates from ORCA-job ./orca E -1967.195369351010
  C      -2.155699      1.107629      1.244832
  C      -1.163416      2.085184      1.296055
  C      -0.627775      2.483147      2.526032
  C      -1.115203      1.903686      3.703102
  C      -2.103587      0.930750      3.650049
  C      -2.621767      0.530122      2.419203
  H      -2.572033      0.813230      0.290076
  H      -3.395512     -0.226004      2.380987
  H      -0.814200      2.555277      0.384031
  H      -0.701038      2.222397      4.652203
  H      -2.475202      0.486001      4.564230
  C       0.522211      3.450253      2.585800
  N       1.801676      2.695682      2.362812
  H       2.233570      2.401549      3.234761
  H       2.477590      3.280324      1.876734
  H       0.562980      3.953638      3.552241
  H       0.444910      4.203901      1.804383
  Cu      1.342462      1.051123      1.367198
18
Coordinates from ORCA-job ./orca E -1967.193260849745
  C      -2.022661      1.004676      1.277179
  C      -1.032639      1.982325      1.354854
  C      -0.619146      2.468993      2.605396
  C      -1.220866      1.982452      3.761191
  C      -2.217188      1.015095      3.681119
  C      -2.610372      0.521282      2.440982
  H      -2.353560      0.645708      0.311218
  H      -3.384166     -0.233540      2.382706
  H      -0.616049      2.405590      0.445585
  H      -0.892604      2.358185      4.721292
  H      -2.681704      0.637255      4.582720
  C       0.551043      3.415647      2.681202
  N       1.777098      2.711004      2.231832
  H       2.259245      2.212092      2.970796
  H       2.432429      3.357055      1.805160
  H       0.675973      3.799170      3.694626
  H       0.407063      4.272986      2.024538
  Cu      1.188068      1.371914      0.922332
18
Coordinates from ORCA-job ./orca E -1967.195657471573
  C      -2.118008      1.062316      1.264068
  C      -1.116875      2.028774      1.324298
  C      -0.621278      2.458753      2.564286
  C      -1.158298      1.927260      3.731808
  C      -2.163440      0.966253      3.670952
  C      -2.636074      0.527471      2.438757
  H      -2.509411      0.748602      0.304938
  H      -3.416737     -0.221043      2.394817
  H      -0.765933      2.499086      0.408142
  H      -0.779357      2.259126      4.689799
  H      -2.573782      0.552850      4.583240
  C       0.540497      3.420995      2.610988
  N       1.813047      2.710786      2.318169
  H       2.234994      2.316258      3.151752
  H       2.487208      3.339731      1.897687
  H       0.598346      3.911788      3.583725
  H       0.421271      4.201969      1.861044
  Cu      1.403794      1.216912      1.096259
18
Coordinates from ORCA-job ./orca E -1967.195654021352
  C      -2.124313      1.083121      1.249987
  C      -1.131229      2.058198      1.309050
  C      -0.623315      2.477457      2.542488
  C      -1.144990      1.925466      3.717793
  C      -2.133671      0.952828      3.658146
  C      -2.620536      0.527452      2.422786
  H      -2.515745      0.770621      0.290398
  H      -3.393881     -0.228784      2.379032
  H      -0.768100      2.517565      0.396194
  H      -0.756099      2.260339      4.672940
  H      -2.530847      0.528659      4.571438
  C       0.528886      3.439476      2.619045
  N       1.804987      2.703258      2.308776
  H       2.258839      2.383804      3.161164
  H       2.461572      3.317483      1.832666
  H       0.603218      3.889800      3.609395
  H       0.415302      4.234544      1.884996
  Cu      1.309890      1.086603      1.268432
18
Coordinates from ORCA-job ./orca E -1967.196041504942
  C      -2.128612      1.089061      1.257514
  C      -1.134483      2.060602      1.317244
  C      -0.620781      2.474717      2.550908
  C      -1.129823      1.914746      3.722047
  C      -2.128271      0.948474      3.663206
  C      -2.623470      0.530161      2.431444
  H      -2.522205      0.777747      0.298399
  H      -3.398099     -0.224735      2.387644
  H      -0.772447      2.518155      0.403548
  H      -0.741071      2.236008      4.681278
  H      -2.520338      0.520996      4.577197
  C       0.531150      3.439129      2.596020
  N       1.801352      2.699646      2.326723
  H       2.195272      2.335823      3.189687
  H       2.498808      3.315977      1.918315
  H       0.583744      3.949894      3.558421
  H       0.420191      4.192709      1.818244
  Cu      1.329047      1.148778      1.196890
18
Coordinates from ORCA-job ./orca E -1967.196134633066
  C      -2.115709      1.072794      1.261364
  C      -1.123598      2.048140      1.323208
  C      -0.623753      2.474968      2.561972
  C      -1.145293      1.925593      3.729683
  C      -2.142877      0.957133      3.667529
  C      -2.622996      0.524944      2.435376
  H      -2.506566      0.760095      0.301681
  H      -3.398676     -0.228547      2.390503
  H      -0.771185      2.517632      0.408477
  H      -0.764549      2.251555      4.689427
  H      -2.542968      0.535532      4.580685
  C       0.535998      3.436040      2.602816
  N       1.801304      2.698597      2.318235
  H       2.196939      2.315511      3.171635
  H       2.498103      3.318505      1.919827
  H       0.595793      3.938485      3.568469
  H       0.424479      4.198859      1.832969
  Cu      1.345519      1.182052      1.130875
18
Coordinates from ORCA-job ./orca E -1967.196246269384
  C      -2.120509      1.078125      1.261501
  C      -1.132137      2.057259      1.320876
  C      -0.625651      2.482191      2.558054
  C      -1.136788      1.925681      3.726900
  C      -2.130006      0.952270      3.667071
  C      -2.617146      0.522585      2.436875
  H      -2.515007      0.766433      0.302963
  H      -3.389593     -0.234284      2.394034
  H      -0.785503      2.529801      0.405896
  H      -0.752706      2.248350      4.686848
  H      -2.521045      0.525744      4.581891
  C       0.534423      3.442364      2.591073
  N       1.797761      2.690084      2.327423
  H       2.160163      2.298076      3.192527
  H       2.516040      3.308702      1.964640
  H       0.589684      3.962674      3.547683
  H       0.430631      4.187663      1.803505
  Cu      1.337354      1.184169      1.124970
18
Coordinates from ORCA-job ./orca E -1967.196315069937
  C      -2.118241      1.078717      1.260819
  C      -1.136285      2.064838      1.318760
  C      -0.628788      2.492299      2.555285
  C      -1.134742      1.931621      3.724936
  C      -2.121514      0.951527      3.665984
  C      -2.607415      0.517765      2.436742
  H      -2.511599      0.764964      0.302512
  H      -3.373055     -0.245982      2.394935
  H      -0.797718      2.544217      0.404188
  H      -0.750626      2.257118      4.684195
  H      -2.506566      0.521751      4.581881
  C       0.533107      3.449883      2.586420
  N       1.792867      2.680972      2.328183
  H       2.134067      2.284796      3.200853
  H       2.525776      3.297723      1.989066
  H       0.593882      3.968861      3.543191
  H       0.438270      4.190555      1.793659
  Cu      1.308546      1.176261      1.123120
18
Coordinates from ORCA-job ./orca E -1967.196327745977
  C      -2.113771      1.076677      1.260676
  C      -1.133514      2.064610      1.319580
  C      -0.629206      2.494113      2.557075
  C      -1.137572      1.934673      3.726031
  C      -2.123112      0.953132      3.665910
  C      -2.604790      0.516433      2.436216
  H      -2.504090      0.761211      0.301694
  H      -3.368427     -0.249267      2.393640
  H      -0.796227      2.546052      0.405440
  H      -0.755613      2.262550      4.685304
  H      -2.509973      0.524145      4.581416
  C       0.533442      3.450688      2.589101
  N       1.791602      2.680284      2.323940
  H       2.135692      2.283383      3.195163
  H       2.523466      3.296921      1.982564
  H       0.598757      3.963518      3.548848
  H       0.438851      4.195427      1.800199
  Cu      1.294451      1.173337      1.121931
18
Coordinates from ORCA-job ./orca E -1967.196335766540
  C      -2.108217      1.074638      1.260509
  C      -1.129322      2.063916      1.321104
  C      -0.629128      2.495298      2.560233
  C      -1.140751      1.937266      3.727908
  C      -2.125762      0.954791      3.665831
  C      -2.602464      0.515476      2.435435
  H      -2.494782      0.757550      0.300537
  H      -3.364526     -0.251704      2.391537
  H      -0.792290      2.546800      0.407539
  H      -0.761446      2.266941      4.687572
  H      -2.515636      0.526886      4.580554
  C       0.534170      3.450944      2.592628
  N       1.790575      2.680766      2.318910
  H       2.140460      2.283203      3.187399
  H       2.519520      3.297388      1.971879
  H       0.603865      3.958287      3.555006
  H       0.438179      4.200063      1.808046
  Cu      1.277519      1.169379      1.122102
18
Coordinates from ORCA-job ./orca E -1967.196344675847
  C      -2.105890      1.074133      1.260315
  C      -1.127106      2.063450      1.321978
  C      -0.628537      2.495077      2.562123
  C      -1.141801      1.937527      3.728972
  C      -2.127148      0.955145      3.665656
  C      -2.601968      0.515405      2.434870
  H      -2.491025      0.756855      0.299831
  H      -3.363985     -0.251768      2.390140
  H      -0.789611      2.546538      0.408722
  H      -0.763727      2.267194      4.689118
  H      -2.518679      0.527676      4.579869
  C       0.534809      3.450724      2.594233
  N       1.790815      2.682019      2.317138
  H       2.144934      2.284652      3.183889
  H       2.517435      3.298655      1.965456
  H       0.605268      3.957267      3.557025
  H       0.436936      4.201149      1.811087
  Cu      1.269244      1.166191      1.124308
18
Coordinates from ORCA-job ./orca E -1967.196347615226
  C      -2.105926      1.074712      1.259989
  C      -1.126600      2.063441      1.322115
  C      -0.627751      2.494323      2.562670
  C      -1.141165      1.936327      3.729150
  C      -2.127124      0.954511      3.665284
  C      -2.602393      0.515761      2.434373
  H      -2.491440      0.758230      0.299396
  H      -3.365155     -0.250644      2.389269
  H      -0.788697      2.546374      0.408988
  H      -0.763211      2.264882      4.689737
  H      -2.518882      0.526830      4.579298
  C       0.535286      3.450568      2.594327
  N       1.791766      2.683525      2.318068
  H       2.148571      2.287139      3.184091
  H       2.517077      3.299704      1.962668
  H       0.603934      3.959265      3.556164
  H       0.435902      4.200029      1.810388
  Cu      1.265777      1.162911      1.128755
18
Coordinates from ORCA-job ./orca E -1967.196348061201
  C      -2.107157      1.075496      1.259745
  C      -1.127551      2.063995      1.321616
  C      -0.627519      2.494168      2.561890
  C      -1.139999      1.935383      3.728564
  C      -2.125994      0.953740      3.664968
  C      -2.602650      0.515918      2.434178
  H      -2.493790      0.759717      0.299373
  H      -3.365804     -0.250105      2.389250
  H      -0.789917      2.547025      0.408452
  H      -0.761452      2.263063      4.689228
  H      -2.516768      0.525491      4.579141
  C       0.535352      3.450807      2.593461
  N       1.792259      2.683927      2.320157
  H       2.148838      2.288211      3.186573
  H       2.518116      3.299230      1.964060
  H       0.601949      3.961702      3.554286
  H       0.436187      4.198606      1.807897
  Cu      1.265865      1.161515      1.131888
18
Coordinates from ORCA-job ./orca E -1967.196347656117
  C      -2.108088      1.075880      1.259658
  C      -1.128471      2.064464      1.321127
  C      -0.627593      2.494371      2.561034
  C      -1.139209      1.935081      3.727998
  C      -2.125005      0.953355      3.664839
  C      -2.602609      0.515868      2.434206
  H      -2.495490      0.760346      0.299520
  H      -3.365754     -0.250178      2.389573
  H      -0.791357      2.547761      0.407892
  H      -0.760165      2.262442      4.688575
  H      -2.514874      0.524740      4.579230
  C       0.535293      3.451105      2.592692
  N       1.792313      2.683731      2.321767
  H       2.147634      2.287911      3.188666
  H       2.519202      3.298340      1.966478
  H       0.600658      3.963200      3.552963
  H       0.436946      4.197783      1.805965
  Cu      1.266532      1.161688      1.132545
18
Coordinates from ORCA-job ./orca E -1967.196342789814
  C      -2.108340      1.075935      1.259628
  C      -1.128869      2.064733      1.320866
  C      -0.627717      2.494639      2.560586
  C      -1.138930      1.935176      3.727714
  C      -2.124501      0.953269      3.664800
  C      -2.602374      0.515738      2.434238
  H      -2.495985      0.760378      0.299594
  H      -3.365338     -0.250496      2.389769
  H      -0.792162      2.548290      0.407605
  H      -0.759684      2.262575      4.688195
  H      -2.513968      0.524524      4.579305
  C       0.535250      3.451303      2.592383
  N       1.792192      2.683454      2.322451
  H       2.146676      2.287350      3.189563
  H       2.519690      3.297689      1.967762
  H       0.600248      3.963661      3.552536
  H       0.437547      4.197630      1.805252
  Cu      1.266230      1.162040      1.132480
18
Coordinates from ORCA-job ./orca E -1967.196375068914
  C      -2.108324      1.075827      1.259645
  C      -1.128926      2.064741      1.320783
  C      -0.627777      2.494725      2.560448
  C      -1.138921      1.935309      3.727646
  C      -2.124427      0.953338      3.664832
  C      -2.602268      0.515666      2.434289
  H      -2.495959      0.760168      0.299640
  H      -3.365136     -0.250672      2.389896
  H      -0.792396      2.548407      0.407502
  H      -0.759632      2.262840      4.688060
  H      -2.513864      0.524638      4.579371
  C       0.535246      3.451325      2.592358
  N       1.792145      2.683313      2.322621
  H       2.146296      2.286940      3.189736
  H       2.519778      3.297512      1.968205
  H       0.600218      3.963592      3.552564
  H       0.437832      4.197697      1.805236
  Cu      1.266081      1.162523      1.131896
