18
Coordinates from ORCA-job ./orca E -1967.196375068914
  C          -2.10832438200880      1.07582712361366      1.25964517425699
  C          -1.12892606859328      2.06474070318387      1.32078286848681
  C          -0.62777672974041      2.49472456617796      2.56044834703661
  C          -1.13892092056081      1.93530851139226      3.72764554706230
  C          -2.12442692941352      0.95333819080508      3.66483152932237
  C          -2.60226791294172      0.51566599393471      2.43428879618208
  H          -2.49595927457174      0.76016831073705      0.29964019328903
  H          -3.36513583509921     -0.25067157413873      2.38989625245289
  H          -0.79239565156664      2.54840691897842      0.40750154032466
  H          -0.75963227725641      2.26283956280256      4.68806044134837
  H          -2.51386368761035      0.52463823154995      4.57937092375459
  C           0.53524555267347      3.45132454878277      2.59235816796426
  N           1.79214479814387      2.68331316143757      2.32262091951433
  H           2.14629606432548      2.28693980340285      3.18973622847913
  H           2.51977754153125      3.29751161289654      1.96820537556143
  H           0.60021811036333      3.96359223797105      3.55256358061953
  H           0.43783221133218      4.19769685028476      1.80523639838417
  Cu          1.26608082099332      1.16252325618762      1.13189600596041
