14
Coordinates from ORCA-job ./irc_IRC_B E -399.097663315154
  O           1.68500216747240     -0.24253656992030     -0.69700936092977
  N          -1.94701801641457     -0.09530983709183      0.01825618645443
  C          -0.70504518199220     -0.10141946374864     -0.74694994304323
  C           0.52092678480596     -0.24032035150348      0.13139740834640
  H          -0.64378582491405      0.82482481963554     -1.32134085276987
  H          -0.73823839614674     -0.92556229364745     -1.46227630996752
  H           0.45783718009021     -1.17290074560019      0.69911548045754
  H           0.55983005237319      0.59310887534234      0.83792158794544
  H          -2.00828646235441     -0.93857110050917      0.57630488897213
  H          -1.94407346369046      0.67879989517007      0.67117403538811
  H           2.45549545820438     -0.31777404184004     -0.12716562054499
  O          -4.94347558284722      0.07719823151525     -0.69590088757868
  C          -4.26357177263045     -0.05029659618273     -1.62222979656035
  O          -3.62266508561168     -0.17855448648765     -2.57593636129937
