14
Coordinates from ORCA-job ./irc_IRC_F E -399.093734763580
  O       1.562440     -0.242378     -0.677525
  N      -2.112181     -0.101370     -0.185297
  C      -0.806748     -0.098639     -0.849974
  C       0.367995     -0.234868      0.108548
  H      -0.714422      0.830851     -1.409532
  H      -0.790672     -0.924029     -1.560412
  H       0.283411     -1.164442      0.676705
  H       0.383459      0.602519      0.809508
  H      -2.232739     -0.936153      0.377710
  H      -2.213175      0.696079      0.432688
  H       2.312254     -0.303751     -0.079060
  O      -4.632410      0.062575     -0.531259
  C      -3.725432     -0.062519     -1.295395
  O      -3.381175     -0.179086     -2.431620
14
Coordinates from ORCA-job ./irc_IRC_F E -399.094232084745
  O       1.559687     -0.242287     -0.677095
  N      -2.120950     -0.101165     -0.190417
  C      -0.808634     -0.098427     -0.853005
  C       0.364762     -0.234861      0.108860
  H      -0.714751      0.831252     -1.409862
  H      -0.790919     -0.924285     -1.560880
  H       0.282962     -1.164512      0.676600
  H       0.383041      0.602503      0.809460
  H      -2.232964     -0.935964      0.377340
  H      -2.213292      0.695612      0.432240
  H       2.311204     -0.303678     -0.079350
  O      -4.625316      0.062054     -0.532267
  C      -3.714806     -0.062663     -1.287698
  O      -3.379418     -0.178791     -2.428839
14
Coordinates from ORCA-job ./irc_IRC_F E -399.094512829130
  O       1.558316     -0.242234     -0.677073
  N      -2.124124     -0.101114     -0.192570
  C      -0.809890     -0.098347     -0.854106
  C       0.363338     -0.234846      0.109041
  H      -0.715005      0.831523     -1.410177
  H      -0.791115     -0.924480     -1.561303
  H       0.282531     -1.164569      0.676583
  H       0.382619      0.602511      0.809461
  H      -2.233354     -0.935592      0.376772
  H      -2.213694      0.695140      0.431616
  H       2.310439     -0.303630     -0.079489
  O      -4.623172      0.061984     -0.531623
  C      -3.707689     -0.062976     -1.285358
  O      -3.378596     -0.178581     -2.426689
14
Coordinates from ORCA-job ./irc_IRC_F E -399.095046201132
  O       1.555707     -0.242131     -0.677020
  N      -2.129874     -0.101054     -0.196767
  C      -0.812275     -0.098205     -0.856171
  C       0.360501     -0.234812      0.109312
  H      -0.715619      0.832050     -1.410885
  H      -0.791591     -0.924862     -1.562244
  H       0.281500     -1.164694      0.676578
  H       0.381601      0.602548      0.809490
  H      -2.234402     -0.934835      0.375407
  H      -2.214831      0.694211      0.430133
  H       2.308576     -0.303513     -0.079901
  O      -4.618355      0.061790     -0.530582
  C      -3.694112     -0.063381     -1.278530
  O      -3.376222     -0.178323     -2.423733
14
Coordinates from ORCA-job ./irc_IRC_F E -399.095637106768
  O       1.552976     -0.242015     -0.677138
  N      -2.134987     -0.101028     -0.200886
  C      -0.814386     -0.098091     -0.858258
  C       0.357686     -0.234779      0.109498
  H      -0.716450      0.832526     -1.411737
  H      -0.792231     -0.925192     -1.563348
  H       0.280115     -1.164802      0.676588
  H       0.380216      0.602591      0.809525
  H      -2.235993     -0.934142      0.373607
  H      -2.216637      0.693371      0.428188
  H       2.306306     -0.303374     -0.080366
  O      -4.612604      0.061525     -0.529680
  C      -3.680464     -0.063643     -1.269788
  O      -3.372943     -0.178160     -2.421119
14
Coordinates from ORCA-job ./irc_IRC_F E -399.096243774545
  O       1.550379     -0.241901     -0.677308
  N      -2.139605     -0.101013     -0.204685
  C      -0.816251     -0.097993     -0.860244
  C       0.355060     -0.234750      0.109626
  H      -0.717311      0.832946     -1.412610
  H      -0.792891     -0.925472     -1.564456
  H       0.278653     -1.164881      0.676583
  H       0.378747      0.602624      0.809538
  H      -2.237722     -0.933574      0.371743
  H      -2.218634      0.692679      0.426174
  H       2.304038     -0.303234     -0.080821
  O      -4.607463      0.061345     -0.528211
  C      -3.666722     -0.064030     -1.262431
  O      -3.369674     -0.177958     -2.417813
14
Coordinates from ORCA-job ./irc_IRC_F E -399.096888374579
  O       1.547694     -0.241781     -0.677551
  N      -2.144046     -0.101005     -0.208448
  C      -0.818019     -0.097901     -0.862279
  C       0.352416     -0.234719      0.109698
  H      -0.718265      0.833344     -1.413574
  H      -0.793616     -0.925725     -1.565653
  H       0.277002     -1.164935      0.676553
  H       0.377082      0.602650      0.809518
  H      -2.239710     -0.933090      0.369688
  H      -2.220965      0.692087      0.423951
  H       2.301644     -0.303088     -0.081276
  O      -4.601450      0.061094     -0.526886
  C      -3.653380     -0.064323     -1.254046
  O      -3.365785     -0.177818     -2.414608
14
Coordinates from ORCA-job ./irc_IRC_F E -399.097545353540
  O       1.545060     -0.241664     -0.677816
  N      -2.148232     -0.100999     -0.212019
  C      -0.819689     -0.097815     -0.864275
  C       0.349841     -0.234687      0.109727
  H      -0.719239      0.833716     -1.414566
  H      -0.794351     -0.925952     -1.566865
  H       0.275290     -1.164970      0.676499
  H       0.375354      0.602670      0.809472
  H      -2.241761     -0.932672      0.367609
  H      -2.223388      0.691575      0.421703
  H       2.299262     -0.302943     -0.081720
  O      -4.595740      0.060893     -0.525148
  C      -3.639987     -0.064703     -1.246588
  O      -3.361814     -0.177661     -2.410929
14
Coordinates from ORCA-job ./irc_IRC_F E -399.098220917654
  O       1.542383     -0.241546     -0.678105
  N      -2.152253     -0.101002     -0.215509
  C      -0.821315     -0.097730     -0.866289
  C       0.347232     -0.234651      0.109706
  H      -0.720271      0.834079     -1.415625
  H      -0.795127     -0.926163     -1.568139
  H       0.273446     -1.164988      0.676414
  H       0.373490      0.602689      0.809393
  H      -2.243944     -0.932302      0.365444
  H      -2.225973      0.691124      0.419368
  H       2.296803     -0.302793     -0.082173
  O      -4.589530      0.060658     -0.523369
  C      -3.626940     -0.065034     -1.238730
  O      -3.357397     -0.177553     -2.407299
14
Coordinates from ORCA-job ./irc_IRC_F E -399.098902012251
  O       1.539699     -0.241427     -0.678407
  N      -2.156071     -0.101010     -0.218859
  C      -0.822891     -0.097648     -0.868293
  C       0.344622     -0.234611      0.109642
  H      -0.721340      0.834431     -1.416730
  H      -0.795927     -0.926358     -1.569448
  H       0.271513     -1.164994      0.676300
  H       0.371537      0.602708      0.809284
  H      -2.246186     -0.931975      0.363257
  H      -2.228622      0.690720      0.417017
  H       2.294311     -0.302640     -0.082625
  O      -4.583301      0.060439     -0.521331
  C      -3.613977     -0.065390     -1.231280
  O      -3.352761     -0.177456     -2.403443
14
Coordinates from ORCA-job ./irc_IRC_F E -399.099585950667
  O       1.536979     -0.241309     -0.678724
  N      -2.159693     -0.101028     -0.222077
  C      -0.824430     -0.097566     -0.870300
  C       0.341984     -0.234566      0.109534
  H      -0.722458      0.834775     -1.417888
  H      -0.796762     -0.926539     -1.570804
  H       0.269468     -1.164987      0.676154
  H       0.369471      0.602727      0.809142
  H      -2.248494     -0.931689      0.361045
  H      -2.231334      0.690354      0.414649
  H       2.291762     -0.302485     -0.083081
  O      -4.576879      0.060219     -0.519113
  C      -3.601179     -0.065739     -1.223991
  O      -3.347830     -0.177380     -2.399461
14
Coordinates from ORCA-job ./irc_IRC_F E -399.100264309207
  O       1.534222     -0.241189     -0.679052
  N      -2.163155     -0.101055     -0.225185
  C      -0.825947     -0.097486     -0.872313
  C       0.339316     -0.234518      0.109390
  H      -0.723621      0.835115     -1.419093
  H      -0.797628     -0.926707     -1.572200
  H       0.267327     -1.164972      0.675980
  H       0.367308      0.602748      0.808975
  H      -2.250848     -0.931433      0.358819
  H      -2.234084      0.690014      0.412273
  H       2.289157     -0.302326     -0.083540
  O      -4.570365      0.060006     -0.516699
  C      -3.588400     -0.066095     -1.216946
  O      -3.342677     -0.177314     -2.395324
14
Coordinates from ORCA-job ./irc_IRC_F E -399.100930073575
  O       1.531414     -0.241069     -0.679393
  N      -2.166287     -0.101107     -0.228112
  C      -0.827412     -0.097408     -0.874307
  C       0.336604     -0.234462      0.109185
  H      -0.724849      0.835447     -1.420362
  H      -0.798541     -0.926860     -1.573653
  H       0.265044     -1.164944      0.675765
  H       0.365004      0.602773      0.808768
  H      -2.253254     -0.931233      0.356594
  H      -2.236872      0.689712      0.409913
  H       2.286473     -0.302162     -0.084006
  O      -4.563201      0.059736     -0.514399
  C      -3.576460     -0.066315     -1.209317
  O      -3.337058     -0.177321     -2.391589
14
Coordinates from ORCA-job ./irc_IRC_F E -399.101576530676
  O       1.528552     -0.240948     -0.679752
  N      -2.169108     -0.101170     -0.230788
  C      -0.828840     -0.097335     -0.876301
  C       0.333855     -0.234401      0.108926
  H      -0.726147      0.835767     -1.421693
  H      -0.799504     -0.926990     -1.575157
  H       0.262609     -1.164902      0.675505
  H       0.362549      0.602801      0.808518
  H      -2.255672     -0.931094      0.354398
  H      -2.239651      0.689438      0.407595
  H       2.283706     -0.301993     -0.084475
  O      -4.556423      0.059542     -0.511485
  C      -3.564051     -0.066645     -1.203053
  O      -3.331268     -0.177284     -2.387151
14
Coordinates from ORCA-job ./irc_IRC_F E -399.102195294914
  O       1.525624     -0.240825     -0.680127
  N      -2.171565     -0.101265     -0.233294
  C      -0.830224     -0.097262     -0.878266
  C       0.331053     -0.234332      0.108599
  H      -0.727526      0.836077     -1.423092
  H      -0.800528     -0.927101     -1.576721
  H       0.260005     -1.164846      0.675195
  H       0.359926      0.602834      0.808224
  H      -2.258100     -0.931030      0.352234
  H      -2.242426      0.689203      0.405330
  H       2.280841     -0.301819     -0.084950
  O      -4.548787      0.059268     -0.508870
  C      -3.552713     -0.066776     -1.195704
  O      -3.324975     -0.177337     -2.383473
14
Coordinates from ORCA-job ./irc_IRC_F E -399.102781649944
  O       1.522634     -0.240701     -0.680521
  N      -2.173623     -0.101374     -0.235457
  C      -0.831558     -0.097195     -0.880230
  C       0.328210     -0.234255      0.108206
  H      -0.728994      0.836368     -1.424557
  H      -0.801618     -0.927180     -1.578340
  H       0.257208     -1.164775      0.674824
  H       0.357114      0.602872      0.807875
  H      -2.260472     -0.931053      0.350142
  H      -2.245123      0.688994      0.403168
  H       2.277874     -0.301639     -0.085424
  O      -4.541672      0.059091     -0.505577
  C      -3.540825     -0.067047     -1.190082
  O      -3.318548     -0.177316     -2.378943
14
Coordinates from ORCA-job ./irc_IRC_F E -399.103334445988
  O       1.519552     -0.240576     -0.680935
  N      -2.175246     -0.101521     -0.237431
  C      -0.832854     -0.097127     -0.882163
  C       0.325290     -0.234170      0.107725
  H      -0.730571      0.836647     -1.426107
  H      -0.802794     -0.927236     -1.580034
  H       0.254179     -1.164687      0.674386
  H       0.354075      0.602917      0.807466
  H      -2.262803     -0.931175      0.348105
  H      -2.247771      0.688826      0.401105
  H       2.274771     -0.301451     -0.085904
  O      -4.533567      0.058825     -0.502640
  C      -3.530104     -0.067096     -1.183132
  O      -3.311553     -0.177388     -2.375356
14
Coordinates from ORCA-job ./irc_IRC_F E -399.103840312740
  O       1.516426     -0.240451     -0.681369
  N      -2.176347     -0.101682     -0.238936
  C      -0.834073     -0.097065     -0.884075
  C       0.322349     -0.234074      0.107159
  H      -0.732253      0.836896     -1.427724
  H      -0.804055     -0.927246     -1.581774
  H       0.250913     -1.164579      0.673863
  H       0.350805      0.602970      0.806984
  H      -2.264944     -0.931417      0.346217
  H      -2.250201      0.688683      0.399259
  H       2.271571     -0.301258     -0.086370
  O      -4.526169      0.058681     -0.499020
  C      -3.518924     -0.067310     -1.178223
  O      -3.304493     -0.177360     -2.370903
14
Coordinates from ORCA-job ./irc_IRC_F E -399.104310058381
  O       1.513154     -0.240322     -0.681831
  N      -2.177016     -0.101887     -0.240264
  C      -0.835270     -0.096998     -0.885987
  C       0.319279     -0.233966      0.106477
  H      -0.734093      0.837134     -1.429460
  H      -0.805442     -0.927225     -1.583622
  H       0.247312     -1.164450      0.673242
  H       0.347207      0.603033      0.806414
  H      -2.266985     -0.931784      0.344397
  H      -2.252527      0.688578      0.397556
  H       2.268171     -0.301053     -0.086841
  O      -4.517613      0.058442     -0.495793
  C      -3.508820     -0.067298     -1.171765
  O      -3.296753     -0.177416     -2.367439
14
Coordinates from ORCA-job ./irc_IRC_F E -399.104721207547
  O       1.509942     -0.240200     -0.682300
  N      -2.177066     -0.102104     -0.240972
  C      -0.836352     -0.096932     -0.887824
  C       0.316275     -0.233846      0.105699
  H      -0.736023      0.837328     -1.431228
  H      -0.806912     -0.927144     -1.585469
  H       0.243482     -1.164296      0.672508
  H       0.343395      0.603109      0.805750
  H      -2.268595     -0.932291      0.342867
  H      -2.254378      0.688482      0.396257
  H       2.264759     -0.300849     -0.087264
  O      -4.510220      0.058360     -0.491971
  C      -3.498492     -0.067484     -1.167743
  O      -3.289211     -0.177343     -2.363223
14
Coordinates from ORCA-job ./irc_IRC_F E -399.105099528660
  O       1.506514     -0.240072     -0.682805
  N      -2.176702     -0.102379     -0.241474
  C      -0.837433     -0.096853     -0.889729
  C       0.313069     -0.233706      0.104759
  H      -0.738193      0.837508     -1.433173
  H      -0.808581     -0.927016     -1.587473
  H       0.239133     -1.164112      0.671612
  H       0.339082      0.603204      0.804947
  H      -2.269966     -0.932961      0.341454
  H      -2.255986      0.688400      0.395198
  H       2.261060     -0.300628     -0.087673
  O      -4.501561      0.058190     -0.488539
  C      -3.488947     -0.067478     -1.162333
  O      -3.280884     -0.177308     -2.359684
14
Coordinates from ORCA-job ./irc_IRC_F E -399.105422062459
  O       1.503194     -0.239957     -0.683292
  N      -2.175751     -0.102680     -0.241366
  C      -0.838442     -0.096767     -0.891570
  C       0.309919     -0.233548      0.103680
  H      -0.740483      0.837660     -1.435166
  H      -0.810367     -0.926827     -1.589483
  H       0.234474     -1.163902      0.670547
  H       0.334491      0.603325      0.804006
  H      -2.270680     -0.933771      0.340424
  H      -2.256885      0.688264      0.394683
  H       2.257371     -0.300410     -0.087992
  O      -4.494142      0.058172     -0.484762
  C      -3.479362     -0.067607     -1.158658
  O      -3.272733     -0.177165     -2.355965
14
Coordinates from ORCA-job ./irc_IRC_F E -399.105708273739
  O       1.499727     -0.239842     -0.683794
  N      -2.174470     -0.103054     -0.241002
  C      -0.839423     -0.096652     -0.893545
  C       0.306602     -0.233363      0.102411
  H      -0.743049      0.837799     -1.437334
  H      -0.812391     -0.926580     -1.591636
  H       0.229222     -1.163653      0.669246
  H       0.329344      0.603478      0.802867
  H      -2.270833     -0.934766      0.339675
  H      -2.257205      0.688077      0.394638
  H       2.253466     -0.300182     -0.088220
  O      -4.485531      0.058056     -0.481726
  C      -3.470808     -0.067559     -1.154043
  O      -3.264047     -0.176971     -2.352452
14
Coordinates from ORCA-job ./irc_IRC_F E -399.105938599621
  O       1.496584     -0.239751     -0.684188
  N      -2.172680     -0.103456     -0.240069
  C      -0.840426     -0.096530     -0.895406
  C       0.303431     -0.233154      0.100985
  H      -0.745673      0.837963     -1.439516
  H      -0.814487     -0.926318     -1.593770
  H       0.223800     -1.163392      0.667757
  H       0.324077      0.603674      0.801583
  H      -2.270085     -0.935822      0.339391
  H      -2.256565      0.687696      0.395244
  H       2.249750     -0.299967     -0.088278
  O      -4.479257      0.058176     -0.478293
  C      -3.462076     -0.067627     -1.150741
  O      -3.255788     -0.176703     -2.349613
14
Coordinates from ORCA-job ./irc_IRC_F E -399.106137944099
  O       1.493477     -0.239676     -0.684515
  N      -2.170786     -0.103947     -0.238868
  C      -0.841379     -0.096359     -0.897548
  C       0.300158     -0.232912      0.099340
  H      -0.748599      0.838142     -1.441872
  H      -0.816853     -0.926004     -1.596062
  H       0.217808     -1.163088      0.665939
  H       0.318304      0.603921      0.800027
  H      -2.268388     -0.937072      0.339545
  H      -2.254940      0.687113      0.396582
  H       2.245969     -0.299754     -0.088089
  O      -4.472106      0.058203     -0.476006
  C      -3.454628     -0.067556     -1.147375
  O      -3.247434     -0.176225     -2.346011
14
Coordinates from ORCA-job ./irc_IRC_F E -399.106312730923
  O       1.490437     -0.239617     -0.684775
  N      -2.168457     -0.104540     -0.237245
  C      -0.842484     -0.096158     -0.899876
  C       0.296820     -0.232625      0.097430
  H      -0.751803      0.838397     -1.444439
  H      -0.819483     -0.925664     -1.598571
  H       0.211327     -1.162748      0.663784
  H       0.312106      0.604225      0.798183
  H      -2.265713     -0.938464      0.340074
  H      -2.252296      0.686217      0.398638
  H       2.242246     -0.299551     -0.087528
  O      -4.466534      0.058438     -0.473386
  C      -3.446684     -0.067501     -1.144349
  O      -3.238878     -0.175621     -2.342856
14
Coordinates from ORCA-job ./irc_IRC_F E -399.106371367114
  O       1.489612     -0.239615     -0.684741
  N      -2.167719     -0.104765     -0.236600
  C      -0.842818     -0.096074     -0.900772
  C       0.295692     -0.232516      0.096671
  H      -0.752986      0.838512     -1.445375
  H      -0.820477     -0.925535     -1.599513
  H       0.209030     -1.162620      0.662924
  H       0.309925      0.604355      0.797447
  H      -2.264414     -0.939014      0.340395
  H      -2.250985      0.685766      0.399633
  H       2.240973     -0.299483     -0.087219
  O      -4.464505      0.058499     -0.472979
  C      -3.444597     -0.067427     -1.143437
  O      -3.236127     -0.175294     -2.341348
14
Coordinates from ORCA-job ./irc_IRC_F E -399.106428888920
  O       1.488605     -0.239612     -0.684709
  N      -2.166675     -0.105077     -0.235810
  C      -0.843291     -0.095966     -0.901882
  C       0.294318     -0.232375      0.095696
  H      -0.754479      0.838671     -1.446563
  H      -0.821742     -0.925368     -1.600723
  H       0.206177     -1.162455      0.661813
  H       0.307217      0.604519      0.796489
  H      -2.262708     -0.939727      0.340813
  H      -2.249258      0.685161      0.400966
  H       2.239469     -0.299405     -0.086722
  O      -4.462143      0.058592     -0.472509
  C      -3.442276     -0.067238     -1.141461
  O      -3.232610     -0.174932     -2.340313
14
Coordinates from ORCA-job ./irc_IRC_F E -399.106495430419
  O       1.487543     -0.239615     -0.684632
  N      -2.165473     -0.105461     -0.234813
  C      -0.843844     -0.095834     -0.903226
  C       0.292773     -0.232207      0.094504
  H      -0.756247      0.838876     -1.447970
  H      -0.823256     -0.925157     -1.602188
  H       0.202900     -1.162258      0.660461
  H       0.304102      0.604719      0.795312
  H      -2.260572     -0.940601      0.341315
  H      -2.247077      0.684354      0.402657
  H       2.237793     -0.299322     -0.086003
  O      -4.459882      0.058766     -0.471825
  C      -3.439425     -0.067057     -1.139769
  O      -3.228730     -0.174416     -2.338739
14
Coordinates from ORCA-job ./irc_IRC_F E -399.106551033350
  O       1.486565     -0.239621     -0.684532
  N      -2.164296     -0.105872     -0.233771
  C      -0.844395     -0.095693     -0.904642
  C       0.291280     -0.232035      0.093260
  H      -0.758059      0.839096     -1.449408
  H      -0.824822     -0.924919     -1.603720
  H       0.199650     -1.162052      0.659040
  H       0.301007      0.604928      0.794062
  H      -2.258299     -0.941539      0.341818
  H      -2.244732      0.683441      0.404495
  H       2.236190     -0.299244     -0.085121
  O      -4.457934      0.058989     -0.471072
  C      -3.436512     -0.066887     -1.138488
  O      -3.225038     -0.173804     -2.336836
