14
Coordinates from ORCA-job ./irc_IRC_B E -399.092783831296
  O       1.622723     -0.244324     -0.690856
  N      -2.009206     -0.099528     -0.068255
  C      -0.755053     -0.101281     -0.798475
  C       0.443346     -0.238036      0.113314
  H      -0.678237      0.826013     -1.369373
  H      -0.764883     -0.925918     -1.514300
  H       0.368305     -1.168445      0.683390
  H       0.469182      0.597837      0.817822
  H      -2.087357     -0.937143      0.496407
  H      -2.045167      0.685329      0.571367
  H       2.384730     -0.313320     -0.108364
  O      -4.706394      0.065720     -0.551237
  C      -3.972781     -0.056409     -1.443486
  O      -3.406278     -0.179809     -2.452593
14
Coordinates from ORCA-job ./irc_IRC_B E -399.092868221641
  O       1.623810     -0.244339     -0.691066
  N      -2.008756     -0.099415     -0.066339
  C      -0.753933     -0.101298     -0.798456
  C       0.444690     -0.238091      0.113582
  H      -0.678271      0.825941     -1.369188
  H      -0.764943     -0.925807     -1.514064
  H       0.368475     -1.168447      0.683385
  H       0.469370      0.597791      0.817826
  H      -2.087123     -0.937253      0.496693
  H      -2.044816      0.685289      0.571640
  H       2.384822     -0.313329     -0.108416
  O      -4.707824      0.065658     -0.553859
  C      -3.973351     -0.056466     -1.444053
  O      -3.409218     -0.179547     -2.452325
14
Coordinates from ORCA-job ./irc_IRC_B E -399.092918396570
  O       1.624723     -0.244343     -0.691315
  N      -2.007952     -0.099424     -0.065105
  C      -0.753116     -0.101312     -0.798084
  C       0.445869     -0.238139      0.113620
  H      -0.678265      0.825903     -1.368984
  H      -0.764982     -0.925728     -1.513806
  H       0.368771     -1.168475      0.683391
  H       0.469689      0.597771      0.817862
  H      -2.086860     -0.937543      0.497232
  H      -2.044415      0.685534      0.572286
  H       2.385277     -0.313365     -0.108314
  O      -4.710017      0.065714     -0.555598
  C      -3.974365     -0.056463     -1.444529
  O      -3.411426     -0.179443     -2.453293
14
Coordinates from ORCA-job ./irc_IRC_B E -399.092961212760
  O       1.625471     -0.244348     -0.691473
  N      -2.007252     -0.099440     -0.064218
  C      -0.752541     -0.101321     -0.797727
  C       0.446742     -0.238173      0.113600
  H      -0.678235      0.825867     -1.368779
  H      -0.764992     -0.925660     -1.513553
  H       0.369111     -1.168496      0.683386
  H       0.470050      0.597748      0.817888
  H      -2.086600     -0.937787      0.497752
  H      -2.044035      0.685745      0.572910
  H       2.385783     -0.313402     -0.108216
  O      -4.711985      0.065783     -0.556839
  C      -3.975393     -0.056461     -1.445243
  O      -3.413193     -0.179367     -2.454130
14
Coordinates from ORCA-job ./irc_IRC_B E -399.093053013027
  O       1.627133     -0.244366     -0.691721
  N      -2.005758     -0.099469     -0.062341
  C      -0.751393     -0.101339     -0.796925
  C       0.448540     -0.238238      0.113536
  H      -0.678123      0.825782     -1.368264
  H      -0.764976     -0.925512     -1.512934
  H       0.370015     -1.168534      0.683355
  H       0.471001      0.597680      0.817931
  H      -2.085942     -0.938266      0.498976
  H      -2.043106      0.686140      0.574366
  H       2.387052     -0.313491     -0.108005
  O      -4.716382      0.065945     -0.559426
  C      -3.978108     -0.056441     -1.447261
  O      -3.417022     -0.179205     -2.455927
14
Coordinates from ORCA-job ./irc_IRC_B E -399.093150295035
  O       1.628856     -0.244397     -0.691733
  N      -2.004443     -0.099475     -0.060535
  C      -0.750470     -0.101343     -0.796082
  C       0.450165     -0.238285      0.113496
  H      -0.677894      0.825711     -1.367588
  H      -0.764860     -0.925396     -1.512168
  H       0.371346     -1.168568      0.683281
  H       0.472379      0.597570      0.817950
  H      -2.085004     -0.938542      0.500397
  H      -2.041882      0.686302      0.576031
  H       2.388667     -0.313597     -0.107829
  O      -4.720813      0.066111     -0.561892
  C      -3.982441     -0.056343     -1.450240
  O      -3.420674     -0.179062     -2.457726
14
Coordinates from ORCA-job ./irc_IRC_B E -399.093237435661
  O       1.630339     -0.244424     -0.691707
  N      -2.003356     -0.099474     -0.059026
  C      -0.749708     -0.101346     -0.795322
  C       0.451560     -0.238327      0.113497
  H      -0.677659      0.825669     -1.366961
  H      -0.764726     -0.925324     -1.511474
  H       0.372625     -1.168617      0.683229
  H       0.473701      0.597484      0.817987
  H      -2.084078     -0.938715      0.501697
  H      -2.040701      0.686367      0.577551
  H       2.390111     -0.313690     -0.107696
  O      -4.724357      0.066215     -0.564318
  C      -3.987186     -0.056162     -1.452567
  O      -3.423633     -0.178970     -2.459528
14
Coordinates from ORCA-job ./irc_IRC_B E -399.093331293446
  O       1.631899     -0.244452     -0.691651
  N      -2.002254     -0.099453     -0.057405
  C      -0.748908     -0.101354     -0.794507
  C       0.453035     -0.238369      0.113548
  H      -0.677369      0.825640     -1.366253
  H      -0.764544     -0.925267     -1.510703
  H       0.374101     -1.168687      0.683192
  H       0.475222      0.597395      0.818052
  H      -2.082972     -0.938816      0.503127
  H      -2.039320      0.686335      0.579214
  H       2.391659     -0.313789     -0.107586
  O      -4.728382      0.066376     -0.566518
  C      -3.992459     -0.056011     -1.455806
  O      -3.426778     -0.178861     -2.461342
14
Coordinates from ORCA-job ./irc_IRC_B E -399.093431500501
  O       1.633337     -0.244472     -0.691607
  N      -2.001178     -0.099442     -0.055933
  C      -0.748154     -0.101357     -0.793684
  C       0.454434     -0.238413      0.113632
  H      -0.677048      0.825621     -1.365542
  H      -0.764326     -0.925236     -1.509942
  H       0.375605     -1.168775      0.683196
  H       0.476765      0.597320      0.818157
  H      -2.081795     -0.938879      0.504560
  H      -2.037870      0.686277      0.580893
  H       2.393126     -0.313881     -0.107509
  O      -4.732159      0.066525     -0.568719
  C      -3.997874     -0.055875     -1.459273
  O      -3.429930     -0.178726     -2.462869
14
Coordinates from ORCA-job ./irc_IRC_B E -399.093525241669
  O       1.634669     -0.244487     -0.691573
  N      -2.000166     -0.099405     -0.054468
  C      -0.747412     -0.101370     -0.792917
  C       0.455753     -0.238453      0.113747
  H      -0.676713      0.825603     -1.364850
  H      -0.764086     -0.925206     -1.509205
  H       0.377060     -1.168864      0.683228
  H       0.478255      0.597247      0.818283
  H      -2.080606     -0.938899      0.505917
  H      -2.036417      0.686159      0.582475
  H       2.394466     -0.313965     -0.107473
  O      -4.735790      0.066676     -0.570756
  C      -4.003369     -0.055703     -1.462302
  O      -3.432713     -0.178646     -2.464745
14
Coordinates from ORCA-job ./irc_IRC_B E -399.093627025230
  O       1.635981     -0.244498     -0.691557
  N      -1.999104     -0.099367     -0.053011
  C      -0.746644     -0.101382     -0.792108
  C       0.457091     -0.238496      0.113884
  H      -0.676336      0.825585     -1.364130
  H      -0.763804     -0.925183     -1.508440
  H       0.378573     -1.168959      0.683293
  H       0.479798      0.597171      0.818445
  H      -2.079320     -0.938925      0.507335
  H      -2.034852      0.686048      0.584138
  H       2.395802     -0.314047     -0.107468
  O      -4.739528      0.066833     -0.572874
  C      -4.009037     -0.055544     -1.465566
  O      -3.435690     -0.178550     -2.466580
14
Coordinates from ORCA-job ./irc_IRC_B E -399.093717373249
  O       1.637212     -0.244502     -0.691564
  N      -1.998052     -0.099365     -0.051633
  C      -0.745904     -0.101382     -0.791303
  C       0.458396     -0.238542      0.114032
  H      -0.675946      0.825565     -1.363422
  H      -0.763509     -0.925168     -1.507690
  H       0.380056     -1.169051      0.683376
  H       0.481308      0.597097      0.818620
  H      -2.078030     -0.938941      0.508724
  H      -2.033283      0.685965      0.585798
  H       2.397098     -0.314126     -0.107472
  O      -4.742997      0.066951     -0.575224
  C      -4.014481     -0.055419     -1.468981
  O      -3.438937     -0.178396     -2.467900
14
Coordinates from ORCA-job ./irc_IRC_B E -399.093803811351
  O       1.638476     -0.244509     -0.691548
  N      -1.997019     -0.099245     -0.050125
  C      -0.745112     -0.101418     -0.790521
  C       0.459682     -0.238577      0.114197
  H      -0.675532      0.825548     -1.362704
  H      -0.763184     -0.925142     -1.506921
  H       0.381550     -1.169145      0.683479
  H       0.482827      0.597017      0.818812
  H      -2.076689     -0.938957      0.510120
  H      -2.031659      0.685784      0.587399
  H       2.398330     -0.314199     -0.107540
  O      -4.747400      0.067226     -0.576444
  C      -4.019691     -0.055330     -1.472610
  O      -3.441647     -0.178366     -2.470235
14
Coordinates from ORCA-job ./irc_IRC_B E -399.093895134574
  O       1.639437     -0.244502     -0.691605
  N      -1.996098     -0.099334     -0.049019
  C      -0.744477     -0.101384     -0.789811
  C       0.460812     -0.238626      0.114358
  H      -0.675150      0.825522     -1.362076
  H      -0.762891     -0.925144     -1.506262
  H       0.382842     -1.169220      0.683584
  H       0.484136      0.596951      0.818996
  H      -2.075513     -0.938946      0.511325
  H      -2.030225      0.685778      0.588914
  H       2.399454     -0.314267     -0.107556
  O      -4.749680      0.067195     -0.579509
  C      -4.024654     -0.055202     -1.475361
  O      -3.445060     -0.178135     -2.470617
14
Coordinates from ORCA-job ./irc_IRC_B E -399.093980743594
  O       1.640554     -0.244505     -0.691589
  N      -1.995166     -0.099161     -0.047638
  C      -0.743750     -0.101434     -0.789098
  C       0.461950     -0.238653      0.114527
  H      -0.674736      0.825512     -1.361422
  H      -0.762556     -0.925121     -1.505555
  H       0.384192     -1.169306      0.683711
  H       0.485506      0.596877      0.819201
  H      -2.074247     -0.938962      0.512593
  H      -2.028690      0.685573      0.590346
  H       2.400510     -0.314327     -0.107681
  O      -4.754001      0.067495     -0.580237
  C      -4.029382     -0.055117     -1.478460
  O      -3.447252     -0.178187     -2.473336
14
Coordinates from ORCA-job ./irc_IRC_B E -399.094065810649
  O       1.641478     -0.244494     -0.691658
  N      -1.994257     -0.099236     -0.046517
  C      -0.743101     -0.101400     -0.788396
  C       0.463066     -0.238700      0.114711
  H      -0.674320      0.825484     -1.360788
  H      -0.762232     -0.925124     -1.504884
  H       0.385485     -1.169378      0.683841
  H       0.486813      0.596808      0.819407
  H      -2.073033     -0.938932      0.513790
  H      -2.027205      0.685553      0.591863
  H       2.401609     -0.314392     -0.107736
  O      -4.756348      0.067467     -0.583287
  C      -4.034315     -0.054997     -1.481172
  O      -3.450708     -0.177972     -2.473813
14
Coordinates from ORCA-job ./irc_IRC_B E -399.094151342159
  O       1.642559     -0.244491     -0.691655
  N      -1.993326     -0.099055     -0.045168
  C      -0.742371     -0.101445     -0.787671
  C       0.464195     -0.238728      0.114898
  H      -0.673873      0.825476     -1.360126
  H      -0.761869     -0.925107     -1.504165
  H       0.386838     -1.169463      0.683992
  H       0.488185      0.596733      0.819635
  H      -2.071731     -0.938947      0.515066
  H      -2.025621      0.685356      0.593318
  H       2.402650     -0.314449     -0.107897
  O      -4.760686      0.067760     -0.584079
  C      -4.039011     -0.054925     -1.484267
  O      -3.453008     -0.178028     -2.476520
14
Coordinates from ORCA-job ./irc_IRC_B E -399.094235827971
  O       1.643453     -0.244476     -0.691734
  N      -1.992434     -0.099118     -0.044041
  C      -0.741712     -0.101411     -0.786973
  C       0.465300     -0.238774      0.115102
  H      -0.673428      0.825448     -1.359486
  H      -0.761522     -0.925111     -1.503483
  H       0.388130     -1.169534      0.684143
  H       0.489489      0.596662      0.819861
  H      -2.070490     -0.938901      0.516253
  H      -2.024095      0.685325      0.594833
  H       2.403731     -0.314512     -0.107987
  O      -4.763093      0.067733     -0.587120
  C      -4.043897     -0.054814     -1.486927
  O      -3.456500     -0.177831     -2.477082
14
Coordinates from ORCA-job ./irc_IRC_B E -399.094320942098
  O       1.644505     -0.244470     -0.691741
  N      -1.991508     -0.098929     -0.042719
  C      -0.740981     -0.101452     -0.786238
  C       0.466423     -0.238802      0.115306
  H      -0.672951      0.825442     -1.358817
  H      -0.761135     -0.925098     -1.502752
  H       0.389488     -1.169617      0.684317
  H       0.490863      0.596587      0.820110
  H      -2.069166     -0.938910      0.517532
  H      -2.022470      0.685134      0.596308
  H       2.404764     -0.314568     -0.108181
  O      -4.767447      0.068018     -0.587975
  C      -4.048552     -0.054754     -1.490011
  O      -3.458902     -0.177893     -2.479777
14
Coordinates from ORCA-job ./irc_IRC_B E -399.094404492714
  O       1.645372     -0.244452     -0.691827
  N      -1.990633     -0.098979     -0.041593
  C      -0.740315     -0.101416     -0.785542
  C       0.467519     -0.238846      0.115526
  H      -0.672481      0.825415     -1.358172
  H      -0.760767     -0.925105     -1.502059
  H       0.390780     -1.169687      0.684486
  H       0.492168      0.596516      0.820353
  H      -2.067909     -0.938849      0.518709
  H      -2.020916      0.685094      0.597821
  H       2.405832     -0.314630     -0.108303
  O      -4.769909      0.067992     -0.591008
  C      -4.053384     -0.054651     -1.492616
  O      -3.462423     -0.177715     -2.480417
14
Coordinates from ORCA-job ./irc_IRC_B E -399.094488800412
  O       1.646398     -0.244441     -0.691843
  N      -1.989717     -0.098781     -0.040295
  C      -0.739582     -0.101454     -0.784799
  C       0.468636     -0.238873      0.115747
  H      -0.671977      0.825409     -1.357495
  H      -0.760360     -0.925095     -1.501316
  H       0.392143     -1.169769      0.684678
  H       0.493547      0.596440      0.820621
  H      -2.066569     -0.938851      0.519987
  H      -2.019258      0.684905      0.599309
  H       2.406859     -0.314684     -0.108528
  O      -4.774278      0.068269     -0.591921
  C      -4.057992     -0.054603     -1.495686
  O      -3.464918     -0.177786     -2.483100
14
Coordinates from ORCA-job ./irc_IRC_B E -399.094571071579
  O       1.647243     -0.244419     -0.691935
  N      -1.988861     -0.098820     -0.039176
  C      -0.738913     -0.101417     -0.784104
  C       0.469724     -0.238915      0.115984
  H      -0.671485      0.825383     -1.356844
  H      -0.759975     -0.925103     -1.500612
  H       0.393434     -1.169838      0.684865
  H       0.494851      0.596369      0.820880
  H      -2.065306     -0.938777      0.521151
  H      -2.017681      0.684859      0.600820
  H       2.407916     -0.314744     -0.108679
  O      -4.776789      0.068243     -0.594944
  C      -4.062763     -0.054506     -1.498232
  O      -3.468462     -0.177627     -2.483813
14
Coordinates from ORCA-job ./irc_IRC_B E -399.094654290307
  O       1.648248     -0.244404     -0.691960
  N      -1.987959     -0.098615     -0.037900
  C      -0.738180     -0.101451     -0.783353
  C       0.470838     -0.238942      0.116221
  H      -0.670955      0.825380     -1.356161
  H      -0.759550     -0.925098     -1.499857
  H       0.394803     -1.169919      0.685075
  H       0.496237      0.596294      0.821166
  H      -2.063958     -0.938771      0.522425
  H      -2.015999      0.684672      0.602318
  H       2.408941     -0.314798     -0.108933
  O      -4.781170      0.068513     -0.595914
  C      -4.067322     -0.054468     -1.501285
  O      -3.471041     -0.177707     -2.486482
14
Coordinates from ORCA-job ./irc_IRC_B E -399.094734948322
  O       1.649072     -0.244379     -0.692058
  N      -1.987121     -0.098644     -0.036791
  C      -0.737507     -0.101412     -0.782658
  C       0.471917     -0.238983      0.116471
  H      -0.670442      0.825355     -1.355505
  H      -0.759151     -0.925107     -1.499143
  H       0.396097     -1.169987      0.685277
  H       0.497543      0.596223      0.821439
  H      -2.062696     -0.938685      0.523576
  H      -2.014409      0.684620      0.603824
  H       2.409990     -0.314857     -0.109112
  O      -4.783726      0.068487     -0.598924
  C      -4.072033     -0.054377     -1.503774
  O      -3.474601     -0.177568     -2.487262
14
Coordinates from ORCA-job ./irc_IRC_B E -399.094816778469
  O       1.650057     -0.244361     -0.692090
  N      -1.986233     -0.098432     -0.035536
  C      -0.736772     -0.101443     -0.781899
  C       0.473029     -0.239009      0.116724
  H      -0.669890      0.825353     -1.354814
  H      -0.758711     -0.925104     -1.498375
  H       0.397475     -1.170067      0.685505
  H       0.498938      0.596148      0.821742
  H      -2.061347     -0.938672      0.524843
  H      -2.012710      0.684434      0.605327
  H       2.411013     -0.314910     -0.109393
  O      -4.788117      0.068752     -0.599949
  C      -4.076541     -0.054348     -1.506809
  O      -3.477260     -0.177657     -2.489915
14
Coordinates from ORCA-job ./irc_IRC_B E -399.094895593301
  O       1.650863     -0.244332     -0.692192
  N      -1.985415     -0.098452     -0.034441
  C      -0.736099     -0.101403     -0.781203
  C       0.474101     -0.239049      0.116988
  H      -0.669360      0.825330     -1.354153
  H      -0.758300     -0.925115     -1.497653
  H       0.398770     -1.170133      0.685721
  H       0.500247      0.596077      0.822030
  H      -2.060090     -0.938577      0.525979
  H      -2.011111      0.684377      0.606826
  H       2.412055     -0.314968     -0.109598
  O      -4.790712      0.068728     -0.602943
  C      -4.081189     -0.054261     -1.509241
  O      -3.480828     -0.177537     -2.490759
14
Coordinates from ORCA-job ./irc_IRC_B E -399.094975795949
  O       1.651830     -0.244310     -0.692232
  N      -1.984540     -0.098233     -0.033206
  C      -0.735363     -0.101432     -0.780436
  C       0.475212     -0.239073      0.117256
  H      -0.668787      0.825328     -1.353452
  H      -0.757845     -0.925113     -1.496871
  H       0.400156     -1.170212      0.685963
  H       0.501652      0.596002      0.822348
  H      -2.058746     -0.938556      0.527235
  H      -2.009400      0.684190      0.608331
  H       2.413077     -0.315021     -0.109905
  O      -4.795106      0.068988     -0.604018
  C      -4.085650     -0.054238     -1.512257
  O      -3.483559     -0.177634     -2.493394
14
Coordinates from ORCA-job ./irc_IRC_B E -399.095016274747
  O       1.652208     -0.244295     -0.692283
  N      -1.984157     -0.098238     -0.032688
  C      -0.735040     -0.101412     -0.780102
  C       0.475721     -0.239092      0.117388
  H      -0.668525      0.825318     -1.353134
  H      -0.757642     -0.925119     -1.496522
  H       0.400777     -1.170243      0.686073
  H       0.502280      0.595968      0.822492
  H      -2.058150     -0.938507      0.527771
  H      -2.008634      0.684160      0.609043
  H       2.413572     -0.315049     -0.110015
  O      -4.796387      0.068982     -0.605413
  C      -4.087812     -0.054204     -1.513445
  O      -3.485281     -0.177583     -2.493806
14
Coordinates from ORCA-job ./irc_IRC_B E -399.095055442401
  O       1.652666     -0.244280     -0.692320
  N      -1.983721     -0.098177     -0.032086
  C      -0.734670     -0.101410     -0.779715
  C       0.476289     -0.239107      0.117533
  H      -0.668228      0.825313     -1.352775
  H      -0.757409     -0.925123     -1.496123
  H       0.401481     -1.170281      0.686200
  H       0.502993      0.595930      0.822657
  H      -2.057474     -0.938477      0.528391
  H      -2.007767      0.684092      0.609823
  H       2.414108     -0.315077     -0.110164
  O      -4.798183      0.069036     -0.606535
  C      -4.090327     -0.054146     -1.514614
  O      -3.486827     -0.177607     -2.494912
14
Coordinates from ORCA-job ./irc_IRC_B E -399.095099313173
  O       1.653154     -0.244263     -0.692364
  N      -1.983255     -0.098114     -0.031442
  C      -0.734273     -0.101406     -0.779300
  C       0.476900     -0.239125      0.117692
  H      -0.667903      0.825307     -1.352387
  H      -0.757156     -0.925126     -1.495692
  H       0.402241     -1.170321      0.686341
  H       0.503762      0.595889      0.822839
  H      -2.056750     -0.938440      0.529054
  H      -2.006834      0.684020      0.610663
  H       2.414685     -0.315108     -0.110327
  O      -4.800260      0.069120     -0.607562
  C      -4.092708     -0.054145     -1.516325
  O      -3.488672     -0.177600     -2.495828
14
Coordinates from ORCA-job ./irc_IRC_B E -399.095139769041
  O       1.653609     -0.244247     -0.692408
  N      -1.982817     -0.098062     -0.030838
  C      -0.733898     -0.101400     -0.778909
  C       0.477477     -0.239141      0.117844
  H      -0.667596      0.825300     -1.352020
  H      -0.756916     -0.925131     -1.495285
  H       0.402958     -1.170359      0.686474
  H       0.504487      0.595851      0.823010
  H      -2.056069     -0.938403      0.529676
  H      -2.005954      0.683956      0.611457
  H       2.415232     -0.315138     -0.110481
  O      -4.801994      0.069159     -0.608824
  C      -4.095266     -0.054086     -1.517491
  O      -3.490321     -0.177614     -2.496845
14
Coordinates from ORCA-job ./irc_IRC_B E -399.095181989546
  O       1.654097     -0.244230     -0.692453
  N      -1.982353     -0.097996     -0.030193
  C      -0.733497     -0.101396     -0.778490
  C       0.478090     -0.239158      0.118007
  H      -0.667267      0.825295     -1.351629
  H      -0.756659     -0.925135     -1.494851
  H       0.403721     -1.170399      0.686617
  H       0.505260      0.595810      0.823195
  H      -2.055345     -0.938366      0.530338
  H      -2.005017      0.683882      0.612298
  H       2.415811     -0.315168     -0.110650
  O      -4.804083      0.069243     -0.609855
  C      -4.097664     -0.054081     -1.519178
  O      -3.492162     -0.177614     -2.497796
14
Coordinates from ORCA-job ./irc_IRC_B E -399.095223815609
  O       1.654564     -0.244212     -0.692499
  N      -1.981903     -0.097940     -0.029572
  C      -0.733108     -0.101390     -0.778084
  C       0.478686     -0.239175      0.118168
  H      -0.666945      0.825289     -1.351247
  H      -0.756408     -0.925140     -1.494427
  H       0.404465     -1.170437      0.686759
  H       0.506012      0.595770      0.823376
  H      -2.054644     -0.938327      0.530977
  H      -2.004108      0.683815      0.613116
  H       2.416376     -0.315199     -0.110816
  O      -4.805878      0.069283     -0.611166
  C      -4.100334     -0.054013     -1.520320
  O      -3.493843     -0.177638     -2.498905
14
Coordinates from ORCA-job ./irc_IRC_B E -399.095264954031
  O       1.655028     -0.244194     -0.692544
  N      -1.981459     -0.097877     -0.028956
  C      -0.732723     -0.101386     -0.777679
  C       0.479276     -0.239191      0.118329
  H      -0.666623      0.825283     -1.350868
  H      -0.756156     -0.925144     -1.494005
  H       0.405203     -1.170475      0.686901
  H       0.506759      0.595731      0.823558
  H      -2.053951     -0.938289      0.531610
  H      -2.003207      0.683744      0.613924
  H       2.416932     -0.315229     -0.110986
  O      -4.807897      0.069365     -0.612158
  C      -4.102605     -0.054014     -1.521969
  O      -3.495645     -0.177637     -2.499796
14
Coordinates from ORCA-job ./irc_IRC_B E -399.095307467409
  O       1.655506     -0.244175     -0.692593
  N      -1.980999     -0.097815     -0.028320
  C      -0.732322     -0.101380     -0.777259
  C       0.479889     -0.239207      0.118497
  H      -0.666286      0.825277     -1.350473
  H      -0.755894     -0.925149     -1.493566
  H       0.405970     -1.170516      0.687051
  H       0.507536      0.595690      0.823749
  H      -2.053234     -0.938249      0.532264
  H      -2.002272      0.683672      0.614763
  H       2.417513     -0.315260     -0.111164
  O      -4.809796      0.069415     -0.613450
  C      -4.105272     -0.053957     -1.523233
  O      -3.497408     -0.177660     -2.500906
14
Coordinates from ORCA-job ./irc_IRC_B E -399.095346795277
  O       1.655961     -0.244156     -0.692639
  N      -1.980560     -0.097753     -0.027714
  C      -0.731939     -0.101375     -0.776856
  C       0.480474     -0.239224      0.118660
  H      -0.665963      0.825272     -1.350095
  H      -0.755642     -0.925154     -1.493146
  H       0.406703     -1.170553      0.687196
  H       0.508279      0.595651      0.823933
  H      -2.052553     -0.938211      0.532886
  H      -2.001382      0.683602      0.615561
  H       2.418064     -0.315290     -0.111340
  O      -4.811807      0.069499     -0.614425
  C      -4.107494     -0.053961     -1.524880
  O      -3.499209     -0.177661     -2.501782
14
Coordinates from ORCA-job ./irc_IRC_B E -399.095388654741
  O       1.656436     -0.244136     -0.692690
  N      -1.980101     -0.097691     -0.027080
  C      -0.731537     -0.101369     -0.776432
  C       0.481087     -0.239240      0.118833
  H      -0.665621      0.825266     -1.349697
  H      -0.755376     -0.925160     -1.492704
  H       0.407474     -1.170592      0.687350
  H       0.509059      0.595611      0.824127
  H      -2.051841     -0.938170      0.533535
  H      -2.000449      0.683530      0.616398
  H       2.418644     -0.315321     -0.111525
  O      -4.813708      0.069549     -0.615722
  C      -4.110153     -0.053903     -1.526132
  O      -3.500981     -0.177687     -2.502900
14
Coordinates from ORCA-job ./irc_IRC_B E -399.095427244805
  O       1.656885     -0.244117     -0.692738
  N      -1.979666     -0.097628     -0.026478
  C      -0.731154     -0.101365     -0.776029
  C       0.481669     -0.239256      0.118998
  H      -0.665294      0.825261     -1.349318
  H      -0.755121     -0.925165     -1.492282
  H       0.408207     -1.170630      0.687498
  H       0.509801      0.595572      0.824314
  H      -2.051168     -0.938133      0.534151
  H      -1.999564      0.683460      0.617191
  H       2.419194     -0.315350     -0.111706
  O      -4.815715      0.069634     -0.616695
  C      -4.112358     -0.053906     -1.527767
  O      -3.502784     -0.177691     -2.503780
14
Coordinates from ORCA-job ./irc_IRC_B E -399.095468166335
  O       1.657356     -0.244096     -0.692790
  N      -1.979210     -0.097564     -0.025847
  C      -0.730750     -0.101359     -0.775605
  C       0.482282     -0.239272      0.119175
  H      -0.664948      0.825256     -1.348918
  H      -0.754852     -0.925171     -1.491837
  H       0.408979     -1.170669      0.687656
  H       0.510583      0.595531      0.824512
  H      -2.050462     -0.938093      0.534794
  H      -1.998635      0.683387      0.618024
  H       2.419772     -0.315382     -0.111899
  O      -4.817751      0.069709     -0.617818
  C      -4.114769     -0.053892     -1.529344
  O      -3.504663     -0.177700     -2.504744
14
Coordinates from ORCA-job ./irc_IRC_B E -399.095507142680
  O       1.657813     -0.244075     -0.692841
  N      -1.978763     -0.097501     -0.025233
  C      -0.730357     -0.101354     -0.775190
  C       0.482879     -0.239288      0.119349
  H      -0.664609      0.825251     -1.348527
  H      -0.754587     -0.925177     -1.491402
  H       0.409733     -1.170707      0.687812
  H       0.511347      0.595492      0.824707
  H      -2.049777     -0.938054      0.535420
  H      -1.997731      0.683316      0.618835
  H       2.420336     -0.315412     -0.112090
  O      -4.819615      0.069762     -0.619073
  C      -4.117356     -0.053833     -1.530534
  O      -3.506381     -0.177733     -2.505873
14
Coordinates from ORCA-job ./irc_IRC_B E -399.095546777408
  O       1.658273     -0.244054     -0.692894
  N      -1.978313     -0.097437     -0.024613
  C      -0.729958     -0.101348     -0.774769
  C       0.483483     -0.239304      0.119525
  H      -0.664263      0.825245     -1.348130
  H      -0.754319     -0.925183     -1.490962
  H       0.410496     -1.170745      0.687971
  H       0.512119      0.595452      0.824906
  H      -2.049088     -0.938015      0.536050
  H      -1.996820      0.683243      0.619653
  H       2.420906     -0.315444     -0.112286
  O      -4.821678      0.069848     -0.620107
  C      -4.119628     -0.053835     -1.532217
  O      -3.508278     -0.177737     -2.506767
14
Coordinates from ORCA-job ./irc_IRC_B E -399.095585586176
  O       1.658729     -0.244032     -0.692947
  N      -1.977864     -0.097375     -0.023998
  C      -0.729561     -0.101343     -0.774351
  C       0.484082     -0.239319      0.119702
  H      -0.663919      0.825240     -1.347735
  H      -0.754049     -0.925189     -1.490522
  H       0.411255     -1.170783      0.688131
  H       0.512888      0.595412      0.825105
  H      -2.048405     -0.937977      0.536675
  H      -1.995916      0.683172      0.620464
  H       2.421471     -0.315474     -0.112484
  O      -4.823554      0.069903     -0.621366
  C      -4.122215     -0.053775     -1.533409
  O      -3.510010     -0.177772     -2.507904
14
Coordinates from ORCA-job ./irc_IRC_B E -399.095624505038
  O       1.659185     -0.244010     -0.693001
  N      -1.977414     -0.097312     -0.023381
  C      -0.729163     -0.101338     -0.773929
  C       0.484684     -0.239335      0.119881
  H      -0.663571      0.825234     -1.347338
  H      -0.753779     -0.925195     -1.490081
  H       0.412017     -1.170821      0.688293
  H       0.513659      0.595373      0.825306
  H      -2.047724     -0.937940      0.537298
  H      -1.995012      0.683100      0.621276
  H       2.422039     -0.315506     -0.112686
  O      -4.825598      0.069988     -0.622413
  C      -4.124492     -0.053772     -1.535049
  O      -3.511897     -0.177780     -2.508815
14
Coordinates from ORCA-job ./irc_IRC_B E -399.095663389768
  O       1.659644     -0.243987     -0.693056
  N      -1.976957     -0.097249     -0.022756
  C      -0.728760     -0.101333     -0.773503
  C       0.485292     -0.239351      0.120063
  H      -0.663218      0.825229     -1.346935
  H      -0.753503     -0.925202     -1.489634
  H       0.412788     -1.170859      0.688458
  H       0.514440      0.595333      0.825510
  H      -2.047039     -0.937904      0.537928
  H      -1.994100      0.683027      0.622096
  H       2.422612     -0.315537     -0.112892
  O      -4.827485      0.070043     -0.623711
  C      -4.127136     -0.053704     -1.536213
  O      -3.513648     -0.177820     -2.509994
14
Coordinates from ORCA-job ./irc_IRC_B E -399.095700054579
  O       1.660076     -0.243965     -0.693109
  N      -1.976523     -0.097190     -0.022164
  C      -0.728377     -0.101327     -0.773099
  C       0.485868     -0.239366      0.120237
  H      -0.662882      0.825224     -1.346552
  H      -0.753241     -0.925208     -1.489209
  H       0.413519     -1.170895      0.688616
  H       0.515180      0.595295      0.825705
  H      -2.046392     -0.937870      0.538521
  H      -1.993239      0.682959      0.622870
  H       2.423155     -0.315567     -0.113091
  O      -4.829465      0.070130     -0.624686
  C      -4.129271     -0.053707     -1.537832
  O      -3.515476     -0.177825     -2.510848
14
Coordinates from ORCA-job ./irc_IRC_B E -399.095738812123
  O       1.660536     -0.243942     -0.693166
  N      -1.976059     -0.097127     -0.021534
  C      -0.727968     -0.101323     -0.772666
  C       0.486483     -0.239381      0.120424
  H      -0.662522      0.825218     -1.346143
  H      -0.752960     -0.925215     -1.488756
  H       0.414300     -1.170933      0.688787
  H       0.515970      0.595255      0.825914
  H      -2.045705     -0.937836      0.539153
  H      -1.992324      0.682886      0.623695
  H       2.423733     -0.315600     -0.113304
  O      -4.831378      0.070189     -0.625988
  C      -4.131908     -0.053642     -1.539040
  O      -3.517267     -0.177864     -2.512015
14
Coordinates from ORCA-job ./irc_IRC_B E -399.095774526891
  O       1.660964     -0.243919     -0.693220
  N      -1.975626     -0.097070     -0.020945
  C      -0.727586     -0.101318     -0.772262
  C       0.487056     -0.239396      0.120599
  H      -0.662186      0.825213     -1.345760
  H      -0.752698     -0.925222     -1.488332
  H       0.415027     -1.170968      0.688946
  H       0.516706      0.595217      0.826110
  H      -2.045069     -0.937805      0.539739
  H      -1.991474      0.682819      0.624462
  H       2.424271     -0.315630     -0.113507
  O      -4.833336      0.070277     -0.626967
  C      -4.134049     -0.053639     -1.540607
  O      -3.519069     -0.177873     -2.512896
14
Coordinates from ORCA-job ./irc_IRC_B E -399.095814006825
  O       1.661423     -0.243895     -0.693279
  N      -1.975156     -0.097008     -0.020310
  C      -0.727174     -0.101313     -0.771826
  C       0.487674     -0.239412      0.120789
  H      -0.661822      0.825207     -1.345348
  H      -0.752414     -0.925229     -1.487876
  H       0.415812     -1.171006      0.689120
  H       0.517499      0.595177      0.826322
  H      -2.044386     -0.937774      0.540369
  H      -1.990562      0.682746      0.625287
  H       2.424852     -0.315662     -0.113726
  O      -4.835357      0.070356     -0.628140
  C      -4.136481     -0.053610     -1.542113
  O      -3.520974     -0.177892     -2.513910
14
Coordinates from ORCA-job ./irc_IRC_B E -399.095850312400
  O       1.661880     -0.243870     -0.693338
  N      -1.974686     -0.096949     -0.019674
  C      -0.726762     -0.101309     -0.771390
  C       0.488290     -0.239428      0.120978
  H      -0.661459      0.825201     -1.344935
  H      -0.752130     -0.925235     -1.487419
  H       0.416595     -1.171044      0.689295
  H       0.518291      0.595137      0.826535
  H      -2.043707     -0.937743      0.540996
  H      -1.989653      0.682674      0.626110
  H       2.425430     -0.315695     -0.113948
  O      -4.837313      0.070426     -0.629389
  C      -4.139081     -0.053547     -1.543359
  O      -3.522763     -0.177933     -2.515102
14
Coordinates from ORCA-job ./irc_IRC_B E -399.095886280986
  O       1.662310     -0.243846     -0.693395
  N      -1.974237     -0.096891     -0.019070
  C      -0.726370     -0.101305     -0.770977
  C       0.488873     -0.239443      0.121161
  H      -0.661113      0.825196     -1.344542
  H      -0.751860     -0.925242     -1.486986
  H       0.417337     -1.171079      0.689461
  H       0.519042      0.595098      0.826737
  H      -2.043067     -0.937718      0.541590
  H      -1.988796      0.682606      0.626888
  H       2.425979     -0.315726     -0.114161
  O      -4.839292      0.070517     -0.630408
  C      -4.141228     -0.053546     -1.544993
  O      -3.524646     -0.177936     -2.515944
14
Coordinates from ORCA-job ./irc_IRC_B E -399.095923300118
  O       1.662762     -0.243821     -0.693455
  N      -1.973763     -0.096835     -0.018435
  C      -0.725959     -0.101301     -0.770541
  C       0.489485     -0.239458      0.121351
  H      -0.660750      0.825189     -1.344130
  H      -0.751576     -0.925249     -1.486531
  H       0.418115     -1.171116      0.689637
  H       0.519828      0.595059      0.826950
  H      -2.042399     -0.937691      0.542210
  H      -1.987901      0.682536      0.627703
  H       2.426552     -0.315758     -0.114386
  O      -4.841210      0.070586     -0.631681
  C      -4.143840     -0.053473     -1.546176
  O      -3.526414     -0.177980     -2.517154
14
Coordinates from ORCA-job ./irc_IRC_B E -399.095958472565
  O       1.663186     -0.243797     -0.693513
  N      -1.973314     -0.096779     -0.017834
  C      -0.725571     -0.101298     -0.770130
  C       0.490064     -0.239473      0.121532
  H      -0.660407      0.825183     -1.343739
  H      -0.751306     -0.925256     -1.486100
  H       0.418849     -1.171151      0.689804
  H       0.520571      0.595021      0.827152
  H      -2.041770     -0.937669      0.542796
  H      -1.987058      0.682469      0.628470
  H       2.427094     -0.315789     -0.114600
  O      -4.843155      0.070676     -0.632705
  C      -4.145993     -0.053463     -1.547743
  O      -3.528257     -0.177987     -2.518029
14
Coordinates from ORCA-job ./irc_IRC_B E -399.095983976725
  O       1.663589     -0.243768     -0.693586
  N      -1.972808     -0.096690     -0.017191
  C      -0.725183     -0.101313     -0.769705
  C       0.490658     -0.239488      0.121723
  H      -0.660054      0.825178     -1.343331
  H      -0.751027     -0.925259     -1.485658
  H       0.419596     -1.171184      0.689982
  H       0.521328      0.594984      0.827366
  H      -2.041155     -0.937690      0.543398
  H      -1.986235      0.682387      0.629233
  H       2.427655     -0.315824     -0.114826
  O      -4.845178      0.070796     -0.633657
  C      -4.147656     -0.053540     -1.550172
  O      -3.530598     -0.177903     -2.518215
14
Coordinates from ORCA-job ./irc_IRC_B E -399.095998669987
  O       1.663683     -0.243764     -0.693594
  N      -1.972720     -0.096698     -0.017070
  C      -0.725100     -0.101307     -0.769619
  C       0.490774     -0.239491      0.121759
  H      -0.659984      0.825176     -1.343251
  H      -0.750973     -0.925262     -1.485571
  H       0.419746     -1.171191      0.690017
  H       0.521479      0.594977      0.827407
  H      -2.041027     -0.937678      0.543512
  H      -1.986063      0.682381      0.629396
  H       2.427760     -0.315830     -0.114875
  O      -4.845441      0.070791     -0.634042
  C      -4.148535     -0.053453     -1.549842
  O      -3.530669     -0.177965     -2.518867
14
Coordinates from ORCA-job ./irc_IRC_B E -399.096029047820
  O       1.664051     -0.243745     -0.693635
  N      -1.972358     -0.096694     -0.016569
  C      -0.724763     -0.101292     -0.769271
  C       0.491254     -0.239503      0.121909
  H      -0.659697      0.825167     -1.342923
  H      -0.750750     -0.925271     -1.485213
  H       0.420359     -1.171221      0.690157
  H       0.522097      0.594945      0.827575
  H      -2.040504     -0.937645      0.543991
  H      -1.985362      0.682343      0.630050
  H       2.428201     -0.315855     -0.115065
  O      -4.847072      0.070874     -0.634880
  C      -4.150693     -0.053371     -1.550580
  O      -3.531831     -0.178045     -2.520186
14
Coordinates from ORCA-job ./irc_IRC_B E -399.096064176440
  O       1.664507     -0.243720     -0.693694
  N      -1.971876     -0.096657     -0.015923
  C      -0.724350     -0.101285     -0.768829
  C       0.491868     -0.239520      0.122103
  H      -0.659333      0.825159     -1.342504
  H      -0.750463     -0.925280     -1.484754
  H       0.421141     -1.171257      0.690338
  H       0.522885      0.594905      0.827790
  H      -2.039842     -0.937619      0.544608
  H      -1.984475      0.682278      0.630870
  H       2.428771     -0.315888     -0.115302
  O      -4.849237      0.070996     -0.635833
  C      -4.153007     -0.053349     -1.552180
  O      -3.533659     -0.178077     -2.521329
14
Coordinates from ORCA-job ./irc_IRC_B E -399.096098825374
  O       1.664908     -0.243695     -0.693765
  N      -1.971423     -0.096561     -0.015319
  C      -0.723961     -0.101296     -0.768422
  C       0.492451     -0.239534      0.122288
  H      -0.658993      0.825156     -1.342112
  H      -0.750192     -0.925282     -1.484320
  H       0.421873     -1.171291      0.690506
  H       0.523624      0.594867      0.827992
  H      -2.039222     -0.937627      0.545206
  H      -1.983648      0.682192      0.631620
  H       2.429326     -0.315921     -0.115508
  O      -4.850673      0.071003     -0.637532
  C      -4.155522     -0.053266     -1.553230
  O      -3.535615     -0.178060     -2.522044
14
Coordinates from ORCA-job ./irc_IRC_B E -399.096132832034
  O       1.665341     -0.243672     -0.693816
  N      -1.970963     -0.096546     -0.014707
  C      -0.723571     -0.101286     -0.768003
  C       0.493025     -0.239550      0.122468
  H      -0.658651      0.825147     -1.341718
  H      -0.749924     -0.925292     -1.483891
  H       0.422605     -1.171325      0.690676
  H       0.524362      0.594832      0.828195
  H      -2.038604     -0.937599      0.545780
  H      -1.982821      0.682140      0.632394
  H       2.429853     -0.315952     -0.115738
  O      -4.852797      0.071138     -0.638298
  C      -4.157740     -0.053230     -1.554635
  O      -3.537183     -0.178119     -2.523346
14
Coordinates from ORCA-job ./irc_IRC_B E -399.096167985479
  O       1.665766     -0.243646     -0.693884
  N      -1.970482     -0.096474     -0.014068
  C      -0.723167     -0.101291     -0.767577
  C       0.493627     -0.239564      0.122660
  H      -0.658298      0.825141     -1.341308
  H      -0.749643     -0.925297     -1.483442
  H       0.423365     -1.171360      0.690853
  H       0.525129      0.594793      0.828406
  H      -2.037964     -0.937600      0.546393
  H      -1.981967      0.682062      0.633181
  H       2.430421     -0.315986     -0.115961
  O      -4.854716      0.071226     -0.639487
  C      -4.159803     -0.053243     -1.556499
  O      -3.539335     -0.178076     -2.523906
14
Coordinates from ORCA-job ./irc_IRC_B E -399.096198238571
  O       1.666148     -0.243624     -0.693932
  N      -1.970060     -0.096454     -0.013514
  C      -0.722817     -0.101285     -0.767201
  C       0.494141     -0.239578      0.122822
  H      -0.657993      0.825134     -1.340954
  H      -0.749403     -0.925305     -1.483056
  H       0.424019     -1.171391      0.691006
  H       0.525789      0.594760      0.828588
  H      -2.037413     -0.937584      0.546911
  H      -1.981231      0.682012      0.633871
  H       2.430896     -0.316014     -0.116166
  O      -4.856442      0.071318     -0.640408
  C      -4.162037     -0.053161     -1.557411
  O      -3.540665     -0.178143     -2.525195
14
Coordinates from ORCA-job ./irc_IRC_B E -399.096232887252
  O       1.666595     -0.243599     -0.693994
  N      -1.969553     -0.096413     -0.012845
  C      -0.722399     -0.101282     -0.766756
  C       0.494756     -0.239595      0.123017
  H      -0.657631      0.825126     -1.340531
  H      -0.749117     -0.925314     -1.482596
  H       0.424799     -1.171426      0.691189
  H       0.526574      0.594722      0.828804
  H      -2.036758     -0.937577      0.547534
  H      -1.980360      0.681946      0.634688
  H       2.431466     -0.316049     -0.116407
  O      -4.858564      0.071443     -0.641418
  C      -4.164317     -0.053135     -1.559068
  O      -3.542560     -0.178160     -2.526256
14
Coordinates from ORCA-job ./irc_IRC_B E -399.096269327475
  O       1.666992     -0.243574     -0.694059
  N      -1.969086     -0.096356     -0.012232
  C      -0.722016     -0.101287     -0.766352
  C       0.495324     -0.239608      0.123198
  H      -0.657301      0.825120     -1.340142
  H      -0.748854     -0.925318     -1.482172
  H       0.425512     -1.171459      0.691356
  H       0.527294      0.594685      0.829002
  H      -2.036159     -0.937584      0.548113
  H      -1.979563      0.681877      0.635431
  H       2.431999     -0.316081     -0.116620
  O      -4.860112      0.071485     -0.642884
  C      -4.166704     -0.053057     -1.560185
  O      -3.544394     -0.178156     -2.527092
14
Coordinates from ORCA-job ./irc_IRC_B E -399.096300649522
  O       1.667430     -0.243547     -0.694127
  N      -1.968573     -0.096308     -0.011560
  C      -0.721598     -0.101290     -0.765910
  C       0.495939     -0.239624      0.123393
  H      -0.656943      0.825112     -1.339719
  H      -0.748569     -0.925325     -1.481712
  H       0.426287     -1.171494      0.691539
  H       0.528074      0.594646      0.829217
  H      -2.035508     -0.937589      0.548740
  H      -1.978701      0.681809      0.636244
  H       2.432572     -0.316117     -0.116857
  O      -4.861869      0.071548     -0.644374
  C      -4.169377     -0.052952     -1.561271
  O      -3.546231     -0.178182     -2.528243
14
Coordinates from ORCA-job ./irc_IRC_B E -399.096314639676
  O       1.667597     -0.243538     -0.694147
  N      -1.968384     -0.096302     -0.011311
  C      -0.721445     -0.101287     -0.765745
  C       0.496162     -0.239630      0.123463
  H      -0.656812      0.825108     -1.339564
  H      -0.748466     -0.925329     -1.481544
  H       0.426570     -1.171507      0.691606
  H       0.528360      0.594632      0.829296
  H      -2.035270     -0.937586      0.548967
  H      -1.978385      0.681788      0.636546
  H       2.432776     -0.316129     -0.116949
  O      -4.862812      0.071627     -0.644516
  C      -4.170068     -0.052967     -1.562066
  O      -3.546894     -0.178193     -2.528676
14
Coordinates from ORCA-job ./irc_IRC_B E -399.096348865669
  O       1.668028     -0.243514     -0.694207
  N      -1.967883     -0.096270     -0.010654
  C      -0.721041     -0.101286     -0.765313
  C       0.496755     -0.239646      0.123650
  H      -0.656467      0.825100     -1.339153
  H      -0.748192     -0.925337     -1.481101
  H       0.427319     -1.171541      0.691782
  H       0.529113      0.594595      0.829504
  H      -2.034641     -0.937587      0.549572
  H      -1.977552      0.681727      0.637337
  H       2.433324     -0.316163     -0.117184
  O      -4.864832      0.071749     -0.645522
  C      -4.172340     -0.052922     -1.563550
  O      -3.548660     -0.178218     -2.529801
14
Coordinates from ORCA-job ./irc_IRC_B E -399.096384259693
  O       1.668463     -0.243487     -0.694275
  N      -1.967364     -0.096226     -0.009972
  C      -0.720624     -0.101289     -0.764871
  C       0.497369     -0.239662      0.123845
  H      -0.656113      0.825092     -1.338730
  H      -0.747910     -0.925344     -1.480642
  H       0.428089     -1.171576      0.691964
  H       0.529889      0.594557      0.829718
  H      -2.033993     -0.937596      0.550201
  H      -1.976697      0.681659      0.638149
  H       2.433894     -0.316198     -0.117421
  O      -4.866835      0.071862     -0.646671
  C      -4.174536     -0.052904     -1.565304
  O      -3.550700     -0.178200     -2.530632
14
Coordinates from ORCA-job ./irc_IRC_B E -399.096415981415
  O       1.668871     -0.243464     -0.694332
  N      -1.966879     -0.096198     -0.009340
  C      -0.720241     -0.101289     -0.764458
  C       0.497932     -0.239677      0.124021
  H      -0.655788      0.825084     -1.338339
  H      -0.747652     -0.925351     -1.480220
  H       0.428797     -1.171608      0.692132
  H       0.530602      0.594522      0.829915
  H      -2.033396     -0.937603      0.550780
  H      -1.975911      0.681602      0.638903
  H       2.434412     -0.316231     -0.117645
  O      -4.868656      0.071965     -0.647757
  C      -4.176874     -0.052824     -1.566452
  O      -3.552285     -0.178241     -2.531847
14
Coordinates from ORCA-job ./irc_IRC_B E -399.096451915493
  O       1.669313     -0.243438     -0.694398
  N      -1.966345     -0.096164     -0.008641
  C      -0.719820     -0.101291     -0.764008
  C       0.498549     -0.239693      0.124216
  H      -0.655435      0.825074     -1.337909
  H      -0.747371     -0.925359     -1.479757
  H       0.429571     -1.171643      0.692315
  H       0.531381      0.594483      0.830130
  H      -2.032743     -0.937617      0.551417
  H      -1.975053      0.681538      0.639727
  H       2.434982     -0.316267     -0.117889
  O      -4.870724      0.072094     -0.648849
  C      -4.179145     -0.052789     -1.568129
  O      -3.554229     -0.178242     -2.532865
14
Coordinates from ORCA-job ./irc_IRC_B E -399.096484624566
  O       1.669713     -0.243414     -0.694460
  N      -1.965855     -0.096130     -0.007998
  C      -0.719436     -0.101294     -0.763598
  C       0.499114     -0.239708      0.124394
  H      -0.655114      0.825066     -1.337516
  H      -0.747115     -0.925365     -1.479333
  H       0.430279     -1.171675      0.692483
  H       0.532093      0.594448      0.830326
  H      -2.032145     -0.937632      0.552004
  H      -1.974269      0.681477      0.640482
  H       2.435506     -0.316300     -0.118109
  O      -4.872389      0.072172     -0.650154
  C      -4.181504     -0.052703     -1.569268
  O      -3.555948     -0.178255     -2.533891
14
Coordinates from ORCA-job ./irc_IRC_B E -399.096516950972
  O       1.670144     -0.243388     -0.694533
  N      -1.965312     -0.096087     -0.007285
  C      -0.719018     -0.101302     -0.763150
  C       0.499734     -0.239724      0.124588
  H      -0.654768      0.825058     -1.337084
  H      -0.746839     -0.925370     -1.478869
  H       0.431049     -1.171709      0.692666
  H       0.532868      0.594409      0.830539
  H      -2.031491     -0.937658      0.552651
  H      -1.973418      0.681407      0.641305
  H       2.436082     -0.316338     -0.118346
  O      -4.874010      0.072226     -0.651850
  C      -4.184146     -0.052595     -1.570429
  O      -3.557941     -0.178243     -2.534842
14
Coordinates from ORCA-job ./irc_IRC_B E -399.096544256824
  O       1.670504     -0.243369     -0.694575
  N      -1.964886     -0.096084     -0.006730
  C      -0.718689     -0.101297     -0.762791
  C       0.500212     -0.239739      0.124737
  H      -0.654496      0.825049     -1.336747
  H      -0.746623     -0.925379     -1.478508
  H       0.431653     -1.171736      0.692809
  H       0.533475      0.594380      0.830706
  H      -2.030978     -0.937665      0.553151
  H      -1.972749      0.681367      0.641963
  H       2.436515     -0.316365     -0.118546
  O      -4.876063      0.072412     -0.652114
  C      -4.185794     -0.052584     -1.571882
  O      -3.559149     -0.178303     -2.536112
14
Coordinates from ORCA-job ./irc_IRC_B E -399.096579250110
  O       1.670931     -0.243344     -0.694643
  N      -1.964352     -0.096048     -0.006028
  C      -0.718276     -0.101303     -0.762349
  C       0.500819     -0.239755      0.124928
  H      -0.654157      0.825040     -1.336322
  H      -0.746353     -0.925385     -1.478052
  H       0.432410     -1.171769      0.692988
  H       0.534236      0.594343      0.830914
  H      -2.030334     -0.937690      0.553789
  H      -1.971912      0.681301      0.642777
  H       2.437078     -0.316402     -0.118782
  O      -4.877826      0.072497     -0.653555
  C      -4.188236     -0.052505     -1.573238
  O      -3.561095     -0.178294     -2.537068
14
Coordinates from ORCA-job ./irc_IRC_B E -399.096613458682
  O       1.671352     -0.243320     -0.694706
  N      -1.963829     -0.096022     -0.005340
  C      -0.717876     -0.101306     -0.761916
  C       0.501408     -0.239771      0.125112
  H      -0.653829      0.825031     -1.335908
  H      -0.746092     -0.925392     -1.477609
  H       0.433145     -1.171802      0.693163
  H       0.534975      0.594306      0.831117
  H      -2.029706     -0.937712      0.554410
  H      -1.971098      0.681240      0.643574
  H       2.437619     -0.316437     -0.119015
  O      -4.879802      0.072630     -0.654604
  C      -4.190410     -0.052464     -1.574825
  O      -3.562925     -0.178295     -2.538093
14
Coordinates from ORCA-job ./irc_IRC_B E -399.096648294515
  O       1.671792     -0.243294     -0.694772
  N      -1.963277     -0.095997     -0.004613
  C      -0.717458     -0.101310     -0.761462
  C       0.502025     -0.239788      0.125304
  H      -0.653490      0.825021     -1.335473
  H      -0.745821     -0.925400     -1.477145
  H       0.433913     -1.171836      0.693345
  H       0.535747      0.594268      0.831328
  H      -2.029048     -0.937737      0.555064
  H      -1.970248      0.681176      0.644411
  H       2.438185     -0.316475     -0.119259
  O      -4.881902      0.072778     -0.655662
  C      -4.192619     -0.052430     -1.576576
  O      -3.564867     -0.178290     -2.539131
14
Coordinates from ORCA-job ./irc_IRC_B E -399.096679557970
  O       1.672172     -0.243272     -0.694832
  N      -1.962795     -0.095973     -0.003979
  C      -0.717093     -0.101314     -0.761065
  C       0.502563     -0.239802      0.125471
  H      -0.653195      0.825012     -1.335093
  H      -0.745586     -0.925405     -1.476738
  H       0.434583     -1.171866      0.693504
  H       0.536421      0.594235      0.831512
  H      -2.028473     -0.937763      0.555639
  H      -1.969507      0.681120      0.645143
  H       2.438682     -0.316508     -0.119470
  O      -4.883464      0.072858     -0.656954
  C      -4.194898     -0.052334     -1.577609
  O      -3.566479     -0.178302     -2.540168
14
Coordinates from ORCA-job ./irc_IRC_B E -399.096710971221
  O       1.672601     -0.243247     -0.694903
  N      -1.962238     -0.095941     -0.003246
  C      -0.716680     -0.101323     -0.760610
  C       0.503181     -0.239819      0.125663
  H      -0.652862      0.825004     -1.334657
  H      -0.745321     -0.925411     -1.476273
  H       0.435348     -1.171900      0.693685
  H       0.537190      0.594198      0.831721
  H      -2.027813     -0.937796      0.556302
  H      -1.968660      0.681052      0.645982
  H       2.439252     -0.316547     -0.119708
  O      -4.885111      0.072928     -0.658630
  C      -4.197566     -0.052211     -1.578704
  O      -3.568389     -0.178301     -2.541262
14
Coordinates from ORCA-job ./irc_IRC_B E -399.096724701537
  O       1.672757     -0.243239     -0.694922
  N      -1.962049     -0.095939     -0.002993
  C      -0.716536     -0.101322     -0.760453
  C       0.503390     -0.239825      0.125728
  H      -0.652747      0.824999     -1.334507
  H      -0.745230     -0.925414     -1.476114
  H       0.435610     -1.171911      0.693747
  H       0.537453      0.594185      0.831793
  H      -2.027586     -0.937803      0.556527
  H      -1.968369      0.681032      0.646272
  H       2.439441     -0.316559     -0.119795
  O      -4.886028      0.073017     -0.658725
  C      -4.198182     -0.052224     -1.579487
  O      -3.568992     -0.178311     -2.541711
14
Coordinates from ORCA-job ./irc_IRC_B E -399.096758018781
  O       1.673181     -0.243216     -0.694984
  N      -1.961521     -0.095922     -0.002288
  C      -0.716135     -0.101324     -0.760018
  C       0.503976     -0.239842      0.125911
  H      -0.652429      0.824989     -1.334088
  H      -0.744977     -0.925421     -1.475669
  H       0.436342     -1.171944      0.693921
  H       0.538189      0.594149      0.831994
  H      -2.026953     -0.937831      0.557161
  H      -1.967557      0.680973      0.647081
  H       2.439978     -0.316595     -0.120031
  O      -4.888036      0.073163     -0.659743
  C      -4.200416     -0.052163     -1.580966
  O      -3.570711     -0.178331     -2.542919
14
Coordinates from ORCA-job ./irc_IRC_B E -399.096792277583
  O       1.673606     -0.243191     -0.695052
  N      -1.960977     -0.095896     -0.001564
  C      -0.715728     -0.101330     -0.759572
  C       0.504581     -0.239858      0.126099
  H      -0.652106      0.824980     -1.333659
  H      -0.744719     -0.925427     -1.475211
  H       0.437092     -1.171977      0.694098
  H       0.538943      0.594112      0.832199
  H      -2.026303     -0.937863      0.557815
  H      -1.966726      0.680908      0.647908
  H       2.440534     -0.316633     -0.120266
  O      -4.889994      0.073296     -0.660930
  C      -4.202519     -0.052138     -1.582763
  O      -3.572752     -0.178295     -2.543741
14
Coordinates from ORCA-job ./irc_IRC_B E -399.096823086321
  O       1.674003     -0.243170     -0.695111
  N      -1.960477     -0.095880     -0.000897
  C      -0.715356     -0.101333     -0.759159
  C       0.505133     -0.239874      0.126270
  H      -0.651811      0.824971     -1.333264
  H      -0.744485     -0.925434     -1.474792
  H       0.437780     -1.172008      0.694261
  H       0.539634      0.594079      0.832386
  H      -2.025706     -0.937890      0.558416
  H      -1.965964      0.680850      0.648672
  H       2.441038     -0.316668     -0.120488
  O      -4.891787      0.073419     -0.662024
  C      -4.204787     -0.052047     -1.583900
  O      -3.574284     -0.178330     -2.545011
14
Coordinates from ORCA-job ./irc_IRC_B E -399.096860617247
  O       1.674435     -0.243145     -0.695180
  N      -1.959923     -0.095856     -0.000155
  C      -0.714943     -0.101339     -0.758703
  C       0.505747     -0.239891      0.126460
  H      -0.651486      0.824962     -1.332825
  H      -0.744226     -0.925440     -1.474325
  H       0.438543     -1.172041      0.694442
  H       0.540400      0.594042      0.832594
  H      -2.025041     -0.937925      0.559088
  H      -1.965118      0.680784      0.649520
  H       2.441604     -0.316707     -0.120728
  O      -4.893637      0.073531     -0.663436
  C      -4.207197     -0.051967     -1.585328
  O      -3.576225     -0.178320     -2.546064
14
Coordinates from ORCA-job ./irc_IRC_B E -399.096892241304
  O       1.674870     -0.243121     -0.695246
  N      -1.959374     -0.095838      0.000584
  C      -0.714534     -0.101343     -0.758247
  C       0.506355     -0.239908      0.126649
  H      -0.651165      0.824952     -1.332387
  H      -0.743972     -0.925447     -1.473861
  H       0.439300     -1.172075      0.694621
  H       0.541161      0.594005      0.832801
  H      -2.024379     -0.937957      0.559757
  H      -1.964277      0.680719      0.650366
  H       2.442159     -0.316746     -0.120971
  O      -4.895635      0.073673     -0.664623
  C      -4.209592     -0.051884     -1.586718
  O      -3.577984     -0.178343     -2.547364
14
Coordinates from ORCA-job ./irc_IRC_B E -399.096924700432
  O       1.675284     -0.243098     -0.695311
  N      -1.958847     -0.095817      0.001297
  C      -0.714141     -0.101349     -0.757810
  C       0.506940     -0.239924      0.126831
  H      -0.650859      0.824943     -1.331965
  H      -0.743729     -0.925453     -1.473413
  H       0.440028     -1.172107      0.694793
  H       0.541893      0.593969      0.832999
  H      -2.023741     -0.937990      0.560404
  H      -1.963469      0.680655      0.651182
  H       2.442697     -0.316783     -0.121203
  O      -4.897571      0.073813     -0.665755
  C      -4.211660     -0.051849     -1.588394
  O      -3.579893     -0.178322     -2.548294
14
Coordinates from ORCA-job ./irc_IRC_B E -399.096958493189
  O       1.675712     -0.243075     -0.695377
  N      -1.958305     -0.095799      0.002032
  C      -0.713740     -0.101353     -0.757357
  C       0.507542     -0.239941      0.127018
  H      -0.650545      0.824934     -1.331529
  H      -0.743481     -0.925460     -1.472952
  H       0.440778     -1.172140      0.694971
  H       0.542646      0.593933      0.833203
  H      -2.023084     -0.938023      0.561071
  H      -1.962638      0.680588      0.652023
  H       2.443247     -0.316822     -0.121444
  O      -4.899503      0.073947     -0.667002
  C      -4.214029     -0.051765     -1.589756
  O      -3.581667     -0.178338     -2.549537
14
Coordinates from ORCA-job ./irc_IRC_B E -399.096994500228
  O       1.676144     -0.243050     -0.695447
  N      -1.957758     -0.095778      0.002781
  C      -0.713330     -0.101359     -0.756897
  C       0.508155     -0.239959      0.127209
  H      -0.650227      0.824926     -1.331084
  H      -0.743230     -0.925466     -1.472481
  H       0.441542     -1.172174      0.695152
  H       0.543414      0.593895      0.833410
  H      -2.022412     -0.938057      0.561754
  H      -1.961790      0.680519      0.652882
  H       2.443811     -0.316862     -0.121687
  O      -4.901471      0.074084     -0.668286
  C      -4.216291     -0.051708     -1.591361
  O      -3.583625     -0.178324     -2.550585
14
Coordinates from ORCA-job ./irc_IRC_B E -399.097026016546
  O       1.676572     -0.243027     -0.695513
  N      -1.957222     -0.095760      0.003517
  C      -0.712930     -0.101364     -0.756442
  C       0.508756     -0.239976      0.127396
  H      -0.649917      0.824917     -1.330645
  H      -0.742985     -0.925473     -1.472017
  H       0.442293     -1.172208      0.695330
  H       0.544169      0.593859      0.833614
  H      -2.021751     -0.938089      0.562427
  H      -1.960957      0.680450      0.653729
  H       2.444360     -0.316902     -0.121930
  O      -4.903456      0.074230     -0.669480
  C      -4.218600     -0.051634     -1.592788
  O      -3.585401     -0.178340     -2.551839
14
Coordinates from ORCA-job ./irc_IRC_B E -399.097060798089
  O       1.677001     -0.243003     -0.695583
  N      -1.956681     -0.095739      0.004262
  C      -0.712527     -0.101368     -0.755981
  C       0.509366     -0.239993      0.127588
  H      -0.649604      0.824909     -1.330198
  H      -0.742738     -0.925479     -1.471545
  H       0.443056     -1.172242      0.695510
  H       0.544935      0.593822      0.833821
  H      -2.021079     -0.938122      0.563112
  H      -1.960112      0.680379      0.654589
  H       2.444921     -0.316942     -0.122173
  O      -4.905285      0.074344     -0.670948
  C      -4.221058     -0.051535     -1.594067
  O      -3.587261     -0.178344     -2.553026
14
Coordinates from ORCA-job ./irc_IRC_B E -399.097091535892
  O       1.677410     -0.242981     -0.695647
  N      -1.956174     -0.095722      0.004966
  C      -0.712147     -0.101373     -0.755544
  C       0.509940     -0.240010      0.127768
  H      -0.649310      0.824901     -1.329775
  H      -0.742508     -0.925485     -1.471099
  H       0.443776     -1.172274      0.695682
  H       0.545659      0.593788      0.834017
  H      -2.020444     -0.938152      0.563760
  H      -1.959314      0.680311      0.655403
  H       2.445445     -0.316980     -0.122407
  O      -4.907266      0.074500     -0.671994
  C      -4.223138     -0.051486     -1.595597
  O      -3.588998     -0.178352     -2.554173
14
Coordinates from ORCA-job ./irc_IRC_B E -399.097126145123
  O       1.677836     -0.242957     -0.695718
  N      -1.955640     -0.095701      0.005712
  C      -0.711746     -0.101378     -0.755080
  C       0.510550     -0.240027      0.127960
  H      -0.649001      0.824893     -1.329324
  H      -0.742264     -0.925490     -1.470624
  H       0.444540     -1.172308      0.695863
  H       0.546427      0.593751      0.834224
  H      -2.019771     -0.938184      0.564448
  H      -1.958468      0.680237      0.656266
  H       2.446006     -0.317021     -0.122652
  O      -4.909230      0.074640     -0.673295
  C      -4.225288     -0.051445     -1.597294
  O      -3.591019     -0.178324     -2.555124
14
Coordinates from ORCA-job ./irc_IRC_B E -399.097156325614
  O       1.678243     -0.242934     -0.695782
  N      -1.955140     -0.095683      0.006415
  C      -0.711368     -0.101383     -0.754641
  C       0.511123     -0.240043      0.128142
  H      -0.648710      0.824886     -1.328898
  H      -0.742036     -0.925496     -1.470175
  H       0.445262     -1.172340      0.696035
  H       0.547153      0.593716      0.834421
  H      -2.019134     -0.938212      0.565099
  H      -1.957669      0.680167      0.657083
  H       2.446529     -0.317060     -0.122888
  O      -4.911149      0.074785     -0.674439
  C      -4.227525     -0.051363     -1.598571
  O      -3.592649     -0.178354     -2.556437
14
Coordinates from ORCA-job ./irc_IRC_B E -399.097191184050
  O       1.678667     -0.242910     -0.695855
  N      -1.954613     -0.095662      0.007156
  C      -0.710970     -0.101387     -0.754177
  C       0.511732     -0.240060      0.128336
  H      -0.648402      0.824879     -1.328445
  H      -0.741796     -0.925502     -1.469699
  H       0.446028     -1.172374      0.696218
  H       0.547923      0.593678      0.834629
  H      -2.018459     -0.938243      0.565790
  H      -1.956824      0.680091      0.657949
  H       2.447089     -0.317102     -0.123136
  O      -4.912941      0.074895     -0.675988
  C      -4.229944     -0.051267     -1.599857
  O      -3.594556     -0.178350     -2.557561
14
Coordinates from ORCA-job ./irc_IRC_B E -399.097220602101
  O       1.679074     -0.242888     -0.695920
  N      -1.954120     -0.095644      0.007859
  C      -0.710594     -0.101391     -0.753735
  C       0.512306     -0.240077      0.128518
  H      -0.648113      0.824872     -1.328015
  H      -0.741570     -0.925507     -1.469247
  H       0.446754     -1.172406      0.696392
  H       0.548653      0.593644      0.834828
  H      -2.017820     -0.938268      0.566444
  H      -1.956024      0.680017      0.658769
  H       2.447612     -0.317141     -0.123375
  O      -4.914959      0.075059     -0.677018
  C      -4.232042     -0.051211     -1.601313
  O      -3.596224     -0.178373     -2.558828
14
Coordinates from ORCA-job ./irc_IRC_B E -399.097252922812
  O       1.679487     -0.242865     -0.695992
  N      -1.953613     -0.095622      0.008583
  C      -0.710207     -0.101395     -0.753277
  C       0.512901     -0.240094      0.128711
  H      -0.647813      0.824866     -1.327568
  H      -0.741336     -0.925512     -1.468777
  H       0.447507     -1.172440      0.696572
  H       0.549411      0.593607      0.835034
  H      -2.017158     -0.938296      0.567123
  H      -1.955196      0.679940      0.659621
  H       2.448160     -0.317182     -0.123620
  O      -4.916902      0.075201     -0.678299
  C      -4.234021     -0.051191     -1.603112
  O      -3.598289     -0.178332     -2.559640
14
Coordinates from ORCA-job ./irc_IRC_B E -399.097281303090
  O       1.679863     -0.242844     -0.696053
  N      -1.953160     -0.095604      0.009233
  C      -0.709860     -0.101397     -0.752864
  C       0.513433     -0.240109      0.128882
  H      -0.647545      0.824861     -1.327166
  H      -0.741128     -0.925517     -1.468354
  H       0.448184     -1.172470      0.696735
  H       0.550092      0.593575      0.835220
  H      -2.016564     -0.938318      0.567732
  H      -1.954452      0.679869      0.660385
  H       2.448646     -0.317219     -0.123845
  O      -4.918694      0.075339     -0.679382
  C      -4.236153     -0.051101     -1.604179
  O      -3.599729     -0.178377     -2.560984
14
Coordinates from ORCA-job ./irc_IRC_B E -399.097317174057
  O       1.680284     -0.242820     -0.696128
  N      -1.952649     -0.095582      0.009971
  C      -0.709466     -0.101401     -0.752394
  C       0.514042     -0.240126      0.129080
  H      -0.647240      0.824855     -1.326705
  H      -0.740892     -0.925522     -1.467870
  H       0.448956     -1.172505      0.696922
  H       0.550870      0.593538      0.835432
  H      -2.015888     -0.938344      0.568428
  H      -1.953606      0.679788      0.661257
  H       2.449205     -0.317262     -0.124099
  O      -4.920550      0.075461     -0.680883
  C      -4.238433     -0.051029     -1.605624
  O      -3.601701     -0.178363     -2.562027
14
Coordinates from ORCA-job ./irc_IRC_B E -399.097341871718
  O       1.680701     -0.242795     -0.696203
  N      -1.952144     -0.095560      0.010701
  C      -0.709074     -0.101405     -0.751924
  C       0.514647     -0.240143      0.129279
  H      -0.646937      0.824850     -1.326243
  H      -0.740657     -0.925527     -1.467386
  H       0.449728     -1.172539      0.697109
  H       0.551648      0.593500      0.835644
  H      -2.015215     -0.938370      0.569123
  H      -1.952765      0.679706      0.662127
  H       2.449761     -0.317305     -0.124355
  O      -4.922220      0.075548     -0.682636
  C      -4.240952     -0.050909     -1.606692
  O      -3.603587     -0.178367     -2.563184
14
Coordinates from ORCA-job ./irc_IRC_B E -399.097355253172
  O       1.680830     -0.242788     -0.696223
  N      -1.951992     -0.095553      0.010924
  C      -0.708957     -0.101405     -0.751781
  C       0.514828     -0.240148      0.129338
  H      -0.646846      0.824849     -1.326104
  H      -0.740586     -0.925529     -1.467240
  H       0.449960     -1.172549      0.697165
  H       0.551882      0.593489      0.835709
  H      -2.015012     -0.938376      0.569331
  H      -1.952511      0.679680      0.662389
  H       2.449925     -0.317318     -0.124435
  O      -4.923076      0.075641     -0.682679
  C      -4.241424     -0.050926     -1.607408
  O      -3.604091     -0.178380     -2.563625
14
Coordinates from ORCA-job ./irc_IRC_B E -399.097385587453
  O       1.681232     -0.242765     -0.696292
  N      -1.951513     -0.095533      0.011623
  C      -0.708585     -0.101408     -0.751329
  C       0.515404     -0.240165      0.129527
  H      -0.646557      0.824845     -1.325662
  H      -0.740363     -0.925533     -1.466778
  H       0.450697     -1.172582      0.697345
  H       0.552625      0.593454      0.835913
  H      -2.014371     -0.938396      0.569991
  H      -1.951709      0.679600      0.663218
  H       2.450451     -0.317359     -0.124684
  O      -4.925114      0.075809     -0.683739
  C      -4.243532     -0.050865     -1.608817
  O      -3.605734     -0.178414     -2.564953
14
Coordinates from ORCA-job ./irc_IRC_B E -399.097415995857
  O       1.681632     -0.242741     -0.696366
  N      -1.951032     -0.095510      0.012327
  C      -0.708211     -0.101410     -0.750874
  C       0.515987     -0.240181      0.129720
  H      -0.646265      0.824841     -1.325214
  H      -0.740138     -0.925537     -1.466309
  H       0.451444     -1.172616      0.697527
  H       0.553377      0.593418      0.836120
  H      -2.013723     -0.938418      0.570659
  H      -1.950899      0.679519      0.664057
  H       2.450986     -0.317401     -0.124935
  O      -4.927030      0.075951     -0.685021
  C      -4.245416     -0.050853     -1.610605
  O      -3.607781     -0.178373     -2.565725
14
Coordinates from ORCA-job ./irc_IRC_B E -399.097443465879
  O       1.682000     -0.242720     -0.696431
  N      -1.950595     -0.095490      0.012967
  C      -0.707870     -0.101412     -0.750457
  C       0.516515     -0.240196      0.129896
  H      -0.646000      0.824838     -1.324805
  H      -0.739934     -0.925542     -1.465882
  H       0.452124     -1.172647      0.697694
  H       0.554063      0.593385      0.836309
  H      -2.013136     -0.938436      0.571265
  H      -1.950163      0.679443      0.664820
  H       2.451468     -0.317440     -0.125168
  O      -4.928835      0.076093     -0.686102
  C      -4.247507     -0.050766     -1.611661
  O      -3.609198     -0.178425     -2.567085
14
Coordinates from ORCA-job ./irc_IRC_B E -399.097478235029
  O       1.682414     -0.242695     -0.696509
  N      -1.950099     -0.095466      0.013696
  C      -0.707481     -0.101414     -0.749981
  C       0.517122     -0.240213      0.130099
  H      -0.645697      0.824834     -1.324335
  H      -0.739700     -0.925545     -1.465390
  H       0.452905     -1.172681      0.697885
  H       0.554850      0.593348      0.836527
  H      -2.012464     -0.938457      0.571961
  H      -1.949322      0.679358      0.665694
  H       2.452025     -0.317484     -0.125433
  O      -4.930686      0.076214     -0.687648
  C      -4.249754     -0.050697     -1.613096
  O      -3.611182     -0.178413     -2.568110
14
Coordinates from ORCA-job ./irc_IRC_B E -399.097501129538
  O       1.682823     -0.242670     -0.696589
  N      -1.949609     -0.095442      0.014417
  C      -0.707094     -0.101416     -0.749506
  C       0.517726     -0.240231      0.130304
  H      -0.645395      0.824831     -1.323864
  H      -0.739469     -0.925548     -1.464899
  H       0.453683     -1.172716      0.698078
  H       0.555635      0.593310      0.836745
  H      -2.011799     -0.938478      0.572652
  H      -1.948487      0.679272      0.666564
  H       2.452578     -0.317530     -0.125699
  O      -4.932320      0.076295     -0.689482
  C      -4.252244     -0.050578     -1.614146
  O      -3.613099     -0.178414     -2.569214
14
Coordinates from ORCA-job ./irc_IRC_B E -399.097513669316
  O       1.682941     -0.242664     -0.696609
  N      -1.949472     -0.095435      0.014621
  C      -0.706986     -0.101416     -0.749371
  C       0.517893     -0.240235      0.130360
  H      -0.645310      0.824831     -1.323733
  H      -0.739404     -0.925550     -1.464763
  H       0.453900     -1.172726      0.698132
  H       0.555854      0.593300      0.836806
  H      -2.011613     -0.938482      0.572844
  H      -1.948254      0.679246      0.666805
  H       2.452730     -0.317542     -0.125776
  O      -4.933163      0.076391     -0.689460
  C      -4.252655     -0.050598     -1.614824
  O      -3.613529     -0.178435     -2.569671
14
Coordinates from ORCA-job ./irc_IRC_B E -399.097542488379
  O       1.683332     -0.242640     -0.696680
  N      -1.949010     -0.095412      0.015306
  C      -0.706622     -0.101418     -0.748918
  C       0.518461     -0.240251      0.130551
  H      -0.645025      0.824829     -1.323289
  H      -0.739185     -0.925553     -1.464300
  H       0.454636     -1.172759      0.698314
  H       0.556596      0.593264      0.837013
  H      -2.010986     -0.938498      0.573493
  H      -1.947467      0.679162      0.667624
  H       2.453246     -0.317584     -0.126034
  O      -4.935255      0.076573     -0.690432
  C      -4.254681     -0.050545     -1.616243
  O      -3.615106     -0.178482     -2.571045
14
Coordinates from ORCA-job ./irc_IRC_B E -399.097571573262
  O       1.683729     -0.242616     -0.696760
  N      -1.948533     -0.095389      0.016011
  C      -0.706246     -0.101418     -0.748451
  C       0.519051     -0.240268      0.130754
  H      -0.644730      0.824827     -1.322826
  H      -0.738959     -0.925555     -1.463818
  H       0.455398     -1.172792      0.698504
  H       0.557366      0.593227      0.837228
  H      -2.010339     -0.938517      0.574167
  H      -1.946654      0.679077      0.668473
  H       2.453787     -0.317629     -0.126298
  O      -4.937142      0.076708     -0.691837
  C      -4.256482     -0.050551     -1.618161
  O      -3.617314     -0.178418     -2.571624
14
Coordinates from ORCA-job ./irc_IRC_B E -399.097580103357
  O       1.683839     -0.242609     -0.696780
  N      -1.948404     -0.095382      0.016202
  C      -0.706144     -0.101419     -0.748323
  C       0.519210     -0.240272      0.130807
  H      -0.644650      0.824827     -1.322701
  H      -0.738898     -0.925556     -1.463687
  H       0.455605     -1.172802      0.698556
  H       0.557575      0.593217      0.837287
  H      -2.010164     -0.938522      0.574348
  H      -1.946434      0.679054      0.668702
  H       2.453931     -0.317641     -0.126372
  O      -4.937680      0.076749     -0.692178
  C      -4.257227     -0.050501     -1.618300
  O      -3.617627     -0.178458     -2.572200
14
Coordinates from ORCA-job ./irc_IRC_B E -399.097608412214
  O       1.684228     -0.242585     -0.696855
  N      -1.947943     -0.095357      0.016886
  C      -0.705779     -0.101420     -0.747868
  C       0.519779     -0.240288      0.131002
  H      -0.644364      0.824826     -1.322251
  H      -0.738679     -0.925558     -1.463219
  H       0.456345     -1.172835      0.698741
  H       0.558323      0.593182      0.837497
  H      -2.009538     -0.938538      0.574999
  H      -1.945648      0.678969      0.669523
  H       2.454450     -0.317685     -0.126634
  O      -4.939654      0.076908     -0.693341
  C      -4.259361     -0.050428     -1.619570
  O      -3.619227     -0.178504     -2.573551
14
Coordinates from ORCA-job ./irc_IRC_B E -399.097639458516
  O       1.684633     -0.242559     -0.696937
  N      -1.947456     -0.095333      0.017605
  C      -0.705393     -0.101420     -0.747386
  C       0.520383     -0.240304      0.131210
  H      -0.644060      0.824825     -1.321773
  H      -0.738448     -0.925561     -1.462724
  H       0.457130     -1.172869      0.698937
  H       0.559115      0.593143      0.837719
  H      -2.008879     -0.938556      0.575687
  H      -1.944819      0.678881      0.670393
  H       2.455003     -0.317732     -0.126911
  O      -4.941411      0.077013     -0.695034
  C      -4.261721     -0.050332     -1.620776
  O      -3.621143     -0.178509     -2.574650
14
Coordinates from ORCA-job ./irc_IRC_B E -399.097663315154
  O       1.685002     -0.242537     -0.697009
  N      -1.947018     -0.095310      0.018256
  C      -0.705045     -0.101419     -0.746950
  C       0.520927     -0.240320      0.131397
  H      -0.643786      0.824825     -1.321341
  H      -0.738238     -0.925562     -1.462276
  H       0.457837     -1.172901      0.699115
  H       0.559830      0.593109      0.837922
  H      -2.008286     -0.938571      0.576305
  H      -1.944073      0.678800      0.671174
  H       2.455495     -0.317774     -0.127166
  O      -4.943476      0.077198     -0.695901
  C      -4.263572     -0.050297     -1.622230
  O      -3.622665     -0.178554     -2.575936
