14
Coordinates from ORCA-job ./orca
  O           1.89906154070363     -0.34941579021031     -0.65742739429007
  N          -1.69611922365608      0.07325926886802      0.26630759972958
  C          -0.48379395134254     -0.05054876633999     -0.55412247109119
  C           0.79223183132372     -0.23503290236291      0.25512440649830
  H          -0.39095359520722      0.84591077804664     -1.17467257578165
  H          -0.60581033678909     -0.90244945032860     -1.22990176119235
  H           0.71514166148343     -1.13999283131612      0.86933129993293
  H           0.93964441022783      0.62290278320966      0.92146089021449
  H          -1.77996106328866     -0.73946003762853      0.87204904817035
  H          -1.60667248635646      0.87444646203238      0.88591822572659
  H           2.70639169283736     -0.46185550232178     -0.13933295690258
  O          -5.82610350817225     -0.63263271777978     -1.33839851351207
  C          -5.14492425499133     -0.21297786696960     -2.17807537679755
  O          -4.46511476707223      0.20653324560091     -3.01894076160471
