14
Coordinates from ORCA-job scan E -399.093335725468
  O           1.64081450335496     -0.38327138106585     -0.77645680481700
  N          -1.92067904097179      0.06569486405034      0.14517073891871
  C          -0.72003215095886     -0.08512640150159     -0.66915543565789
  C           0.55692932407983     -0.24499229221056      0.13480831139571
  H          -0.62756131932696      0.78748437981549     -1.31647734510671
  H          -0.84566923680432     -0.95399042133818     -1.31580067119186
  H           0.48004730580250     -1.12732964917980      0.77722855304744
  H           0.70194484533842      0.63050167409156      0.77452573941217
  H          -2.02535430190690     -0.73624460677568      0.75438330041943
  H          -1.82482148798060      0.86987938315360      0.75294274279531
  H           2.45188321157018     -0.47810561738972     -0.27138954861957
  O          -4.92223621416245     -0.61281452462044     -0.90283126857964
  C          -4.25684103310013     -0.14698156817800     -1.72488705519734
  O          -3.63540645523385      0.31398283364881     -2.58274159771876
