14
700
O      1.7136730108   -0.4190044180   -0.7071974792
N     -1.8886410817    0.1561304699    0.0522126473
C     -0.6716997983   -0.0294595388   -0.7369104512
C      0.5736192377   -0.2544793219    0.1264461044
H     -0.5198654088    0.8452634187   -1.3795928967
H     -0.8062322732   -0.8795108719   -1.4155768257
H      0.4609958420   -1.1543584071    0.7401938932
H      0.7477558091    0.6029076909    0.7850227061
H     -2.0398827441   -0.6567873185    0.6475047192
H     -1.7757324347    0.9545122677    0.6751444565
H      2.4784300771   -0.5566456119   -0.1223645559
O     -5.2630352329   -0.8291920642   -1.0386331743
C     -4.4064674287   -0.2366272289   -1.6285208863
O     -3.5498996246    0.3559376065   -2.2184085983
