14
Coordinates from ORCA-job ./orca
  N           1.21151351193370     -0.19073222743744      0.22930915863019
  C           0.17988460027405      0.80115889124817     -0.13069717408872
  C          -1.21959415665260      0.26632919248611      0.11803193570699
  O          -1.50514767064894     -0.90932958809248     -0.66236902871641
  H           1.31167831261766     -0.25472957779078      1.23643681562554
  H           2.07556243677852      0.19648743471132     -0.13854998443896
  H           0.29347315264967      1.02594897830305     -1.19552255701711
  H           0.26997805362892      1.75254218752839      0.41410917592487
  H          -1.34971653241408      0.04076229919259      1.18457694994096
  H          -1.96550442172709      1.01107238304039     -0.16467510639416
  H          -0.76382126860626     -1.51671993689210     -0.52580877417236
  O           3.26734379480040     -2.18526574457155     -0.28199673910955
  C           2.36868178179327     -2.63130582132194      0.29833415245187
  O           1.43935190497278     -3.06774927730373      0.83316696375685
