14
Coordinates from ORCA-job ./orca E -398.419223827754
  N       1.263718     -0.516121      0.103883
  C       0.344211      0.606426     -0.106087
  C      -1.080002      0.146864      0.120425
  O      -1.416705     -0.935057     -0.749085
  H       1.343111     -0.707867      1.095776
  H       2.191813     -0.261274     -0.209301
  H       0.452802      0.942158     -1.138125
  H       0.547519      1.460531      0.548259
  H      -1.213250     -0.161598      1.162380
  H      -1.779102      0.953668     -0.091958
  H      -0.654116     -1.527732     -0.736168
  O       2.393271     -1.273916     -0.480763
  C       1.871228     -1.887177      0.404782
  O       1.349184     -2.500438      1.290327
14
Coordinates from ORCA-job ./orca E -398.551710670091
  N       1.259159     -0.511637      0.103529
  C       0.323567      0.617685     -0.103946
  C      -1.104145      0.161456      0.119673
  O      -1.433727     -0.922250     -0.753096
  H       1.331939     -0.697544      1.109865
  H       2.226272     -0.264850     -0.211352
  H       0.435121      0.951927     -1.137097
  H       0.528435      1.473300      0.549895
  H      -1.241671     -0.146854      1.161712
  H      -1.805059      0.967315     -0.096850
  H      -0.667673     -1.512556     -0.734781
  O       2.469656     -1.343356     -0.489794
  C       1.899206     -1.913116      0.405107
  O       1.392606     -2.521052      1.291479
14
Coordinates from ORCA-job ./orca E -398.653672779553
  N       1.252632     -0.503690      0.103592
  C       0.306113      0.626650     -0.101698
  C      -1.124047      0.174187      0.119535
  O      -1.448518     -0.911782     -0.755388
  H       1.316330     -0.681686      1.121196
  H       2.246618     -0.275707     -0.208584
  H       0.420419      0.959111     -1.135864
  H       0.513667      1.482203      0.551110
  H      -1.265479     -0.133370      1.161745
  H      -1.825496      0.979589     -0.101248
  H      -0.680312     -1.500718     -0.732187
  O       2.544180     -1.413173     -0.492373
  C       1.921567     -1.924530      0.403986
  O       1.436010     -2.538614      1.280524
14
Coordinates from ORCA-job ./orca E -398.758872263255
  N       1.241371     -0.485118      0.100414
  C       0.284816      0.640510     -0.100378
  C      -1.145479      0.188048      0.119957
  O      -1.466568     -0.900148     -0.758354
  H       1.290857     -0.646616      1.127989
  H       2.255479     -0.289586     -0.200918
  H       0.400602      0.972876     -1.134780
  H       0.499722      1.491774      0.553195
  H      -1.288383     -0.121099      1.162115
  H      -1.847354      0.993363     -0.101565
  H      -0.696281     -1.487983     -0.733701
  O       2.647356     -1.513609     -0.487944
  C       1.945464     -1.935963      0.398532
  O       1.492084     -2.567980      1.269783
14
Coordinates from ORCA-job ./orca E -398.836423547541
  N       1.230473     -0.455614      0.092949
  C       0.265494      0.659622     -0.103557
  C      -1.159103      0.195700      0.121850
  O      -1.482795     -0.892574     -0.760303
  H       1.267951     -0.577880      1.122920
  H       2.233441     -0.293635     -0.187578
  H       0.377689      0.996012     -1.136776
  H       0.492953      1.499890      0.556149
  H      -1.296086     -0.118959      1.163508
  H      -1.862470      1.001108     -0.092027
  H      -0.712419     -1.480934     -0.744020
  O       2.757390     -1.629838     -0.463660
  C       1.965860     -1.954786      0.385874
  O       1.535305     -2.609643      1.259017
14
Coordinates from ORCA-job ./orca E -398.879094398299
  N       1.226405     -0.427100      0.087830
  C       0.250058      0.678998     -0.110605
  C      -1.165130      0.196091      0.125608
  O      -1.494586     -0.889187     -0.758930
  H       1.259217     -0.499574      1.114306
  H       2.200279     -0.278858     -0.177618
  H       0.353182      1.021584     -1.142316
  H       0.487030      1.508645      0.557160
  H      -1.290269     -0.124974      1.166723
  H      -1.872420      1.000804     -0.075973
  H      -0.726142     -1.479577     -0.756715
  O       2.856252     -1.738459     -0.427509
  C       1.993963     -1.986463      0.372147
  O       1.535844     -2.643461      1.240235
14
Coordinates from ORCA-job ./orca E -398.903005814523
  N       1.225967     -0.400961      0.091538
  C       0.236881      0.697238     -0.118507
  C      -1.168858      0.194781      0.129157
  O      -1.503471     -0.889570     -0.752393
  H       1.261364     -0.425467      1.113762
  H       2.177175     -0.242411     -0.175095
  H       0.330946      1.042285     -1.149851
  H       0.475168      1.523013      0.553058
  H      -1.282473     -0.126806      1.171166
  H      -1.881238      0.997094     -0.064883
  H      -0.739860     -1.485459     -0.758641
  O       2.942307     -1.833046     -0.387957
  C       2.032402     -2.031412      0.360023
  O       1.507375     -2.680812      1.202969
14
Coordinates from ORCA-job ./orca E -398.918854532042
  N       1.225723     -0.375514      0.106210
  C       0.225522      0.714061     -0.123830
  C      -1.173615      0.195724      0.130766
  O      -1.508638     -0.892862     -0.742320
  H       1.273279     -0.362848      1.125972
  H       2.166622     -0.186590     -0.179348
  H       0.314747      1.054299     -1.156988
  H       0.454049      1.545975      0.544255
  H      -1.280983     -0.118673      1.175467
  H      -1.891845      0.993001     -0.065295
  H      -0.752184     -1.497287     -0.744262
  O       3.015825     -1.916204     -0.352547
  C       2.074919     -2.090939      0.346806
  O       1.470264     -2.723674      1.149460
14
Coordinates from ORCA-job ./orca E -398.931256052109
  N       1.225151     -0.348148      0.132585
  C       0.216368      0.728888     -0.124879
  C      -1.180982      0.201732      0.129145
  O      -1.509651     -0.897737     -0.730179
  H       1.293251     -0.313867      1.150483
  H       2.154192     -0.114780     -0.183959
  H       0.307628      1.055221     -1.162538
  H       0.423464      1.577714      0.530757
  H      -1.290665     -0.097264      1.178285
  H      -1.904695      0.991359     -0.080707
  H      -0.761595     -1.511866     -0.711562
  O       3.079271     -1.989876     -0.328103
  C       2.121304     -2.169768      0.328730
  O       1.440642     -2.773138      1.086287
14
Coordinates from ORCA-job ./orca E -398.941583051763
  N       1.225010     -0.314039      0.171237
  C       0.209704      0.741988     -0.124533
  C      -1.189109      0.212138      0.125842
  O      -1.506445     -0.905980     -0.712683
  H       1.315307     -0.276186      1.185478
  H       2.134355     -0.030952     -0.181533
  H       0.308888      1.042073     -1.169898
  H       0.384402      1.619197      0.505840
  H      -1.306024     -0.063808      1.181103
  H      -1.918587      0.990834     -0.105868
  H      -0.765476     -1.526463     -0.660785
  O       3.136494     -2.053209     -0.313223
  C       2.175323     -2.266288      0.311063
  O       1.409841     -2.830836      1.002309
14
Coordinates from ORCA-job ./orca E -398.948321405582
  N       1.222348     -0.286955      0.197327
  C       0.205786      0.751747     -0.122305
  C      -1.196690      0.224627      0.120990
  O      -1.504503     -0.910667     -0.699506
  H       1.324105     -0.263769      1.209225
  H       2.112737      0.035669     -0.171395
  H       0.314776      1.031177     -1.172979
  H       0.352686      1.652056      0.485379
  H      -1.323075     -0.032171      1.180504
  H      -1.928790      0.994636     -0.130670
  H      -0.767968     -1.532917     -0.616808
  O       3.176389     -2.092056     -0.311525
  C       2.216590     -2.357462      0.290015
  O       1.409292     -2.875447      0.956094
14
Coordinates from ORCA-job ./orca E -398.952352763547
  N       1.221331     -0.265222      0.210615
  C       0.201881      0.759630     -0.122089
  C      -1.202604      0.235114      0.118767
  O      -1.504168     -0.914104     -0.687519
  H       1.326851     -0.261857      1.222420
  H       2.100524      0.081350     -0.162423
  H       0.316132      1.023222     -1.176938
  H       0.329917      1.676795      0.466971
  H      -1.334223     -0.008198      1.181115
  H      -1.936697      0.998396     -0.146426
  H      -0.767657     -1.533383     -0.584254
  O       3.203220     -2.110253     -0.309128
  C       2.253160     -2.428118      0.286947
  O       1.406017     -2.914904      0.916287
14
Coordinates from ORCA-job ./orca E -398.956338897479
  N       1.214686     -0.230981      0.222574
  C       0.191937      0.778151     -0.123002
  C      -1.212798      0.252811      0.115145
  O      -1.506916     -0.908954     -0.680114
  H       1.321933     -0.264016      1.230986
  H       2.081643      0.142059     -0.148339
  H       0.310239      1.024732     -1.182300
  H       0.296975      1.713571      0.444745
  H      -1.348335      0.018080      1.179119
  H      -1.950166      1.008756     -0.160524
  H      -0.769457     -1.523580     -0.556852
  O       3.233730     -2.147868     -0.305994
  C       2.308385     -2.541933      0.275575
  O       1.441829     -2.982359      0.903326
