14
Coordinates from ORCA-job ./orca E -210.461002413313
N      1.2637176235   -0.5161206230    0.1038834436
C      0.3442112256    0.6064259450   -0.1060868534
C     -1.0800021411    0.1468643567    0.1204251737
O     -1.4167047695   -0.9350565686   -0.7490853931
H      1.3431105667   -0.7078665530    1.0957757956
H      2.1918132939   -0.2612740125   -0.2093010734
H      0.4528023973    0.9421583102   -1.1381249211
H      0.5475194867    1.4605308991    0.5482590065
H     -1.2132497907   -0.1615977005    1.1623803360
H     -1.7791021625    0.9536679433   -0.0919578453
H     -0.6541157298   -1.5277319965   -0.7361676691
O      2.3932712572   -1.2739155976   -0.4807632104
C      1.8712278331   -1.8871769357    0.4047819294
O      1.3491844090   -2.5004382738    1.2903270691
