14
Coordinates from ORCA-job ./irc_IRC_F E -399.091836673732
  O           1.52063934039328     -0.23174297667975     -0.69134605138490
  N          -2.12547276912528     -0.11916010413057     -0.19402766718818
  C          -0.81607534633485     -0.14608187522060     -0.87525767296937
  C           0.34469386691323     -0.22315852102889      0.10156580637030
  H          -0.73919773540281      0.75579306818062     -1.47398618623458
  H          -0.80667935668264     -1.00735569063833     -1.53535359043022
  H           0.27846102136167     -1.13167486562825      0.70514645652760
  H           0.33778880099986      0.63875240124384      0.77334367083871
  H          -2.25737029218468     -0.94755266616752      0.38075102788948
  H          -2.19321728005659      0.67431035867035      0.43856263233281
  H           2.28145993244048     -0.27646339641983     -0.10607937192256
  O          -4.46468504350686     -0.01467909129005     -0.44941545724162
  C          -3.48119611976303     -0.03445265171511     -1.15659801897195
  O          -3.20587636604201     -0.01198442613181     -2.33293540232168
