14
Coordinates from ORCA-job ./irc_IRC_B E -399.091599173974
  O           1.67031736757175     -0.23803903419013     -0.71138807464879
  N          -1.95263341578464     -0.13536442603633      0.00220452937771
  C          -0.71253362878288     -0.15531017731147     -0.75738549801160
  C           0.51861440060762     -0.22692756132412      0.12138933159762
  H          -0.66905184061032      0.74164002727184     -1.37575699931444
  H          -0.73179698128349     -1.01128798371294     -1.43234356415542
  H           0.47441053795084     -1.13264903167800      0.73318888962723
  H           0.53424813479430      0.63671303138309      0.79270464062769
  H          -2.03735765424540     -0.96584824848173      0.57363893285368
  H          -1.97670023211968      0.65797975449102      0.62954006669290
  H           2.44688224072556     -0.29304239307342     -0.14960773348684
  O          -4.73522109617305     -0.00142479303658     -0.55760803445018
  C          -3.99535789801348     -0.00482257821758     -1.44973404744977
  O          -3.40105668779642      0.00120719574996     -2.44457329557646
