14
Coordinates from ORCA-job ./irc_IRC_F E -399.090227676608
  O       1.550280     -0.232795     -0.690490
  N      -2.105614     -0.120379     -0.175557
  C      -0.804061     -0.147239     -0.856501
  C       0.373181     -0.224052      0.103787
  H      -0.729090      0.752808     -1.460727
  H      -0.796717     -1.006344     -1.521846
  H       0.306202     -1.132302      0.707926
  H       0.365219      0.637840      0.775663
  H      -2.254300     -0.951602      0.386646
  H      -2.190062      0.677302      0.445465
  H       2.309037     -0.276535     -0.103427
  O      -4.524241     -0.012403     -0.467160
  C      -3.566693     -0.030568     -1.197399
  O      -3.259869     -0.009183     -2.362011
14
Coordinates from ORCA-job ./irc_IRC_F E -399.090378381755
  O       1.548926     -0.232749     -0.690346
  N      -2.109176     -0.120241     -0.177504
  C      -0.804199     -0.147181     -0.857849
  C       0.371790     -0.224036      0.103978
  H      -0.729203      0.752938     -1.460868
  H      -0.796829     -1.006433     -1.521973
  H       0.306016     -1.132297      0.707894
  H       0.365050      0.637849      0.775644
  H      -2.253807     -0.951491      0.387110
  H      -2.189647      0.677168      0.445862
  H       2.308687     -0.276543     -0.103445
  O      -4.520160     -0.012596     -0.467399
  C      -3.565469     -0.030503     -1.197385
  O      -3.258708     -0.009334     -2.359348
14
Coordinates from ORCA-job ./irc_IRC_F E -399.090468889338
  O       1.547630     -0.232707     -0.690168
  N      -2.111868     -0.120116     -0.179170
  C      -0.804845     -0.147112     -0.858879
  C       0.370408     -0.224008      0.104138
  H      -0.729327      0.753164     -1.461148
  H      -0.796956     -1.006611     -1.522250
  H       0.305684     -1.132320      0.707889
  H       0.364737      0.637882      0.775652
  H      -2.253404     -0.951153      0.387351
  H      -2.189333      0.676810      0.446008
  H       2.308045     -0.276541     -0.103570
  O      -4.517258     -0.012754     -0.466821
  C      -3.563049     -0.030530     -1.196770
  O      -3.257193     -0.009455     -2.357890
14
Coordinates from ORCA-job ./irc_IRC_F E -399.090565240860
  O       1.545995     -0.232652     -0.689977
  N      -2.114403     -0.119979     -0.180994
  C      -0.805946     -0.147022     -0.859962
  C       0.368683     -0.223962      0.104299
  H      -0.729533      0.753494     -1.461621
  H      -0.797166     -1.006871     -1.522729
  H       0.305068     -1.132367      0.707912
  H       0.364147      0.637948      0.775692
  H      -2.253049     -0.950565      0.387417
  H      -2.189093      0.676215      0.445937
  H       2.306927     -0.276529     -0.103808
  O      -4.514258     -0.012923     -0.465711
  C      -3.559079     -0.030655     -1.195262
  O      -3.255022     -0.009582     -2.356822
14
Coordinates from ORCA-job ./irc_IRC_F E -399.090675952006
  O       1.544016     -0.232583     -0.689875
  N      -2.116532     -0.119850     -0.182828
  C      -0.807226     -0.146921     -0.861127
  C       0.366720     -0.223904      0.104437
  H      -0.729874      0.753859     -1.462276
  H      -0.797506     -1.007142     -1.523394
  H       0.304076     -1.132424      0.707959
  H       0.363187      0.638041      0.775764
  H      -2.252867     -0.949831      0.387235
  H      -2.189033      0.675512      0.445599
  H       2.305312     -0.276508     -0.104120
  O      -4.511123     -0.013091     -0.464281
  C      -3.553465     -0.030886     -1.193259
  O      -3.252411     -0.009721     -2.355464
14
Coordinates from ORCA-job ./irc_IRC_F E -399.090789222696
  O       1.541851     -0.232502     -0.689912
  N      -2.118227     -0.119741     -0.184553
  C      -0.808338     -0.146828     -0.862345
  C       0.364717     -0.223842      0.104524
  H      -0.730343      0.754181     -1.463034
  H      -0.797966     -1.007353     -1.524164
  H       0.302757     -1.132462      0.708006
  H       0.361898      0.638137      0.775844
  H      -2.252918     -0.949145      0.386841
  H      -2.189185      0.674897      0.445059
  H       2.303380     -0.276482     -0.104450
  O      -4.507475     -0.013258     -0.463103
  C      -3.547386     -0.031185     -1.190395
  O      -3.249493     -0.009866     -2.353948
14
Coordinates from ORCA-job ./irc_IRC_F E -399.090902064235
  O       1.539786     -0.232422     -0.690061
  N      -2.119442     -0.119659     -0.185976
  C      -0.809135     -0.146749     -0.863472
  C       0.362902     -0.223781      0.104523
  H      -0.730885      0.754418     -1.463831
  H      -0.798492     -1.007477     -1.524974
  H       0.301209     -1.132454      0.708018
  H       0.360377      0.638205      0.775888
  H      -2.253204     -0.948687      0.386296
  H      -2.189532      0.674538      0.444402
  H       2.301372     -0.276456     -0.104766
  O      -4.503864     -0.013410     -0.462005
  C      -3.541431     -0.031506     -1.187139
  O      -3.246386     -0.010012     -2.352533
14
Coordinates from ORCA-job ./irc_IRC_F E -399.091012059360
  O       1.537793     -0.232344     -0.690252
  N      -2.120500     -0.119585     -0.187223
  C      -0.809856     -0.146680     -0.864571
  C       0.361169     -0.223723      0.104467
  H      -0.731459      0.754610     -1.464655
  H      -0.799046     -1.007550     -1.525811
  H       0.299524     -1.132413      0.707982
  H       0.358714      0.638256      0.775883
  H      -2.253606     -0.948365      0.385681
  H      -2.189965      0.674324      0.443694
  H       2.299399     -0.276433     -0.105054
  O      -4.500216     -0.013558     -0.460891
  C      -3.535507     -0.031820     -1.184039
  O      -3.243170     -0.010170     -2.350841
14
Coordinates from ORCA-job ./irc_IRC_F E -399.091116624386
  O       1.535871     -0.232269     -0.690442
  N      -2.121437     -0.119520     -0.188343
  C      -0.810547     -0.146613     -0.865645
  C       0.359470     -0.223663      0.104356
  H      -0.732059      0.754774     -1.465496
  H      -0.799625     -1.007595     -1.526668
  H       0.297747     -1.132356      0.707902
  H       0.356956      0.638299      0.775834
  H      -2.254070     -0.948123      0.385038
  H      -2.190441      0.674195      0.442973
  H       2.297469     -0.276413     -0.105325
  O      -4.496669     -0.013701     -0.459666
  C      -3.529561     -0.032128     -1.181059
  O      -3.239831     -0.010336     -2.349089
14
Coordinates from ORCA-job ./irc_IRC_F E -399.091217372544
  O       1.533975     -0.232196     -0.690630
  N      -2.122305     -0.119459     -0.189384
  C      -0.811220     -0.146549     -0.866726
  C       0.357775     -0.223604      0.104209
  H      -0.732691      0.754921     -1.466362
  H      -0.800234     -1.007619     -1.527548
  H       0.295879     -1.132288      0.707782
  H       0.355106      0.638339      0.775743
  H      -2.254576     -0.947936      0.384382
  H      -2.190941      0.674121      0.442251
  H       2.295561     -0.276397     -0.105576
  O      -4.493058     -0.013841     -0.458426
  C      -3.523623     -0.032431     -1.178139
  O      -3.236376     -0.010510     -2.347207
14
Coordinates from ORCA-job ./irc_IRC_F E -399.091316677003
  O       1.532156     -0.232127     -0.690794
  N      -2.123030     -0.119406     -0.190295
  C      -0.811874     -0.146485     -0.867779
  C       0.356108     -0.223545      0.104010
  H      -0.733355      0.755054     -1.467245
  H      -0.800878     -1.007628     -1.528449
  H       0.293936     -1.132215      0.707612
  H       0.353179      0.638380      0.775602
  H      -2.255098     -0.947797      0.383738
  H      -2.191441      0.674092      0.441557
  H       2.293707     -0.276386     -0.105800
  O      -4.489430     -0.013975     -0.457207
  C      -3.517940     -0.032725     -1.175059
  O      -3.232768     -0.010687     -2.345520
14
Coordinates from ORCA-job ./irc_IRC_F E -399.091411185629
  O       1.530335     -0.232059     -0.690954
  N      -2.123712     -0.119353     -0.191155
  C      -0.812514     -0.146425     -0.868863
  C       0.354432     -0.223486      0.103782
  H      -0.734063      0.755177     -1.468155
  H      -0.801566     -1.007620     -1.529377
  H       0.291904     -1.132137      0.707399
  H       0.351163      0.638423      0.775418
  H      -2.255622     -0.947696      0.383117
  H      -2.191928      0.674095      0.440895
  H       2.291870     -0.276379     -0.105988
  O      -4.485719     -0.014107     -0.455996
  C      -3.512222     -0.033011     -1.172163
  O      -3.229087     -0.010872     -2.343589
14
Coordinates from ORCA-job ./irc_IRC_F E -399.091498313124
  O       1.528607     -0.231997     -0.691061
  N      -2.124232     -0.119317     -0.191872
  C      -0.813171     -0.146360     -0.869906
  C       0.352745     -0.223427      0.103496
  H      -0.734811      0.755300     -1.469096
  H      -0.802297     -1.007611     -1.530341
  H       0.289791     -1.132061      0.707142
  H       0.349063      0.638473      0.775190
  H      -2.256120     -0.947595      0.382513
  H      -2.192377      0.674100      0.440267
  H       2.290014     -0.276374     -0.106174
  O      -4.482148     -0.014230     -0.454683
  C      -3.506600     -0.033297     -1.169001
  O      -3.225193     -0.011054     -2.342103
14
Coordinates from ORCA-job ./irc_IRC_F E -399.091577710158
  O       1.526828     -0.231932     -0.691227
  N      -2.124756     -0.119257     -0.192559
  C      -0.813743     -0.146312     -0.871023
  C       0.351136     -0.223371      0.103218
  H      -0.735598      0.755399     -1.470023
  H      -0.803069     -1.007566     -1.531283
  H       0.287652     -1.131978      0.706835
  H       0.346937      0.638518      0.774911
  H      -2.256556     -0.947579      0.382027
  H      -2.192747      0.674152      0.439762
  H       2.288326     -0.276382     -0.106223
  O      -4.478449     -0.014345     -0.453587
  C      -3.501117     -0.033546     -1.166834
  O      -3.221570     -0.011253     -2.339622
14
Coordinates from ORCA-job ./irc_IRC_F E -399.091650283671
  O       1.525354     -0.231884     -0.691232
  N      -2.124992     -0.119251     -0.192978
  C      -0.814362     -0.146242     -0.871978
  C       0.349533     -0.223317      0.102847
  H      -0.736392      0.755512     -1.470966
  H      -0.803858     -1.007550     -1.532254
  H       0.285513     -1.131910      0.706501
  H       0.344809      0.638578      0.774606
  H      -2.256900     -0.947504      0.381561
  H      -2.193025      0.674164      0.439304
  H       2.286558     -0.276386     -0.106350
  O      -4.475425     -0.014437     -0.452189
  C      -3.495865     -0.033800     -1.163943
  O      -3.217676     -0.011422     -2.338559
14
Coordinates from ORCA-job ./irc_IRC_F E -399.091720225989
  O       1.523582     -0.231825     -0.691386
  N      -2.125350     -0.119185     -0.193536
  C      -0.814908     -0.146201     -0.873137
  C       0.347934     -0.223262      0.102494
  H      -0.737287      0.755599     -1.471943
  H      -0.804748     -1.007475     -1.533248
  H       0.283214     -1.131824      0.706095
  H       0.342521      0.638628      0.774229
  H      -2.257188     -0.947545      0.381226
  H      -2.193225      0.674236      0.438968
  H       2.284928     -0.276409     -0.106252
  O      -4.471243     -0.014542     -0.451550
  C      -3.491086     -0.034022     -1.161446
  O      -3.213872     -0.011622     -2.336144
14
Coordinates from ORCA-job ./irc_IRC_F E -399.091780088447
  O       1.522159     -0.231784     -0.691355
  N      -2.125373     -0.119188     -0.193738
  C      -0.815512     -0.146134     -0.874114
  C       0.346331     -0.223210      0.102035
  H      -0.738189      0.755705     -1.472940
  H      -0.805658     -1.007438     -1.534279
  H       0.280921     -1.131756      0.705661
  H       0.340239      0.638693      0.773825
  H      -2.257334     -0.947503      0.380918
  H      -2.193285      0.674246      0.438691
  H       2.283197     -0.276430     -0.106232
  O      -4.468403     -0.014609     -0.450172
  C      -3.485984     -0.034254     -1.158779
  O      -3.209837     -0.011790     -2.335151
14
Coordinates from ORCA-job ./irc_IRC_F E -399.091836673732
  O       1.520639     -0.231743     -0.691346
  N      -2.125473     -0.119160     -0.194028
  C      -0.816075     -0.146082     -0.875258
  C       0.344694     -0.223159      0.101566
  H      -0.739198      0.755793     -1.473986
  H      -0.806679     -1.007356     -1.535354
  H       0.278461     -1.131675      0.705146
  H       0.337789      0.638752      0.773344
  H      -2.257370     -0.947553      0.380751
  H      -2.193217      0.674310      0.438563
  H       2.281460     -0.276463     -0.106079
  O      -4.464685     -0.014679     -0.449415
  C      -3.481196     -0.034453     -1.156598
  O      -3.205876     -0.011984     -2.332935
