14
Coordinates from ORCA-job ./irc_IRC_Full E -399.091599173974
  O       1.670317     -0.238039     -0.711388
  N      -1.952633     -0.135364      0.002205
  C      -0.712534     -0.155310     -0.757385
  C       0.518614     -0.226928      0.121389
  H      -0.669052      0.741640     -1.375757
  H      -0.731797     -1.011288     -1.432344
  H       0.474411     -1.132649      0.733189
  H       0.534248      0.636713      0.792705
  H      -2.037358     -0.965848      0.573639
  H      -1.976700      0.657980      0.629540
  H       2.446882     -0.293042     -0.149608
  O      -4.735221     -0.001425     -0.557608
  C      -3.995358     -0.004823     -1.449734
  O      -3.401057      0.001207     -2.444573
14
Coordinates from ORCA-job ./irc_IRC_Full E -399.091570495259
  O       1.669883     -0.238007     -0.711336
  N      -1.953049     -0.135314      0.001630
  C      -0.712906     -0.155277     -0.757824
  C       0.518028     -0.226893      0.121205
  H      -0.669367      0.741667     -1.376190
  H      -0.732131     -1.011260     -1.432770
  H       0.473663     -1.132608      0.732999
  H       0.533485      0.636753      0.792516
  H      -2.038117     -0.965839      0.572937
  H      -1.977400      0.658065      0.628902
  H       2.446332     -0.293038     -0.149400
  O      -4.733262     -0.001536     -0.556674
  C      -3.992999     -0.004978     -1.448170
  O      -3.399398      0.001090     -2.443556
14
Coordinates from ORCA-job ./irc_IRC_Full E -399.091561422877
  O       1.669754     -0.237997     -0.711321
  N      -1.953172     -0.135301      0.001458
  C      -0.713015     -0.155267     -0.757954
  C       0.517856     -0.226884      0.121151
  H      -0.669460      0.741674     -1.376318
  H      -0.732229     -1.011252     -1.432896
  H       0.473442     -1.132596      0.732943
  H       0.533260      0.636765      0.792461
  H      -2.038341     -0.965837      0.572729
  H      -1.977608      0.658091      0.628713
  H       2.446169     -0.293036     -0.149338
  O      -4.732556     -0.001570     -0.556557
  C      -3.992454     -0.005023     -1.447502
  O      -3.398882      0.001055     -2.443300
14
Coordinates from ORCA-job ./irc_IRC_Full E -399.091532248151
  O       1.669309     -0.237964     -0.711267
  N      -1.953595     -0.135245      0.000876
  C      -0.713396     -0.155237     -0.758397
  C       0.517258     -0.226847      0.120964
  H      -0.669779      0.741703     -1.376760
  H      -0.732567     -1.011224     -1.433331
  H       0.472680     -1.132555      0.732751
  H       0.532482      0.636806      0.792270
  H      -2.039116     -0.965830      0.572013
  H      -1.978324      0.658175      0.628057
  H       2.445605     -0.293031     -0.149131
  O      -4.731021     -0.001681     -0.555032
  C      -3.989605     -0.005183     -1.446451
  O      -3.397166      0.000936     -2.442294
14
Coordinates from ORCA-job ./irc_IRC_Full E -399.091503775961
  O       1.668854     -0.237929     -0.711215
  N      -1.954028     -0.135196      0.000279
  C      -0.713779     -0.155203     -0.758852
  C       0.516654     -0.226812      0.120779
  H      -0.670102      0.741730     -1.377205
  H      -0.732908     -1.011196     -1.433769
  H       0.471908     -1.132513      0.732558
  H       0.531695      0.636847      0.792078
  H      -2.039903     -0.965821      0.571285
  H      -1.979054      0.658265      0.627394
  H       2.445036     -0.293026     -0.148924
  O      -4.728957     -0.001795     -0.554129
  C      -3.987115     -0.005343     -1.444890
  O      -3.395538      0.000814     -2.441119
14
Coordinates from ORCA-job ./irc_IRC_Full E -399.091471146948
  O       1.668400     -0.237895     -0.711162
  N      -1.954452     -0.135139     -0.000315
  C      -0.714161     -0.155173     -0.759295
  C       0.516048     -0.226775      0.120589
  H      -0.670424      0.741759     -1.377651
  H      -0.733247     -1.011169     -1.434208
  H       0.471138     -1.132471      0.732366
  H       0.530909      0.636890      0.791888
  H      -2.040689     -0.965816      0.570561
  H      -1.979785      0.658351      0.626726
  H       2.444465     -0.293021     -0.148721
  O      -4.727247     -0.001908     -0.552787
  C      -3.984580     -0.005506     -1.443293
  O      -3.393612      0.000695     -2.440430
14
Coordinates from ORCA-job ./irc_IRC_Full E -399.091429451377
  O       1.668005     -0.237865     -0.711120
  N      -1.954828     -0.135103     -0.000829
  C      -0.714489     -0.155143     -0.759689
  C       0.515530     -0.226745      0.120436
  H      -0.670701      0.741780     -1.378030
  H      -0.733537     -1.011144     -1.434581
  H       0.470477     -1.132433      0.732203
  H       0.530234      0.636925      0.791725
  H      -2.041367     -0.965806      0.569932
  H      -1.980416      0.658430      0.626153
  H       2.443975     -0.293017     -0.148548
  O      -4.725403     -0.002005     -0.552115
  C      -3.982272     -0.005642     -1.442211
  O      -3.392445      0.000590     -2.439057
14
Coordinates from ORCA-job ./irc_IRC_Full E -399.091414852271
  O       1.667559     -0.237831     -0.711071
  N      -1.955248     -0.135055     -0.001414
  C      -0.714858     -0.155112     -0.760128
  C       0.514940     -0.226709      0.120257
  H      -0.671013      0.741807     -1.378463
  H      -0.733865     -1.011117     -1.435007
  H       0.469726     -1.132392      0.732019
  H       0.529468      0.636966      0.791542
  H      -2.042137     -0.965798      0.569222
  H      -1.981134      0.658517      0.625500
  H       2.443417     -0.293012     -0.148356
  O      -4.723430     -0.002115     -0.551194
  C      -3.979948     -0.005800     -1.440473
  O      -3.390712      0.000473     -2.438165
14
Coordinates from ORCA-job ./irc_IRC_Full E -399.091382532199
  O       1.667112     -0.237797     -0.711024
  N      -1.955650     -0.134995     -0.001986
  C      -0.715230     -0.155083     -0.760548
  C       0.514356     -0.226674      0.120077
  H      -0.671320      0.741836     -1.378891
  H      -0.734185     -1.011094     -1.435428
  H       0.468985     -1.132352      0.731840
  H       0.528712      0.637008      0.791364
  H      -2.042897     -0.965794      0.568522
  H      -1.981844      0.658595      0.624847
  H       2.442868     -0.293007     -0.148169
  O      -4.721973     -0.002222     -0.549676
  C      -3.977496     -0.005959     -1.438841
  O      -3.388674      0.000362     -2.437817
14
Coordinates from ORCA-job ./irc_IRC_Full E -399.091356834550
  O       1.666765     -0.237770     -0.710986
  N      -1.955995     -0.134975     -0.002441
  C      -0.715512     -0.155057     -0.760902
  C       0.513898     -0.226647      0.119947
  H      -0.671561      0.741854     -1.379225
  H      -0.734437     -1.011072     -1.435755
  H       0.468403     -1.132318      0.731699
  H       0.528118      0.637039      0.791225
  H      -2.043498     -0.965778      0.567959
  H      -1.982407      0.658668      0.624338
  H       2.442429     -0.293003     -0.148028
  O      -4.719832     -0.002309     -0.549733
  C      -3.975781     -0.006077     -1.437486
  O      -3.387825      0.000268     -2.436343
14
Coordinates from ORCA-job ./irc_IRC_Full E -399.091330137556
  O       1.666296     -0.237735     -0.710938
  N      -1.956419     -0.134914     -0.003045
  C      -0.715894     -0.155026     -0.761345
  C       0.513289     -0.226609      0.119762
  H      -0.671881      0.741882     -1.379671
  H      -0.734771     -1.011046     -1.436193
  H       0.467630     -1.132276      0.731512
  H       0.527329      0.637081      0.791038
  H      -2.044291     -0.965778      0.567233
  H      -1.983150      0.658754      0.623661
  H       2.441857     -0.292998     -0.147833
  O      -4.718411     -0.002420     -0.548027
  C      -3.972959     -0.006243     -1.436181
  O      -3.385862      0.000151     -2.435705
14
Coordinates from ORCA-job ./irc_IRC_Full E -399.091301447886
  O       1.665879     -0.237703     -0.710897
  N      -1.956798     -0.134868     -0.003582
  C      -0.716230     -0.154998     -0.761740
  C       0.512753     -0.226577      0.119604
  H      -0.672162      0.741906     -1.380061
  H      -0.735061     -1.011024     -1.436576
  H       0.466950     -1.132238      0.731351
  H       0.526635      0.637119      0.790878
  H      -2.044994     -0.965774      0.566587
  H      -1.983809      0.658832      0.623061
  H       2.441349     -0.292994     -0.147671
  O      -4.716735     -0.002518     -0.547058
  C      -3.970829     -0.006388     -1.434537
  O      -3.384184      0.000048     -2.435090
14
Coordinates from ORCA-job ./irc_IRC_Full E -399.091269334596
  O       1.665408     -0.237667     -0.710851
  N      -1.957235     -0.134820     -0.004186
  C      -0.716612     -0.154966     -0.762191
  C       0.512142     -0.226540      0.119427
  H      -0.672480      0.741933     -1.380505
  H      -0.735392     -1.010998     -1.437012
  H       0.466177     -1.132194      0.731167
  H       0.525846      0.637161      0.790696
  H      -2.045792     -0.965764      0.565849
  H      -1.984557      0.658921      0.622378
  H       2.440771     -0.292989     -0.147486
  O      -4.714870     -0.002630     -0.545912
  C      -3.968070     -0.006551     -1.433206
  O      -3.382572     -0.000072     -2.433900
14
Coordinates from ORCA-job ./irc_IRC_Full E -399.091239972423
  O       1.665002     -0.237636     -0.710813
  N      -1.957607     -0.134779     -0.004702
  C      -0.716934     -0.154940     -0.762573
  C       0.511622     -0.226508      0.119279
  H      -0.672748      0.741956     -1.380881
  H      -0.735670     -1.010977     -1.437380
  H       0.465521     -1.132157      0.731015
  H       0.525176      0.637197      0.790544
  H      -2.046470     -0.965757      0.565223
  H      -1.985195      0.658996      0.621796
  H       2.440278     -0.292984     -0.147336
  O      -4.713362     -0.002724     -0.544856
  C      -3.965646     -0.006690     -1.432149
  O      -3.381203     -0.000173     -2.432897
14
Coordinates from ORCA-job ./irc_IRC_Full E -399.091207725157
  O       1.664523     -0.237599     -0.710770
  N      -1.958043     -0.134731     -0.005313
  C      -0.717311     -0.154908     -0.763020
  C       0.511012     -0.226471      0.119106
  H      -0.673062      0.741983     -1.381320
  H      -0.735992     -1.010953     -1.437810
  H       0.464753     -1.132114      0.730838
  H       0.524392      0.637239      0.790368
  H      -2.047266     -0.965749      0.564488
  H      -1.985947      0.659084      0.621110
  H       2.439700     -0.292979     -0.147165
  O      -4.711331     -0.002835     -0.543939
  C      -3.963287     -0.006854     -1.430200
  O      -3.379378     -0.000289     -2.432104
14
Coordinates from ORCA-job ./irc_IRC_Full E -399.091174242203
  O       1.664037     -0.237562     -0.710728
  N      -1.958484     -0.134683     -0.005928
  C      -0.717692     -0.154877     -0.763470
  C       0.510397     -0.226434      0.118935
  H      -0.673376      0.742010     -1.381762
  H      -0.736316     -1.010930     -1.438244
  H       0.463978     -1.132070      0.730661
  H       0.523601      0.637282      0.790192
  H      -2.048068     -0.965741      0.563745
  H      -1.986705      0.659173      0.620418
  H       2.439116     -0.292974     -0.146995
  O      -4.709442     -0.002946     -0.542829
  C      -3.960617     -0.007019     -1.428633
  O      -3.377667     -0.000406     -2.431094
14
Coordinates from ORCA-job ./irc_IRC_Full E -399.091142067374
  O       1.663567     -0.237526     -0.710688
  N      -1.958910     -0.134637     -0.006521
  C      -0.718058     -0.154847     -0.763904
  C       0.509805     -0.226398      0.118771
  H      -0.673678      0.742036     -1.382187
  H      -0.736625     -1.010907     -1.438659
  H       0.463231     -1.132028      0.730493
  H       0.522839      0.637323      0.790025
  H      -2.048841     -0.965733      0.563030
  H      -1.987436      0.659258      0.619749
  H       2.438553     -0.292969     -0.146837
  O      -4.707672     -0.003052     -0.541705
  C      -3.957952     -0.007178     -1.427237
  O      -3.376059     -0.000519     -2.430060
14
Coordinates from ORCA-job ./irc_IRC_Full E -399.091128647242
  O       1.663397     -0.237513     -0.710674
  N      -1.959064     -0.134620     -0.006734
  C      -0.718190     -0.154836     -0.764060
  C       0.509591     -0.226385      0.118713
  H      -0.673786      0.742045     -1.382339
  H      -0.736736     -1.010899     -1.438809
  H       0.462963     -1.132013      0.730433
  H       0.522565      0.637338      0.789965
  H      -2.049119     -0.965730      0.562773
  H      -1.987699      0.659289      0.619508
  H       2.438350     -0.292967     -0.146780
  O      -4.707107     -0.003090     -0.541215
  C      -3.956860     -0.007235     -1.426922
  O      -3.375541     -0.000560     -2.429588
14
Coordinates from ORCA-job ./irc_IRC_Full E -399.091096186772
  O       1.662907     -0.237476     -0.710635
  N      -1.959501     -0.134574     -0.007350
  C      -0.718564     -0.154805     -0.764504
  C       0.508980     -0.226348      0.118548
  H      -0.674094      0.742072     -1.382775
  H      -0.737050     -1.010877     -1.439236
  H       0.462195     -1.131969      0.730263
  H       0.521781      0.637380      0.789796
  H      -2.049913     -0.965721      0.562037
  H      -1.988452      0.659376      0.618818
  H       2.437769     -0.292961     -0.146624
  O      -4.705052     -0.003199     -0.540351
  C      -3.954537     -0.007401     -1.424868
  O      -3.373705     -0.000674     -2.428849
14
Coordinates from ORCA-job ./irc_IRC_Full E -399.091061602621
  O       1.662411     -0.237438     -0.710596
  N      -1.959944     -0.134527     -0.007969
  C      -0.718941     -0.154774     -0.764952
  C       0.508363     -0.226311      0.118383
  H      -0.674402      0.742098     -1.383213
  H      -0.737364     -1.010854     -1.439664
  H       0.461422     -1.131925      0.730095
  H       0.520992      0.637422      0.789627
  H      -2.050712     -0.965712      0.561295
  H      -1.989210      0.659463      0.618122
  H       2.437183     -0.292955     -0.146471
  O      -4.703176     -0.003308     -0.539256
  C      -3.951848     -0.007567     -1.423281
  O      -3.372011     -0.000789     -2.427853
14
Coordinates from ORCA-job ./irc_IRC_Full E -399.091027668976
  O       1.661911     -0.237401     -0.710559
  N      -1.960389     -0.134481     -0.008590
  C      -0.719319     -0.154743     -0.765400
  C       0.507746     -0.226273      0.118221
  H      -0.674708      0.742125     -1.383650
  H      -0.737676     -1.010833     -1.440091
  H       0.460648     -1.131881      0.729928
  H       0.520202      0.637465      0.789461
  H      -2.051511     -0.965702      0.560552
  H      -1.989969      0.659550      0.617425
  H       2.436594     -0.292950     -0.146322
  O      -4.701292     -0.003418     -0.538171
  C      -3.949155     -0.007733     -1.421675
  O      -3.370317     -0.000904     -2.426858
14
Coordinates from ORCA-job ./irc_IRC_Full E -399.090994654843
  O       1.661436     -0.237365     -0.710525
  N      -1.960807     -0.134437     -0.009177
  C      -0.719672     -0.154715     -0.765820
  C       0.507163     -0.226238      0.118070
  H      -0.674995      0.742151     -1.384060
  H      -0.737968     -1.010813     -1.440492
  H       0.459921     -1.131839      0.729774
  H       0.519459      0.637505      0.789306
  H      -2.052261     -0.965693      0.559854
  H      -1.990682      0.659632      0.616768
  H       2.436040     -0.292944     -0.146187
  O      -4.699461     -0.003521     -0.537230
  C      -3.946749     -0.007890     -1.419969
  O      -3.368662     -0.001010     -2.426044
14
Coordinates from ORCA-job ./irc_IRC_Full E -399.090959721813
  O       1.660930     -0.237326     -0.710490
  N      -1.961252     -0.134391     -0.009798
  C      -0.720047     -0.154684     -0.766267
  C       0.506545     -0.226201      0.117912
  H      -0.675297      0.742177     -1.384494
  H      -0.738275     -1.010792     -1.440917
  H       0.459149     -1.131795      0.729612
  H       0.518670      0.637547      0.789145
  H      -2.053056     -0.965683      0.559113
  H      -1.991439      0.659718      0.616070
  H       2.435450     -0.292938     -0.146047
  O      -4.697641     -0.003629     -0.536089
  C      -3.943952     -0.008056     -1.418492
  O      -3.367021     -0.001124     -2.424987
14
Coordinates from ORCA-job ./irc_IRC_Full E -399.090928942938
  O       1.660485     -0.237293     -0.710461
  N      -1.961639     -0.134351     -0.010344
  C      -0.720372     -0.154658     -0.766655
  C       0.506006     -0.226168      0.117777
  H      -0.675558      0.742201     -1.384871
  H      -0.738539     -1.010774     -1.441286
  H       0.458477     -1.131757      0.729474
  H       0.517983      0.637584      0.789006
  H      -2.053747     -0.965674      0.558467
  H      -1.992097      0.659793      0.615462
  H       2.434935     -0.292933     -0.145930
  O      -4.695898     -0.003723     -0.535292
  C      -3.941794     -0.008201     -1.416801
  O      -3.365478     -0.001221     -2.424277
14
Coordinates from ORCA-job ./irc_IRC_Full E -399.090894062988
  O       1.659977     -0.237255     -0.710429
  N      -1.962081     -0.134306     -0.010958
  C      -0.720740     -0.154628     -0.767094
  C       0.505393     -0.226131      0.117626
  H      -0.675852      0.742227     -1.385296
  H      -0.738835     -1.010755     -1.441701
  H       0.457716     -1.131713      0.729320
  H       0.517206      0.637625      0.788853
  H      -2.054527     -0.965663      0.557737
  H      -1.992839      0.659876      0.614773
  H       2.434351     -0.292926     -0.145804
  O      -4.694198     -0.003828     -0.534076
  C      -3.938872     -0.008366     -1.415546
  O      -3.363935     -0.001333     -2.423135
14
Coordinates from ORCA-job ./irc_IRC_Full E -399.090859177431
  O       1.659471     -0.237218     -0.710399
  N      -1.962516     -0.134262     -0.011569
  C      -0.721102     -0.154599     -0.767527
  C       0.504789     -0.226095      0.117480
  H      -0.676139      0.742253     -1.385715
  H      -0.739125     -1.010736     -1.442110
  H       0.456964     -1.131670      0.729171
  H       0.516438      0.637666      0.788703
  H      -2.055295     -0.965653      0.557016
  H      -1.993571      0.659958      0.614092
  H       2.433771     -0.292920     -0.145684
  O      -4.692295     -0.003933     -0.533149
  C      -3.936386     -0.008528     -1.413727
  O      -3.362241     -0.001440     -2.422314
14
Coordinates from ORCA-job ./irc_IRC_Full E -399.090823495517
  O       1.658947     -0.237179     -0.710370
  N      -1.962966     -0.134217     -0.012197
  C      -0.721474     -0.154569     -0.767971
  C       0.504165     -0.226057      0.117332
  H      -0.676431      0.742280     -1.386144
  H      -0.739420     -1.010718     -1.442530
  H       0.456191     -1.131625      0.729021
  H       0.515649      0.637707      0.788552
  H      -2.056081     -0.965641      0.556276
  H      -1.994321      0.660042      0.613393
  H       2.433175     -0.292913     -0.145566
  O      -4.690468     -0.004040     -0.532053
  C      -3.933602     -0.008696     -1.412167
  O      -3.360601     -0.001552     -2.421308
14
Coordinates from ORCA-job ./irc_IRC_Full E -399.090788399077
  O       1.658440     -0.237141     -0.710344
  N      -1.963397     -0.134173     -0.012799
  C      -0.721829     -0.154540     -0.768396
  C       0.503567     -0.226022      0.117193
  H      -0.676708      0.742306     -1.386553
  H      -0.739699     -1.010700     -1.442929
  H       0.455452     -1.131582      0.728880
  H       0.514894      0.637747      0.788410
  H      -2.056830     -0.965629      0.555568
  H      -1.995036      0.660121      0.612724
  H       2.432602     -0.292906     -0.145458
  O      -4.688758     -0.004141     -0.530968
  C      -3.930868     -0.008856     -1.410758
  O      -3.359066     -0.001658     -2.420301
14
Coordinates from ORCA-job ./irc_IRC_Full E -399.090751534753
  O       1.657906     -0.237102     -0.710317
  N      -1.963847     -0.134130     -0.013430
  C      -0.722199     -0.154510     -0.768839
  C       0.502942     -0.225985      0.117050
  H      -0.676995      0.742333     -1.386979
  H      -0.739987     -1.010683     -1.443345
  H       0.454678     -1.131537      0.728735
  H       0.514105      0.637789      0.788265
  H      -2.057610     -0.965616      0.554829
  H      -1.995780      0.660203      0.612024
  H       2.432001     -0.292899     -0.145352
  O      -4.686861     -0.004248     -0.529974
  C      -3.928223     -0.009024     -1.408971
  O      -3.357366     -0.001767     -2.419429
14
Coordinates from ORCA-job ./irc_IRC_Full E -399.090716351230
  O       1.657363     -0.237062     -0.710293
  N      -1.964300     -0.134084     -0.014065
  C      -0.722569     -0.154481     -0.769283
  C       0.502311     -0.225947      0.116912
  H      -0.677278      0.742361     -1.387404
  H      -0.740271     -1.010667     -1.443760
  H       0.453902     -1.131493      0.728595
  H       0.513312      0.637830      0.788124
  H      -2.058389     -0.965604      0.554089
  H      -1.996523      0.660284      0.611322
  H       2.431395     -0.292892     -0.145253
  O      -4.684974     -0.004353     -0.528971
  C      -3.925502     -0.009193     -1.407258
  O      -3.355713     -0.001876     -2.418485
14
Coordinates from ORCA-job ./irc_IRC_Full E -399.090681969263
  O       1.656855     -0.237025     -0.710272
  N      -1.964720     -0.134044     -0.014655
  C      -0.722911     -0.154453     -0.769694
  C       0.501726     -0.225912      0.116784
  H      -0.677539      0.742387     -1.387798
  H      -0.740532     -1.010653     -1.444145
  H       0.453182     -1.131451      0.728467
  H       0.512577      0.637868      0.787996
  H      -2.059107     -0.965591      0.553402
  H      -1.997209      0.660359      0.610672
  H       2.430830     -0.292885     -0.145165
  O      -4.683194     -0.004451     -0.528081
  C      -3.923084     -0.009350     -1.405501
  O      -3.354110     -0.001975     -2.417742
14
Coordinates from ORCA-job ./irc_IRC_Full E -399.090645270898
  O       1.656305     -0.236985     -0.710251
  N      -1.965174     -0.133999     -0.015289
  C      -0.723280     -0.154424     -0.770136
  C       0.501095     -0.225875      0.116650
  H      -0.677817      0.742414     -1.388220
  H      -0.740810     -1.010638     -1.444558
  H       0.452407     -1.131406      0.728332
  H       0.511786      0.637909      0.787860
  H      -2.059877     -0.965577      0.552666
  H      -1.997943      0.660439      0.609973
  H       2.430220     -0.292877     -0.145075
  O      -4.681416     -0.004556     -0.526970
  C      -3.920198     -0.009518     -1.404017
  O      -3.352533     -0.002084     -2.416695
14
Coordinates from ORCA-job ./irc_IRC_Full E -399.090613797640
  O       1.655837     -0.236951     -0.710235
  N      -1.965554     -0.133961     -0.015825
  C      -0.723588     -0.154400     -0.770505
  C       0.500563     -0.225843      0.116540
  H      -0.678047      0.742438     -1.388573
  H      -0.741039     -1.010626     -1.444902
  H       0.451756     -1.131368      0.728222
  H       0.511121      0.637943      0.787749
  H      -2.060518     -0.965566      0.552048
  H      -1.998555      0.660505      0.609387
  H       2.429705     -0.292870     -0.145006
  O      -4.679733     -0.004644     -0.526272
  C      -3.918111     -0.009660     -1.402285
  O      -3.351074     -0.002173     -2.416073
14
Coordinates from ORCA-job ./irc_IRC_Full E -399.090577584798
  O       1.655280     -0.236911     -0.710218
  N      -1.966004     -0.133918     -0.016451
  C      -0.723949     -0.154371     -0.770941
  C       0.499936     -0.225807      0.116416
  H      -0.678313      0.742465     -1.388984
  H      -0.741304     -1.010611     -1.445304
  H       0.450992     -1.131324      0.728097
  H       0.510341      0.637983      0.787623
  H      -2.061263     -0.965550      0.551324
  H      -1.999266      0.660580      0.608699
  H       2.429096     -0.292862     -0.144932
  O      -4.678102     -0.004745     -0.525063
  C      -3.915075     -0.009826     -1.401066
  O      -3.349606     -0.002279     -2.414934
14
Coordinates from ORCA-job ./irc_IRC_Full E -399.090540990085
  O       1.654723     -0.236871     -0.710204
  N      -1.966447     -0.133875     -0.017075
  C      -0.724305     -0.154343     -0.771368
  C       0.499316     -0.225771      0.116295
  H      -0.678571      0.742493     -1.389389
  H      -0.741561     -1.010599     -1.445700
  H       0.450235     -1.131279      0.727978
  H       0.509569      0.638021      0.787503
  H      -2.061995     -0.965536      0.550610
  H      -1.999964      0.660655      0.608021
  H       2.428490     -0.292853     -0.144865
  O      -4.676221     -0.004846     -0.524190
  C      -3.912539     -0.009992     -1.399190
  O      -3.347965     -0.002381     -2.414158
14
Coordinates from ORCA-job ./irc_IRC_Full E -399.090504080728
  O       1.654144     -0.236830     -0.710191
  N      -1.966905     -0.133831     -0.017716
  C      -0.724672     -0.154314     -0.771809
  C       0.498674     -0.225733      0.116173
  H      -0.678835      0.742521     -1.389805
  H      -0.741824     -1.010586     -1.446107
  H       0.449456     -1.131233      0.727858
  H       0.508774      0.638062      0.787382
  H      -2.062745     -0.965520      0.549875
  H      -2.000678      0.660731      0.607323
  H       2.427862     -0.292844     -0.144800
  O      -4.674434     -0.004949     -0.523122
  C      -3.909668     -0.010161     -1.397619
  O      -3.346386     -0.002487     -2.413173
14
Coordinates from ORCA-job ./irc_IRC_Full E -399.090468111420
  O       1.653587     -0.236791     -0.710181
  N      -1.967337     -0.133790     -0.018324
  C      -0.725016     -0.154287     -0.772223
  C       0.498065     -0.225698      0.116063
  H      -0.679078      0.742548     -1.390195
  H      -0.742064     -1.010576     -1.446489
  H       0.448720     -1.131190      0.727751
  H       0.508023      0.638099      0.787272
  H      -2.063443     -0.965505      0.549184
  H      -2.001342      0.660801      0.606665
  H       2.427263     -0.292835     -0.144748
  O      -4.672643     -0.005047     -0.522248
  C      -3.907159     -0.010322     -1.395840
  O      -3.344812     -0.002584     -2.412418
14
Coordinates from ORCA-job ./irc_IRC_Full E -399.090430742082
  O       1.652990     -0.236748     -0.710173
  N      -1.967797     -0.133746     -0.018968
  C      -0.725382     -0.154259     -0.772664
  C       0.497416     -0.225661      0.115949
  H      -0.679333      0.742576     -1.390608
  H      -0.742317     -1.010564     -1.446893
  H       0.447938     -1.131144      0.727640
  H       0.507225      0.638138      0.787159
  H      -2.064179     -0.965489      0.548451
  H      -2.002042      0.660875      0.605967
  H       2.426622     -0.292825     -0.144698
  O      -4.670878     -0.005149     -0.521167
  C      -3.904238     -0.010492     -1.394316
  O      -3.343262     -0.002690     -2.411411
14
Coordinates from ORCA-job ./irc_IRC_Full E -399.090394361284
  O       1.652417     -0.236708     -0.710169
  N      -1.968229     -0.133705     -0.019578
  C      -0.725723     -0.154232     -0.773076
  C       0.496802     -0.225626      0.115846
  H      -0.679567      0.742604     -1.390993
  H      -0.742548     -1.010555     -1.447270
  H       0.447202     -1.131100      0.727542
  H       0.506475      0.638174      0.787059
  H      -2.064862     -0.965475      0.547764
  H      -2.002690      0.660945      0.605314
  H       2.426011     -0.292815     -0.144659
  O      -4.669082     -0.005245     -0.520320
  C      -3.901730     -0.010652     -1.392538
  O      -3.341713     -0.002786     -2.410651
14
Coordinates from ORCA-job ./irc_IRC_Full E -399.090356832074
  O       1.651797     -0.236665     -0.710168
  N      -1.968689     -0.133661     -0.020224
  C      -0.726089     -0.154204     -0.773515
  C       0.496145     -0.225588      0.115740
  H      -0.679811      0.742633     -1.391402
  H      -0.742790     -1.010545     -1.447671
  H       0.446418     -1.131053      0.727441
  H       0.505674      0.638213      0.786956
  H      -2.065581     -0.965458      0.547031
  H      -2.003372      0.661016      0.604615
  H       2.425352     -0.292804     -0.144624
  O      -4.667325     -0.005346     -0.519242
  C      -3.898794     -0.010823     -1.391007
  O      -3.340171     -0.002890     -2.409661
14
Coordinates from ORCA-job ./irc_IRC_Full E -399.090320526585
  O       1.651193     -0.236623     -0.710171
  N      -1.969130     -0.133620     -0.020845
  C      -0.726437     -0.154178     -0.773934
  C       0.495511     -0.225553      0.115644
  H      -0.680038      0.742660     -1.391790
  H      -0.743014     -1.010536     -1.448051
  H       0.445667     -1.131008      0.727351
  H       0.504910      0.638249      0.786865
  H      -2.066258     -0.965443      0.546333
  H      -2.004011      0.661084      0.603950
  H       2.424712     -0.292793     -0.144599
  O      -4.665659     -0.005443     -0.518204
  C      -3.895970     -0.010986     -1.389578
  O      -3.338713     -0.002989     -2.408704
14
Coordinates from ORCA-job ./irc_IRC_Full E -399.090280882479
  O       1.650547     -0.236578     -0.710178
  N      -1.969588     -0.133576     -0.021496
  C      -0.726800     -0.154150     -0.774369
  C       0.494843     -0.225515      0.115547
  H      -0.680271      0.742689     -1.392194
  H      -0.743244     -1.010528     -1.448449
  H       0.444880     -1.130961      0.727263
  H       0.504108      0.638287      0.786774
  H      -2.066958     -0.965427      0.545602
  H      -2.004672      0.661154      0.603253
  H       2.424031     -0.292780     -0.144579
  O      -4.663783     -0.005545     -0.517265
  C      -3.893247     -0.011156     -1.387744
  O      -3.337083     -0.003091     -2.407894
14
Coordinates from ORCA-job ./irc_IRC_Full E -399.090243825568
  O       1.649879     -0.236532     -0.710190
  N      -1.970047     -0.133534     -0.022153
  C      -0.727165     -0.154122     -0.774807
  C       0.494166     -0.225477      0.115457
  H      -0.680497      0.742718     -1.392598
  H      -0.743467     -1.010520     -1.448845
  H       0.444089     -1.130913      0.727182
  H       0.503304      0.638324      0.786691
  H      -2.067646     -0.965413      0.544868
  H      -2.005320      0.661226      0.602552
  H       2.423328     -0.292767     -0.144569
  O      -4.661909     -0.005647     -0.516309
  C      -3.890458     -0.011327     -1.386004
  O      -3.335495     -0.003193     -2.407007
14
Coordinates from ORCA-job ./irc_IRC_Full E -399.090207721201
  O       1.649249     -0.236489     -0.710205
  N      -1.970470     -0.133494     -0.022761
  C      -0.727501     -0.154097     -0.775210
  C       0.493533     -0.225442      0.115377
  H      -0.680700      0.742746     -1.392971
  H      -0.743668     -1.010513     -1.449211
  H       0.443358     -1.130869      0.727113
  H       0.502561      0.638359      0.786620
  H      -2.068274     -0.965400      0.544188
  H      -2.005909      0.661290      0.601903
  H       2.422665     -0.292754     -0.144566
  O      -4.660136     -0.005742     -0.515456
  C      -3.888001     -0.011484     -1.384222
  O      -3.333942     -0.003287     -2.406331
14
Coordinates from ORCA-job ./irc_IRC_Full E -399.090169378391
  O       1.648559     -0.236442     -0.710224
  N      -1.970928     -0.133452     -0.023417
  C      -0.727866     -0.154069     -0.775645
  C       0.492846     -0.225404      0.115294
  H      -0.680916      0.742775     -1.393372
  H      -0.743882     -1.010505     -1.449605
  H       0.442568     -1.130822      0.727042
  H       0.501759      0.638396      0.786547
  H      -2.068946     -0.965387      0.543454
  H      -2.006538      0.661360      0.601202
  H       2.421941     -0.292739     -0.144566
  O      -4.658362     -0.005844     -0.514372
  C      -3.885050     -0.011653     -1.382749
  O      -3.332421     -0.003390     -2.405319
14
Coordinates from ORCA-job ./irc_IRC_Full E -399.090137219322
  O       1.647978     -0.236402     -0.710244
  N      -1.971296     -0.133418     -0.023955
  C      -0.728163     -0.154047     -0.775995
  C       0.492279     -0.225373      0.115234
  H      -0.681084      0.742800     -1.393695
  H      -0.744049     -1.010501     -1.449923
  H       0.441929     -1.130784      0.726993
  H       0.501111      0.638426      0.786495
  H      -2.069478     -0.965376      0.542856
  H      -2.007033      0.661416      0.600629
  H       2.421333     -0.292726     -0.144575
  O      -4.656687     -0.005929     -0.513735
  C      -3.883065     -0.011790     -1.381021
  O      -3.331013     -0.003472     -2.404795
14
Coordinates from ORCA-job ./irc_IRC_Full E -399.090100166648
  O       1.647247     -0.236353     -0.710271
  N      -1.971745     -0.133379     -0.024607
  C      -0.728529     -0.154019     -0.776422
  C       0.491575     -0.225335      0.115169
  H      -0.681279      0.742831     -1.394086
  H      -0.744243     -1.010497     -1.450307
  H       0.441160     -1.130739      0.726942
  H       0.500331      0.638464      0.786443
  H      -2.070106     -0.965364      0.542129
  H      -2.007613      0.661482      0.599930
  H       2.420571     -0.292709     -0.144593
  O      -4.655032     -0.006031     -0.512484
  C      -3.880014     -0.011951     -1.379927
  O      -3.329561     -0.003576     -2.403645
14
Coordinates from ORCA-job ./irc_IRC_Full E -399.090062504010
  O       1.646512     -0.236304     -0.710297
  N      -1.972182     -0.133341     -0.025251
  C      -0.728891     -0.153993     -0.776837
  C       0.490876     -0.225297      0.115114
  H      -0.681460      0.742866     -1.394466
  H      -0.744426     -1.010496     -1.450680
  H       0.440418     -1.130697      0.726900
  H       0.499581      0.638501      0.786398
  H      -2.070705     -0.965352      0.541416
  H      -2.008162      0.661544      0.599244
  H       2.419809     -0.292692     -0.144619
  O      -4.653079     -0.006134     -0.511599
  C      -3.877640     -0.012106     -1.378120
  O      -3.327887     -0.003676     -2.402933
14
Coordinates from ORCA-job ./irc_IRC_Full E -399.090024052969
  O       1.645721     -0.236251     -0.710325
  N      -1.972643     -0.133301     -0.025929
  C      -0.729278     -0.153964     -0.777272
  C       0.490129     -0.225258      0.115063
  H      -0.681644      0.742906     -1.394865
  H      -0.744612     -1.010499     -1.451071
  H       0.439647     -1.130655      0.726863
  H       0.498802      0.638541      0.786358
  H      -2.071322     -0.965338      0.540665
  H      -2.008725      0.661606      0.598519
  H       2.418992     -0.292673     -0.144651
  O      -4.651190     -0.006242     -0.510439
  C      -3.874874     -0.012265     -1.376719
  O      -3.326242     -0.003784     -2.401929
14
Coordinates from ORCA-job ./irc_IRC_Full E -399.089986620375
  O       1.644925     -0.236200     -0.710335
  N      -1.973091     -0.133265     -0.026590
  C      -0.729673     -0.153934     -0.777688
  C       0.489381     -0.225219      0.115028
  H      -0.681803      0.742955     -1.395243
  H      -0.744776     -1.010511     -1.451440
  H       0.438941     -1.130617      0.726836
  H       0.498091      0.638579      0.786328
  H      -2.071884     -0.965320      0.539947
  H      -2.009231      0.661657      0.597820
  H       2.418192     -0.292654     -0.144695
  O      -4.649199     -0.006350     -0.509414
  C      -3.872612     -0.012409     -1.375160
  O      -3.324498     -0.003889     -2.401124
14
Coordinates from ORCA-job ./irc_IRC_Full E -399.089947205566
  O       1.644056     -0.236144     -0.710331
  N      -1.973578     -0.133228     -0.027294
  C      -0.730110     -0.153901     -0.778132
  C       0.488561     -0.225178      0.115001
  H      -0.681959      0.743016     -1.395641
  H      -0.744941     -1.010531     -1.451826
  H       0.438218     -1.130579      0.726811
  H       0.497366      0.638619      0.786301
  H      -2.072459     -0.965295      0.539185
  H      -2.009744      0.661702      0.597075
  H       2.417337     -0.292632     -0.144749
  O      -4.647192     -0.006467     -0.508125
  C      -3.870085     -0.012554     -1.373949
  O      -3.322706     -0.004004     -2.400057
14
Coordinates from ORCA-job ./irc_IRC_Full E -399.089909570168
  O       1.643186     -0.236093     -0.710260
  N      -1.974061     -0.133194     -0.027969
  C      -0.730591     -0.153864     -0.778564
  C       0.487699     -0.225137      0.114987
  H      -0.682075      0.743091     -1.396006
  H      -0.745072     -1.010567     -1.452176
  H       0.437612     -1.130539      0.726786
  H       0.496758      0.638646      0.786271
  H      -2.072964     -0.965250      0.538465
  H      -2.010187      0.661717      0.596363
  H       2.416550     -0.292612     -0.144819
  O      -4.645065     -0.006583     -0.506973
  C      -3.868242     -0.012675     -1.372634
  O      -3.320787     -0.004116     -2.399202
14
Coordinates from ORCA-job ./irc_IRC_Full E -399.089885045487
  O       1.642629     -0.236061     -0.710186
  N      -1.974376     -0.133175     -0.028381
  C      -0.730916     -0.153838     -0.778846
  C       0.487120     -0.225111      0.114980
  H      -0.682137      0.743142     -1.396228
  H      -0.745144     -1.010593     -1.452386
  H       0.437264     -1.130510      0.726768
  H       0.496409      0.638656      0.786248
  H      -2.073267     -0.965207      0.538011
  H      -2.010449      0.661709      0.595909
  H       2.416071     -0.292599     -0.144871
  O      -4.643685     -0.006659     -0.506242
  C      -3.867210     -0.012745     -1.371857
  O      -3.319545     -0.004188     -2.398650
14
Coordinates from ORCA-job ./irc_IRC_Full E -399.089869334046
  O       1.642383     -0.236047     -0.710144
  N      -1.974516     -0.133166     -0.028557
  C      -0.731063     -0.153826     -0.778973
  C       0.486855     -0.225099      0.114978
  H      -0.682160      0.743165     -1.396323
  H      -0.745173     -1.010605     -1.452476
  H       0.437120     -1.130496      0.726758
  H       0.496265      0.638659      0.786237
  H      -2.073397     -0.965182      0.537810
  H      -2.010561      0.661700      0.595707
  H       2.415865     -0.292593     -0.144897
  O      -4.642893     -0.006693     -0.506122
  C      -3.867095     -0.012774     -1.371094
  O      -3.318868     -0.004219     -2.398635
14
Coordinates from ORCA-job ./irc_IRC_Full E -399.089821221898
  O       1.641044     -0.235979     -0.709781
  N      -1.974772     -0.133143     -0.029654
  C      -0.732533     -0.153744     -0.779576
  C       0.484972     -0.225021      0.114832
  H      -0.682163      0.743252     -1.396711
  H      -0.745205     -1.010633     -1.452816
  H       0.436646     -1.130439      0.726721
  H       0.495795      0.638670      0.786190
  H      -2.073995     -0.964960      0.536834
  H      -2.011070      0.661547      0.594709
  H       2.415160     -0.292578     -0.144997
  O      -4.640323     -0.006865     -0.503577
  C      -3.864798     -0.012892     -1.370828
  O      -3.315994     -0.004390     -2.397076
14
Coordinates from ORCA-job ./irc_IRC_Full E -399.089758013419
  O       1.640153     -0.235931     -0.709684
  N      -1.974332     -0.133146     -0.030709
  C      -0.733840     -0.153702     -0.779596
  C       0.483856     -0.224976      0.114622
  H      -0.682106      0.743320     -1.396892
  H      -0.745167     -1.010664     -1.452964
  H       0.436513     -1.130439      0.726724
  H       0.495667      0.638696      0.786192
  H      -2.074292     -0.964961      0.536513
  H      -2.011315      0.661578      0.594388
  H       2.415174     -0.292593     -0.144877
  O      -4.639649     -0.006946     -0.501580
  C      -3.864385     -0.012950     -1.369776
  O      -3.313515     -0.004463     -2.398092
14
Coordinates from ORCA-job ./irc_IRC_Full E -399.088475626510
  O       1.595216     -0.234363     -0.700087
  N      -2.039973     -0.126762     -0.103133
  C      -0.768950     -0.150470     -0.818049
  C       0.428518     -0.224514      0.109205
  H      -0.705598      0.748064     -1.428809
  H      -0.770942     -1.008504     -1.487405
  H       0.371358     -1.131370      0.717325
  H       0.430443      0.638268      0.780928
  H      -2.164296     -0.958281      0.461580
  H      -2.100688      0.669440      0.519927
  H       2.362106     -0.284564     -0.124152
  O      -4.581945     -0.009675     -0.484370
  C      -3.715539     -0.021759     -1.283587
  O      -3.286692     -0.006823     -2.380052
14
Coordinates from ORCA-job ./irc_IRC_Full E -399.090227676608
  O       1.550280     -0.232795     -0.690490
  N      -2.105614     -0.120379     -0.175557
  C      -0.804061     -0.147239     -0.856501
  C       0.373181     -0.224052      0.103787
  H      -0.729090      0.752808     -1.460727
  H      -0.796717     -1.006344     -1.521846
  H       0.306202     -1.132302      0.707926
  H       0.365219      0.637840      0.775663
  H      -2.254300     -0.951602      0.386646
  H      -2.190062      0.677302      0.445465
  H       2.309037     -0.276535     -0.103427
  O      -4.524241     -0.012403     -0.467160
  C      -3.566693     -0.030568     -1.197399
  O      -3.259869     -0.009183     -2.362011
14
Coordinates from ORCA-job ./irc_IRC_Full E -399.090378381755
  O       1.548926     -0.232749     -0.690346
  N      -2.109176     -0.120241     -0.177504
  C      -0.804199     -0.147181     -0.857849
  C       0.371790     -0.224036      0.103978
  H      -0.729203      0.752938     -1.460868
  H      -0.796829     -1.006433     -1.521973
  H       0.306016     -1.132297      0.707894
  H       0.365050      0.637849      0.775644
  H      -2.253807     -0.951491      0.387110
  H      -2.189647      0.677168      0.445862
  H       2.308687     -0.276543     -0.103445
  O      -4.520160     -0.012596     -0.467399
  C      -3.565469     -0.030503     -1.197385
  O      -3.258708     -0.009334     -2.359348
14
Coordinates from ORCA-job ./irc_IRC_Full E -399.090468889338
  O       1.547630     -0.232707     -0.690168
  N      -2.111868     -0.120116     -0.179170
  C      -0.804845     -0.147112     -0.858879
  C       0.370408     -0.224008      0.104138
  H      -0.729327      0.753164     -1.461148
  H      -0.796956     -1.006611     -1.522250
  H       0.305684     -1.132320      0.707889
  H       0.364737      0.637882      0.775652
  H      -2.253404     -0.951153      0.387351
  H      -2.189333      0.676810      0.446008
  H       2.308045     -0.276541     -0.103570
  O      -4.517258     -0.012754     -0.466821
  C      -3.563049     -0.030530     -1.196770
  O      -3.257193     -0.009455     -2.357890
14
Coordinates from ORCA-job ./irc_IRC_Full E -399.090565240860
  O       1.545995     -0.232652     -0.689977
  N      -2.114403     -0.119979     -0.180994
  C      -0.805946     -0.147022     -0.859962
  C       0.368683     -0.223962      0.104299
  H      -0.729533      0.753494     -1.461621
  H      -0.797166     -1.006871     -1.522729
  H       0.305068     -1.132367      0.707912
  H       0.364147      0.637948      0.775692
  H      -2.253049     -0.950565      0.387417
  H      -2.189093      0.676215      0.445937
  H       2.306927     -0.276529     -0.103808
  O      -4.514258     -0.012923     -0.465711
  C      -3.559079     -0.030655     -1.195262
  O      -3.255022     -0.009582     -2.356822
14
Coordinates from ORCA-job ./irc_IRC_Full E -399.090675952006
  O       1.544016     -0.232583     -0.689875
  N      -2.116532     -0.119850     -0.182828
  C      -0.807226     -0.146921     -0.861127
  C       0.366720     -0.223904      0.104437
  H      -0.729874      0.753859     -1.462276
  H      -0.797506     -1.007142     -1.523394
  H       0.304076     -1.132424      0.707959
  H       0.363187      0.638041      0.775764
  H      -2.252867     -0.949831      0.387235
  H      -2.189033      0.675512      0.445599
  H       2.305312     -0.276508     -0.104120
  O      -4.511123     -0.013091     -0.464281
  C      -3.553465     -0.030886     -1.193259
  O      -3.252411     -0.009721     -2.355464
14
Coordinates from ORCA-job ./irc_IRC_Full E -399.090789222696
  O       1.541851     -0.232502     -0.689912
  N      -2.118227     -0.119741     -0.184553
  C      -0.808338     -0.146828     -0.862345
  C       0.364717     -0.223842      0.104524
  H      -0.730343      0.754181     -1.463034
  H      -0.797966     -1.007353     -1.524164
  H       0.302757     -1.132462      0.708006
  H       0.361898      0.638137      0.775844
  H      -2.252918     -0.949145      0.386841
  H      -2.189185      0.674897      0.445059
  H       2.303380     -0.276482     -0.104450
  O      -4.507475     -0.013258     -0.463103
  C      -3.547386     -0.031185     -1.190395
  O      -3.249493     -0.009866     -2.353948
14
Coordinates from ORCA-job ./irc_IRC_Full E -399.090902064235
  O       1.539786     -0.232422     -0.690061
  N      -2.119442     -0.119659     -0.185976
  C      -0.809135     -0.146749     -0.863472
  C       0.362902     -0.223781      0.104523
  H      -0.730885      0.754418     -1.463831
  H      -0.798492     -1.007477     -1.524974
  H       0.301209     -1.132454      0.708018
  H       0.360377      0.638205      0.775888
  H      -2.253204     -0.948687      0.386296
  H      -2.189532      0.674538      0.444402
  H       2.301372     -0.276456     -0.104766
  O      -4.503864     -0.013410     -0.462005
  C      -3.541431     -0.031506     -1.187139
  O      -3.246386     -0.010012     -2.352533
14
Coordinates from ORCA-job ./irc_IRC_Full E -399.091012059360
  O       1.537793     -0.232344     -0.690252
  N      -2.120500     -0.119585     -0.187223
  C      -0.809856     -0.146680     -0.864571
  C       0.361169     -0.223723      0.104467
  H      -0.731459      0.754610     -1.464655
  H      -0.799046     -1.007550     -1.525811
  H       0.299524     -1.132413      0.707982
  H       0.358714      0.638256      0.775883
  H      -2.253606     -0.948365      0.385681
  H      -2.189965      0.674324      0.443694
  H       2.299399     -0.276433     -0.105054
  O      -4.500216     -0.013558     -0.460891
  C      -3.535507     -0.031820     -1.184039
  O      -3.243170     -0.010170     -2.350841
14
Coordinates from ORCA-job ./irc_IRC_Full E -399.091116624386
  O       1.535871     -0.232269     -0.690442
  N      -2.121437     -0.119520     -0.188343
  C      -0.810547     -0.146613     -0.865645
  C       0.359470     -0.223663      0.104356
  H      -0.732059      0.754774     -1.465496
  H      -0.799625     -1.007595     -1.526668
  H       0.297747     -1.132356      0.707902
  H       0.356956      0.638299      0.775834
  H      -2.254070     -0.948123      0.385038
  H      -2.190441      0.674195      0.442973
  H       2.297469     -0.276413     -0.105325
  O      -4.496669     -0.013701     -0.459666
  C      -3.529561     -0.032128     -1.181059
  O      -3.239831     -0.010336     -2.349089
14
Coordinates from ORCA-job ./irc_IRC_Full E -399.091217372544
  O       1.533975     -0.232196     -0.690630
  N      -2.122305     -0.119459     -0.189384
  C      -0.811220     -0.146549     -0.866726
  C       0.357775     -0.223604      0.104209
  H      -0.732691      0.754921     -1.466362
  H      -0.800234     -1.007619     -1.527548
  H       0.295879     -1.132288      0.707782
  H       0.355106      0.638339      0.775743
  H      -2.254576     -0.947936      0.384382
  H      -2.190941      0.674121      0.442251
  H       2.295561     -0.276397     -0.105576
  O      -4.493058     -0.013841     -0.458426
  C      -3.523623     -0.032431     -1.178139
  O      -3.236376     -0.010510     -2.347207
14
Coordinates from ORCA-job ./irc_IRC_Full E -399.091316677003
  O       1.532156     -0.232127     -0.690794
  N      -2.123030     -0.119406     -0.190295
  C      -0.811874     -0.146485     -0.867779
  C       0.356108     -0.223545      0.104010
  H      -0.733355      0.755054     -1.467245
  H      -0.800878     -1.007628     -1.528449
  H       0.293936     -1.132215      0.707612
  H       0.353179      0.638380      0.775602
  H      -2.255098     -0.947797      0.383738
  H      -2.191441      0.674092      0.441557
  H       2.293707     -0.276386     -0.105800
  O      -4.489430     -0.013975     -0.457207
  C      -3.517940     -0.032725     -1.175059
  O      -3.232768     -0.010687     -2.345520
14
Coordinates from ORCA-job ./irc_IRC_Full E -399.091411185629
  O       1.530335     -0.232059     -0.690954
  N      -2.123712     -0.119353     -0.191155
  C      -0.812514     -0.146425     -0.868863
  C       0.354432     -0.223486      0.103782
  H      -0.734063      0.755177     -1.468155
  H      -0.801566     -1.007620     -1.529377
  H       0.291904     -1.132137      0.707399
  H       0.351163      0.638423      0.775418
  H      -2.255622     -0.947696      0.383117
  H      -2.191928      0.674095      0.440895
  H       2.291870     -0.276379     -0.105988
  O      -4.485719     -0.014107     -0.455996
  C      -3.512222     -0.033011     -1.172163
  O      -3.229087     -0.010872     -2.343589
14
Coordinates from ORCA-job ./irc_IRC_Full E -399.091498313124
  O       1.528607     -0.231997     -0.691061
  N      -2.124232     -0.119317     -0.191872
  C      -0.813171     -0.146360     -0.869906
  C       0.352745     -0.223427      0.103496
  H      -0.734811      0.755300     -1.469096
  H      -0.802297     -1.007611     -1.530341
  H       0.289791     -1.132061      0.707142
  H       0.349063      0.638473      0.775190
  H      -2.256120     -0.947595      0.382513
  H      -2.192377      0.674100      0.440267
  H       2.290014     -0.276374     -0.106174
  O      -4.482148     -0.014230     -0.454683
  C      -3.506600     -0.033297     -1.169001
  O      -3.225193     -0.011054     -2.342103
14
Coordinates from ORCA-job ./irc_IRC_Full E -399.091577710158
  O       1.526828     -0.231932     -0.691227
  N      -2.124756     -0.119257     -0.192559
  C      -0.813743     -0.146312     -0.871023
  C       0.351136     -0.223371      0.103218
  H      -0.735598      0.755399     -1.470023
  H      -0.803069     -1.007566     -1.531283
  H       0.287652     -1.131978      0.706835
  H       0.346937      0.638518      0.774911
  H      -2.256556     -0.947579      0.382027
  H      -2.192747      0.674152      0.439762
  H       2.288326     -0.276382     -0.106223
  O      -4.478449     -0.014345     -0.453587
  C      -3.501117     -0.033546     -1.166834
  O      -3.221570     -0.011253     -2.339622
14
Coordinates from ORCA-job ./irc_IRC_Full E -399.091650283671
  O       1.525354     -0.231884     -0.691232
  N      -2.124992     -0.119251     -0.192978
  C      -0.814362     -0.146242     -0.871978
  C       0.349533     -0.223317      0.102847
  H      -0.736392      0.755512     -1.470966
  H      -0.803858     -1.007550     -1.532254
  H       0.285513     -1.131910      0.706501
  H       0.344809      0.638578      0.774606
  H      -2.256900     -0.947504      0.381561
  H      -2.193025      0.674164      0.439304
  H       2.286558     -0.276386     -0.106350
  O      -4.475425     -0.014437     -0.452189
  C      -3.495865     -0.033800     -1.163943
  O      -3.217676     -0.011422     -2.338559
14
Coordinates from ORCA-job ./irc_IRC_Full E -399.091720225989
  O       1.523582     -0.231825     -0.691386
  N      -2.125350     -0.119185     -0.193536
  C      -0.814908     -0.146201     -0.873137
  C       0.347934     -0.223262      0.102494
  H      -0.737287      0.755599     -1.471943
  H      -0.804748     -1.007475     -1.533248
  H       0.283214     -1.131824      0.706095
  H       0.342521      0.638628      0.774229
  H      -2.257188     -0.947545      0.381226
  H      -2.193225      0.674236      0.438968
  H       2.284928     -0.276409     -0.106252
  O      -4.471243     -0.014542     -0.451550
  C      -3.491086     -0.034022     -1.161446
  O      -3.213872     -0.011622     -2.336144
14
Coordinates from ORCA-job ./irc_IRC_Full E -399.091780088447
  O       1.522159     -0.231784     -0.691355
  N      -2.125373     -0.119188     -0.193738
  C      -0.815512     -0.146134     -0.874114
  C       0.346331     -0.223210      0.102035
  H      -0.738189      0.755705     -1.472940
  H      -0.805658     -1.007438     -1.534279
  H       0.280921     -1.131756      0.705661
  H       0.340239      0.638693      0.773825
  H      -2.257334     -0.947503      0.380918
  H      -2.193285      0.674246      0.438691
  H       2.283197     -0.276430     -0.106232
  O      -4.468403     -0.014609     -0.450172
  C      -3.485984     -0.034254     -1.158779
  O      -3.209837     -0.011790     -2.335151
14
Coordinates from ORCA-job ./irc_IRC_Full E -399.091836673732
  O       1.520639     -0.231743     -0.691346
  N      -2.125473     -0.119160     -0.194028
  C      -0.816075     -0.146082     -0.875258
  C       0.344694     -0.223159      0.101566
  H      -0.739198      0.755793     -1.473986
  H      -0.806679     -1.007356     -1.535354
  H       0.278461     -1.131675      0.705146
  H       0.337789      0.638752      0.773344
  H      -2.257370     -0.947553      0.380751
  H      -2.193217      0.674310      0.438563
  H       2.281460     -0.276463     -0.106079
  O      -4.464685     -0.014679     -0.449415
  C      -3.481196     -0.034453     -1.156598
  O      -3.205876     -0.011984     -2.332935
