14
Coordinates from ORCA-job reactopt E -399.091626953419
  O           1.07386436849978     -0.43651633010361      0.57964570421210
  N          -2.37862300934840      0.15518105616270     -0.49792836161247
  C          -1.04261053167046      0.43305872013331      0.07057122674867
  C          -0.17057489212159     -0.80189528800899      0.01235255142194
  H          -1.19234735652885      0.75170448144123      1.09686974320241
  H          -0.59306319626795      1.24252735829496     -0.49919914651355
  H          -0.04831022643556     -1.12274013869152     -1.02564882819416
  H          -0.63197948138532     -1.61613680476928      0.57480102918411
  H          -2.31330907153494     -0.26085642974499     -1.42332924000782
  H          -2.88449013848812      1.02987461603960     -0.61766970457267
  H           1.64836592193125     -1.20622510046099      0.56677146456059
  O          -3.12240748369682     -0.71710767016661      1.57005632309645
  C          -3.35509419371731     -0.79679804667353      0.38225736000092
  O          -4.13677770923569     -1.37914342345226     -0.34356812152652
