14
Coordinates from ORCA-job irc_reverse_IRC_B E -399.091402886906
  O       1.081514     -0.436489      0.603684
  N      -2.373459      0.137874     -0.491541
  C      -1.036174      0.431672      0.069492
  C      -0.150754     -0.793469      0.004642
  H      -1.176782      0.753794      1.096283
  H      -0.596093      1.245776     -0.503103
  H      -0.004165     -1.090536     -1.037228
  H      -0.619650     -1.621563      0.539565
  H      -2.300319     -0.300619     -1.405772
  H      -2.873403      1.010757     -0.642190
  H       1.666821     -1.197252      0.560777
  O      -3.159656     -0.736569      1.585350
  C      -3.401065     -0.796859      0.400812
  O      -4.204172     -1.331590     -0.334789
