14
Coordinates from ORCA-job reactopt E -399.091384464448
  O       1.081514     -0.436489      0.603684
  N      -2.373459      0.137874     -0.491541
  C      -1.036174      0.431672      0.069492
  C      -0.150754     -0.793469      0.004642
  H      -1.176782      0.753794      1.096283
  H      -0.596093      1.245776     -0.503103
  H      -0.004165     -1.090536     -1.037228
  H      -0.619650     -1.621563      0.539565
  H      -2.300319     -0.300619     -1.405772
  H      -2.873403      1.010757     -0.642190
  H       1.666821     -1.197252      0.560777
  O      -3.159656     -0.736569      1.585350
  C      -3.401065     -0.796859      0.400812
  O      -4.204172     -1.331590     -0.334789
14
Coordinates from ORCA-job reactopt E -399.091459713840
  O       1.070796     -0.438651      0.604012
  N      -2.374775      0.146002     -0.497492
  C      -1.041034      0.433515      0.068038
  C      -0.162368     -0.796442      0.007852
  H      -1.186857      0.753303      1.095094
  H      -0.596694      1.246237     -0.501724
  H      -0.018769     -1.099770     -1.032534
  H      -0.632976     -1.620481      0.548584
  H      -2.305013     -0.290671     -1.412836
  H      -2.877310      1.018634     -0.640972
  H       1.654398     -1.200633      0.566225
  O      -3.115216     -0.743187      1.576928
  C      -3.383983     -0.789168      0.397706
  O      -4.177556     -1.343761     -0.332899
14
Coordinates from ORCA-job reactopt E -399.090062237855
  O       1.042895     -0.433667      0.604043
  N      -2.373729      0.151608     -0.518900
  C      -1.058015      0.428444      0.066915
  C      -0.188438     -0.807394      0.015836
  H      -1.229786      0.728602      1.096730
  H      -0.608027      1.246307     -0.485014
  H      -0.051841     -1.125085     -1.020881
  H      -0.654163     -1.626116      0.572420
  H      -2.310634     -0.269702     -1.441759
  H      -2.899807      1.015196     -0.630246
  H       1.630746     -1.191627      0.581179
  O      -2.996795     -0.726505      1.546569
  C      -3.295554     -0.807514      0.376340
  O      -4.154210     -1.307621     -0.317250
14
Coordinates from ORCA-job reactopt E -399.091591947418
  O       1.071384     -0.434686      0.597346
  N      -2.374830      0.147635     -0.501384
  C      -1.042621      0.432234      0.068399
  C      -0.165137     -0.798915      0.011833
  H      -1.193731      0.748820      1.095309
  H      -0.595557      1.245084     -0.498608
  H      -0.028870     -1.111197     -1.026959
  H      -0.631198     -1.618648      0.562606
  H      -2.306330     -0.282427     -1.419906
  H      -2.882120      1.018959     -0.636106
  H       1.655581     -1.196450      0.564993
  O      -3.104338     -0.743772      1.571520
  C      -3.368801     -0.797208      0.390731
  O      -4.180789     -1.334503     -0.333792
14
Coordinates from ORCA-job reactopt E -399.091609354769
  O       1.070901     -0.434968      0.595374
  N      -2.375631      0.149575     -0.501824
  C      -1.043073      0.432454      0.068555
  C      -0.166745     -0.799533      0.012433
  H      -1.194852      0.748916      1.095407
  H      -0.594499      1.244576     -0.498335
  H      -0.032452     -1.113899     -1.026019
  H      -0.632481     -1.617863      0.565303
  H      -2.307941     -0.278613     -1.421297
  H      -2.883090      1.021169     -0.634328
  H       1.654072     -1.197635      0.565461
  O      -3.101759     -0.742225      1.570382
  C      -3.365573     -0.796318      0.389176
  O      -4.174236     -1.340710     -0.334307
14
Coordinates from ORCA-job reactopt E -399.091648876928
  O       1.071305     -0.435187      0.588394
  N      -2.377415      0.153420     -0.501401
  C      -1.043564      0.432603      0.069617
  C      -0.169621     -0.801114      0.013483
  H      -1.196129      0.749153      1.096209
  H      -0.592256      1.242940     -0.497664
  H      -0.041268     -1.120350     -1.024277
  H      -0.633437     -1.616401      0.572096
  H      -2.311273     -0.269245     -1.423645
  H      -2.884814      1.026039     -0.628233
  H       1.651584     -1.200302      0.565173
  O      -3.104511     -0.734059      1.568777
  C      -3.358432     -0.795382      0.384870
  O      -4.157526     -1.357188     -0.337417
14
Coordinates from ORCA-job reactopt E -399.091614337119
  O       1.072442     -0.435300      0.583882
  N      -2.378126      0.154562     -0.500055
  C      -1.043382      0.432573      0.070470
  C      -0.170354     -0.801802      0.013576
  H      -1.195405      0.749695      1.096894
  H      -0.591882      1.242174     -0.497642
  H      -0.045402     -1.122776     -1.024053
  H      -0.632679     -1.616110      0.574943
  H      -2.312389     -0.265069     -1.423789
  H      -2.884936      1.028046     -0.624023
  H       1.650824     -1.201962      0.564434
  O      -3.111669     -0.727110      1.568808
  C      -3.356086     -0.795392      0.382838
  O      -4.148314     -1.366600     -0.340300
14
Coordinates from ORCA-job reactopt E -399.091625326879
  O       1.073361     -0.435519      0.581622
  N      -2.378362      0.154602     -0.498867
  C      -1.043029      0.432609      0.070777
  C      -0.170289     -0.801948      0.013240
  H      -1.194067      0.750489      1.097100
  H      -0.592396      1.242050     -0.498201
  H      -0.046845     -1.123080     -1.024510
  H      -0.631843     -1.616213      0.575466
  H      -2.312691     -0.263444     -1.423352
  H      -2.884563      1.028721     -0.621237
  H       1.650342     -1.203294      0.564613
  O      -3.117382     -0.722715      1.569287
  C      -3.355819     -0.795829      0.382237
  O      -4.143774     -1.371503     -0.342192
14
Coordinates from ORCA-job reactopt E -399.091616509174
  O       1.074080     -0.436232      0.579310
  N      -2.378634      0.155008     -0.497765
  C      -1.042670      0.432859      0.070929
  C      -0.170504     -0.802032      0.012629
  H      -1.192579      0.751432      1.097210
  H      -0.592990      1.242252     -0.498832
  H      -0.048588     -1.123118     -1.025329
  H      -0.631555     -1.616223      0.575460
  H      -2.313154     -0.261187     -1.423100
  H      -2.884346      1.029750     -0.617966
  H       1.649053     -1.205578      0.565584
  O      -3.123138     -0.717045      1.569905
  C      -3.355186     -0.796405      0.381885
  O      -4.137147     -1.378554     -0.343937
14
Coordinates from ORCA-job reactopt E -399.091626953419
  O       1.073864     -0.436516      0.579646
  N      -2.378623      0.155181     -0.497928
  C      -1.042611      0.433059      0.070571
  C      -0.170575     -0.801895      0.012353
  H      -1.192347      0.751704      1.096870
  H      -0.593063      1.242527     -0.499199
  H      -0.048310     -1.122740     -1.025649
  H      -0.631979     -1.616137      0.574801
  H      -2.313309     -0.260856     -1.423329
  H      -2.884490      1.029875     -0.617670
  H       1.648366     -1.206225      0.566771
  O      -3.122407     -0.717108      1.570056
  C      -3.355094     -0.796798      0.382257
  O      -4.136778     -1.379143     -0.343568
