14
Coordinates from ORCA-job ./orca E -399.102153644344
  N           0.44264051199806     -1.43704271934336      0.85265880451559
  C           0.55499492874848     -0.05194357480931      0.38463329696456
  C          -0.67359602416499      0.31248703241987     -0.42133555877058
  O          -1.86398468380889      0.16175440729021      0.35343482577328
  H           1.17461105890920     -1.63228401694917      1.52377382396037
  H           0.59592897951345     -2.06937446346653      0.07580113778926
  H           1.44454806839702      0.12458783658176     -0.22913262812164
  H           0.61742506247899      0.59668754246171      1.25949750771839
  H          -0.73314448002103     -0.31698763788113     -1.31515708169824
  H          -0.62972306153476      1.35392977976465     -0.73465845060380
  H          -1.76697986340379     -0.67771230503382      0.82065648497836
  O          -1.14137519124297     -3.95598990142023      3.85398870276295
  C          -1.39954552844221     -4.52808595050836      2.88415606947525
  O          -1.65786032722655     -5.10090757810622      1.91476464575621
