14
Coordinates from ORCA-job ./orca E -399.102046786989
  N           0.42331090498286     -1.52699214090900      0.88172977844335
  C           0.52854550998243     -0.13313843583422      0.43974809844919
  C          -0.69605325735332      0.23976317240418     -0.36838362410441
  O          -1.89218191349089      0.08261505439576      0.39623966514149
  H           1.15689126795342     -1.73171614334363      1.54813410657072
  H           0.57691709972924     -2.14462821862988      0.09327799975114
  H           1.42090502175142      0.06117987418742     -0.16485308920077
  H           0.58126714475980      0.49996976242999      1.32665429544541
  H          -0.74980289465447     -0.37965407709957     -1.26961399057220
  H          -0.65000421881090      1.28453676581392     -0.66997394535520
  H          -1.81060524979668     -0.77041659341541      0.84064349522996
  O          -1.06329627400669     -3.67478535105114      3.70375651570222
  C          -1.30783396684350     -4.23348579118435      2.72268292783239
  O          -1.55411972400269     -4.79412942676392      1.74303934716662
