14
Coordinates from ORCA-job ./orca E -399.093957805271
  N           0.44063455696305     -1.90453740588421      0.79046315146971
  C           0.42626179984044     -0.44282719987070      0.68631583611022
  C          -0.74585936762769      0.02156358843631     -0.15036108207767
  O          -2.00565212411736     -0.32930948477071      0.42445944664466
  H           1.24419622811335     -2.19518290542540      1.33385414852224
  H           0.56772287191591     -2.30332935747700     -0.13343646674455
  H           1.34156122165221     -0.03983194531210      0.23873892749324
  H           0.34049145647007     -0.03035088632405      1.69305007997983
  H          -0.67106664461428     -0.39471123278012     -1.15960539617663
  H          -0.73872122070581      1.10710705038897     -0.22636211543487
  H          -2.00020416532882     -1.28171120945872      0.56653828822489
  O          -0.73586540739972     -2.46241311002927      3.25563663532369
  C          -1.04052606774367     -3.10684241484240      2.34091147596247
  O          -1.45903368721758     -3.85850503565024      1.56287865120254
