14
Coordinates from ORCA-job ./orca E -399.097503283127
  N           0.28602775249333     -1.70633629612809      0.99725637991435
  C           0.45921524130291     -0.31670178024392      0.56061238954364
  C          -0.72134597518212      0.11124607103444     -0.28424558319339
  O          -1.94909128741426      0.03999776629215      0.44235249101265
  H           1.01986143332881     -1.94660450161057      1.65179082563351
  H           0.40899178663469     -2.32230320134627      0.20205090951151
  H           1.37557586073100     -0.15906665129943     -0.01881937703776
  H           0.51420876977345      0.31416586055732      1.44918318027559
  H          -0.78516102520183     -0.51562455592497     -1.17949798151334
  H          -0.60610543773846      1.14735096330478     -0.59679032700603
  H          -1.96688775616635     -0.82693275294967      0.86411957737812
  O          -0.82204336143498     -3.15608597700202      3.38828737546990
  C          -1.01324018677194     -3.65973602968944      2.36535115849967
  O          -1.23606636415416     -4.22425046399399      1.38143056201138
