14
Coordinates from ORCA-job ./orca E -399.091097511935
  N           0.47404007597608     -1.94626650650979      0.83548479738078
  C           0.41691277080248     -0.48599953037441      0.74059553809953
  C          -0.75487113845870     -0.02219420274877     -0.09744017374536
  O          -2.02485878727017     -0.33702460845682      0.47384713734748
  H           1.34588763179932     -2.22812801779487      1.26664705166619
  H           0.45715169995851     -2.35945319923613     -0.08991706784152
  H           1.32788311175874     -0.07372945420056      0.29553762441372
  H           0.33005930691801     -0.08305919413227      1.75091997197062
  H          -0.68627821458558     -0.44467473670233     -1.10353045085186
  H          -0.72450170541569      1.06258733395024     -0.17970294704812
  H          -2.13373951685866     -1.29231236000230      0.45154326707805
  O          -0.76660853060690     -2.29223038071050      3.16491454857852
  C          -0.93601210821627     -2.93790249886404      2.20369203129239
  O          -1.36112514560102     -3.78049419321704      1.51049025215929
