14
Coordinates from ORCA-job ./orca E -399.102161794838
  N           0.44264137309391     -1.45666457712373      0.85738230728401
  C           0.54960067601542     -0.06848197657325      0.39806342493889
  C          -0.67784099427458      0.29711737241902     -0.40904621262018
  O          -1.87060458363813      0.14825200255823      0.36243612673857
  H           1.17807537021431     -1.65481027768020      1.52377494409963
  H           0.59273057676353     -2.08381909677067      0.07577472830517
  H           1.43977570568119      0.11593579681575     -0.21274126717949
  H           0.60774907912278      0.57525006888193      1.27691179490869
  H          -0.73583398236148     -0.33161552713336     -1.30352447272405
  H          -0.63237671178652      1.33866970231892     -0.72167745077177
  H          -1.78472306872594     -0.69825703422249      0.81847407202741
  O          -1.12267609993271     -3.89506980268272      3.82181652242978
  C          -1.38151799009018     -4.46734699696752      2.85230615414326
  O          -1.64105989988159     -5.04004120283982      1.88313090892002
