14
Coordinates from ORCA-job ./orca E -399.104342560717
  N           0.44720111319686     -1.99920942691805      0.92082187580216
  C           0.36465446998676     -0.52497486890847      0.81242370149469
  C          -0.77597355827820     -0.07074968239723     -0.06952514644193
  O          -2.06535467207186     -0.30752284633051      0.48717589243134
  H           1.34945228352889     -2.26261329197244      1.30562027319893
  H           0.35839196379285     -2.43851789503222      0.01019025844519
  H           1.30160708550188     -0.17075718108853      0.38626130905063
  H           0.26539787427428     -0.12975725279758      1.82015314564230
  H          -0.69951821509233     -0.53503815640710     -1.05507208503726
  H          -0.69208145337433      1.00715630677041     -0.19210091527212
  H          -2.25611555072210     -1.24772615324246      0.42221966154452
  O          -0.67371468517745     -2.20768142222250      3.04591660806568
  C          -0.68452430991380     -2.71576813579458      1.94442613922751
  O          -1.27548289545128     -3.61772154265822      1.38457086234803
