14
Coordinates from ORCA-job ./orca E -399.102012461616
  N           0.41958315594998     -1.53559529838618      0.88511193774861
  C           0.52578870966422     -0.14127262343431      0.44485717766117
  C          -0.69799963649042      0.23315508514426     -0.36379427327811
  O          -1.89481528782408      0.07566885598547      0.39968632852031
  H           1.15264516295954     -1.74146612524508      1.55173130311996
  H           0.57336322558199     -2.15241989316810      0.09605913303483
  H           1.41871174806043      0.05337325183196     -0.15880379942193
  H           0.57808827143632      0.49074402332996      1.33256860218957
  H          -0.75132919931072     -0.38514964333814     -1.26581261647599
  H          -0.65121674571431      1.27827049191800     -0.66408744246124
  H          -1.81404561671061     -0.77794511301420      0.84311680469564
  O          -1.05535582506683     -3.64883148044843      3.68981973022517
  C          -1.29762457305471     -4.20530129877498      2.70691622407314
  O          -1.54185393928076     -4.76411178140007      1.72571247086878
