14
Coordinates from ORCA-job ./orca E -399.107294604746
  N           0.44351210102806     -2.00855296048205      0.94500734593242
  C           0.35751020719047     -0.52871768328642      0.81858468087929
  C          -0.78411714515320     -0.08399367139979     -0.06632231571691
  O          -2.07206151309404     -0.29192814680960      0.50352936879127
  H           1.34618436375919     -2.25243327506141      1.34464933875898
  H           0.38542709539628     -2.44849105355033      0.03122591198785
  H           1.29571704717156     -0.19078357128294      0.38422507074491
  H           0.26406817774342     -0.12434810142922      1.82233398865889
  H          -0.71842588464697     -0.56977154247562     -1.04200581321224
  H          -0.68616487169860      0.98988898782380     -0.21215517447216
  H          -2.28051399631163     -1.22917310148239      0.45011629249544
  O          -0.65811932513133     -2.22098508426184      3.02149586922854
  C          -0.65132581811766     -2.68802903204708      1.89350204372137
  O          -1.27775098793537     -3.57356331325458      1.32889497270201
