14
Coordinates from ORCA-job ./orca E -399.101424165769
  N           0.37402899830022     -1.60809541108930      0.92347346398334
  C           0.50021782262930     -0.21364767388998      0.48929185180011
  C          -0.71271080815191      0.17765975433995     -0.32769462885372
  O          -1.91729799882402      0.03023800834426      0.42557668801161
  H           1.10019989790623     -1.82532964195084      1.59395808804290
  H           0.52515485155066     -2.22380920584866      0.13307296000723
  H           1.40011524718517     -0.02680131795383     -0.10647700835358
  H           0.55258741566202      0.41451442961781      1.37976787570857
  H          -0.76549623035198     -0.43642779737177     -1.23263288907074
  H          -0.65191002849540      1.22334670957888     -0.62344078438917
  H          -1.84865560051404     -0.82565405935097      0.86676077829410
  O          -0.97596885139878     -3.43461766379311      3.56718468528929
  C          -1.19545561602268     -3.96585258626337      2.56505115455759
  O          -1.42086964927474     -4.50640509336885      1.56918934547234
