14
Coordinates from ORCA-job ./orca E -399.102161881058
  N           0.44150347350259     -1.46578428359086      0.85980467345383
  C           0.54704003394142     -0.07649250915201      0.40358296478590
  C          -0.68033261369269      0.28953092396465     -0.40344137092230
  O          -1.87343839428651      0.13857971404519      0.36710187081604
  H           1.17709647834980     -1.66474565886399      1.52577275584031
  H           0.59214659872657     -2.09114644673822      0.07687069279510
  H           1.43734740186225      0.11034950373210     -0.20631300982897
  H           0.60395814426930      0.56537882998156      1.28387785130453
  H          -0.73740992564964     -0.33769015981021     -1.29903922877580
  H          -0.63550140213036      1.33165952168174     -0.71423226881801
  H          -1.78806334328607     -0.70920341577292      0.82081155326980
  O          -1.11510854104156     -3.86550886888421      3.80616862072887
  C          -1.37320602134222     -4.43692952422919      2.83595485669815
  O          -1.63209243902287     -5.00887917536355      1.86616161915250
