14
Coordinates from ORCA-job ./orca E -399.102079319634
  N           0.42692356045696     -1.51840171287702      0.87838181195440
  C           0.53127092644654     -0.12500354769121      0.43469749341448
  C          -0.69404317174899      0.24643250604033     -0.37301450556316
  O          -1.88957346023944      0.08974803154299      0.39263883797972
  H           1.16109312078960     -1.72201592855951      1.54448723603143
  H           0.58034568269236     -2.13680763180439      0.09049220012888
  H           1.42312642393682      0.06894276114293     -0.17076435840002
  H           0.58435726119932      0.50918076082469      1.32080983747889
  H          -0.74819889399804     -0.37410295007160     -1.27344783601474
  H          -0.64862878275224      1.29085743990864     -0.67590889975049
  H          -1.80738771480394     -0.76271541639008      0.83801090212940
  O          -1.07090646534327     -3.70072809402533      3.71759703395879
  C          -1.31793835558968     -4.26178722778832      2.73849762636871
  O          -1.56650068084596     -4.82448053925200      1.76060420078364
