14
Coordinates from ORCA-job ./orca E -399.102155199807
  N           0.44261033724676     -1.43711335242359      0.85268892587969
  C           0.55496605465654     -0.05199909442965      0.38466469450234
  C          -0.67361182708196      0.31245847453180     -0.42131290217963
  O          -1.86400456313438      0.16179066603574      0.35345715156030
  H           1.17462239101749     -1.63229599205559      1.52377702427040
  H           0.59597294936643     -2.06937664101354      0.07578706824771
  H           1.44452320491220      0.12451908725363     -0.22909902705082
  H           0.61740111451353      0.59663352358481      1.25952961330946
  H          -0.73317476279954     -0.31703221886283     -1.31512439562814
  H          -0.62969038721986      1.35389041501226     -0.73466686208477
  H          -1.76703826749078     -0.67768628871985      0.82066597320111
  O          -1.14135626835341     -3.95588885899845      3.85393497408243
  C          -1.39950283941257     -4.52797864617198      2.88409117173599
  O          -1.65777768602042     -5.10080262274269      1.91468817065389
