14
Coordinates from ORCA-job ./orca E -399.091667512690
  N           0.47333638169148     -1.94006545803816      0.81655148676064
  C           0.42079946766820     -0.47889680139054      0.72812353931130
  C          -0.75363626413753     -0.01394192587385     -0.10574586308305
  O          -2.02033708829323     -0.35216301120582      0.46020732558401
  H           1.33120731168970     -2.22163654324091      1.27526669640705
  H           0.50117575200871     -2.33949581334650     -0.11506057283768
  H           1.32975193583394     -0.05930709751041      0.28407860768892
  H           0.33277464709614     -0.07992104136535      1.74008011779234
  H          -0.67955958029025     -0.42280367350346     -1.11724489639186
  H          -0.73659257772797      1.07211989377995     -0.17411542032796
  H          -2.10277195999222     -1.31047569968941      0.45059080829064
  O          -0.73830922219361     -2.32745892232277      3.19491382448709
  C          -0.97655921339125     -2.97130004387844      2.25290076519767
  O          -1.41734013976197     -3.77553541141391      1.53253516162063
