14
Coordinates from ORCA-job ./orca E -399.099701768841
  N           0.28625886137377     -1.65319851930690      0.98697186667036
  C           0.47304426834272     -0.27370149440694      0.52204036107751
  C          -0.71714325742659      0.14332139879417     -0.31515568344792
  O          -1.93277233799853      0.04364047059275      0.42843449137175
  H           0.99839517264131     -1.87696514106511      1.67050789852700
  H           0.43413754966719     -2.28670160828955      0.20997054656967
  H           1.38461244730835     -0.13790269110677     -0.06925992379028
  H           0.54183047673589      0.37291564990277      1.39795088288256
  H          -0.78085613500160     -0.48254193203997     -1.21119687966904
  H          -0.61998051095829      1.18192834831377     -0.62594263540394
  H          -1.87869240467648     -0.79438347884609      0.90522779107269
  O          -0.87404942955488     -3.30333775192868      3.45526120103521
  C          -1.07075263207817     -3.80918166933351      2.43519197954492
  O          -1.28009261817461     -4.34477313027966      1.43307968405935
