14
Coordinates from ORCA-job ./orca E -399.095725507891
  N           0.43246980162072     -1.98444250177853      0.85938088881938
  C           0.38059252261859     -0.51853664563498      0.79201936255676
  C          -0.75338444380815     -0.02341210796067     -0.07747392594998
  O          -2.04740088858089     -0.32259977751366      0.44029958487972
  H           1.34046225873670     -2.29411982695178      1.18621508309965
  H           0.26837857503775     -2.40749936939607     -0.04670809801912
  H           1.31748214043913     -0.13952555618504      0.38134703416076
  H           0.27717992571097     -0.14239830670135      1.80897833449262
  H          -0.65343984129110     -0.42658454545941     -1.08828419353288
  H          -0.69444644770718      1.06154669543307     -0.13426846803341
  H          -2.18372999673456     -1.27238751811409      0.37707970325905
  O          -0.79484139523186     -2.13488883578459      3.07123666362649
  C          -0.76267791797573     -2.80808408454721      2.08607661575599
  O          -1.16270484263421     -3.80794916840521      1.56718299538465
