14
Coordinates from ORCA-job ./orca E -399.098973578243
  N           0.28689397447249     -1.67348314810534      0.99094609255654
  C           0.46804975786801     -0.29050021255455      0.53780334998834
  C          -0.71824338294097      0.13041946459178     -0.30278875820412
  O          -1.93884390467274      0.04221457060996      0.43373754893985
  H           1.00596401061857     -1.90714978318076      1.66374375422206
  H           0.42045318291402     -2.30252434458154      0.20782805949118
  H           1.38188621236531     -0.14443496734816     -0.04815852907481
  H           0.53044521372061      0.34946075705432      1.41921242312963
  H          -0.78166310768031     -0.49643463836049     -1.19811787994620
  H          -0.61475940714064      1.16805734461299     -0.61450115978353
  H          -1.91596103365853     -0.80982576849070      0.88622367690391
  O          -0.84903078877420     -3.24437183641458      3.42811831850901
  C          -1.04680256682737     -3.74871653129242      2.40730799409344
  O          -1.26444871006417     -4.29359245554020      1.41172668967451
