14
Coordinates from ORCA-job ./orca E -399.095922150556
  N           0.43901490338050     -1.87631168985475      0.77659881604727
  C           0.43777110853243     -0.41581835579701      0.65484520125679
  C          -0.74371337477596      0.03959523705889     -0.17363691903938
  O          -1.99198226729382     -0.31872784516264      0.42217844723545
  H           1.20652068589955     -2.16500990801557      1.37030690154502
  H           0.61949257284692     -2.28505170988621     -0.13381482170110
  H           1.35117957881408     -0.02203848759029      0.19536638379517
  H           0.36137253754166      0.00897741196356      1.65710951159732
  H          -0.67914258545070     -0.38579101805415     -1.18001247218110
  H          -0.74504426424717      1.12446718651264     -0.25932374313246
  H          -1.94510284318139     -1.25915784432815      0.62797615252001
  O          -0.75550461796216     -2.55975789324349      3.29785868354028
  C          -1.09090818203396     -3.19686172243731      2.39162663619922
  O          -1.50001380186987     -3.90939491016516      1.57600280281729
