14
Coordinates from ORCA-job ./orca E -399.102121038094
  N           0.43341786109443     -1.50119762177980      0.87172680173009
  C           0.53662299666195     -0.10878963289267      0.42454195940391
  C          -0.68985788956528      0.26013899335702     -0.38254200345820
  O          -1.88434832971101      0.10456782574612      0.38495280443516
  H           1.16848715433772     -1.70276406977017      1.53747915123510
  H           0.58650298324278     -2.12127581348162      0.08507704159740
  H           1.42764802651353      0.08399789485884     -0.18249788104417
  H           0.59055004305001      0.52757939152566      1.30902815731434
  H          -0.74481509175029     -0.36250368400461     -1.28146728359980
  H          -0.64537183626991      1.30388396215377     -0.68790733442750
  H          -1.80094563548266     -0.74665136295810      0.83247225496414
  O          -1.08579241218558     -3.75335555824427      3.74575029001550
  C          -1.33758842486126     -4.31890618862425      2.77045305559578
  O          -1.59056999487440     -4.88560568488582      1.79601456673817
