14
Coordinates from ORCA-job ./orca E -399.091277394737
  N           0.45573381498154     -1.95732034138450      0.83960987392148
  C           0.40941724235621     -0.49652753902533      0.75225198995312
  C          -0.75080580226302     -0.01364091675533     -0.09062738919986
  O          -2.02909573747270     -0.29153698673693      0.48025817589135
  H           1.33970332653368     -2.25603956308679      1.23323707306766
  H           0.38002068036315     -2.37665609603021     -0.07963221764535
  H           1.32926924059454     -0.10013195513355      0.31325114265490
  H           0.32505247443172     -0.09838734004094      1.76434875199041
  H          -0.68981168561406     -0.44462450684182     -1.09353662027473
  H          -0.69286434296352      1.06932100131498     -0.18020903158577
  H          -2.15969410443660     -1.24428183893621      0.47443441248299
  O          -0.88712451380695     -2.20324912558313      3.09255121017169
  C          -0.88278418800162     -2.92280717196813      2.16224278789665
  O          -1.18307695450224     -3.88499916879166      1.55490142117518
