14
Coordinates from ORCA-job ./orca E -399.101935292207
  N           0.41201463766904     -1.55269503048324      0.89213337587800
  C           0.52027820461832     -0.15751253157026      0.45510536021252
  C          -0.70185474333256      0.21994762962945     -0.35464105283381
  O          -1.90006067714505      0.06226284420806      0.40662868499967
  H           1.14411032135916     -1.76081052198559      1.55911254947636
  H           0.56602942351257     -2.16797389978951      0.10191975199600
  H           1.41433094698904      0.03759777748270     -0.14673184497352
  H           0.57181393010484      0.47248296991329      1.34430185332244
  H          -0.75447589008616     -0.39640608873638     -1.25803439316742
  H          -0.65342019759389      1.26563459549676     -0.65267628709086
  H          -1.82113117089970     -0.79245425421228      0.84825194819375
  O          -1.03927826934750     -3.59661985313535      3.66129980346222
  C          -1.27708409430977     -4.14924044315676      2.67513647936005
  O          -1.51733297133830     -4.70509474266071      1.69127535166451
