14
Coordinates from ORCA-job ./orca E -399.099350214138
  N           0.28777085586885     -1.66274630435687      0.98867392092750
  C           0.47098000548501     -0.28177919595156      0.53042511113005
  C          -0.71730601013107      0.13675680966498     -0.30863980209840
  O          -1.93544525430468      0.04254357769084      0.43116077289452
  H           1.00302720410911     -1.89404662471653      1.66626790455462
  H           0.42426708723049     -2.29543585603044      0.20902215128305
  H           1.38390982131820     -0.13927263037040     -0.05767143884288
  H           0.53575501159479      0.36101189793190      1.40956497418856
  H          -0.78037351816361     -0.48987673761729     -1.20417349928363
  H          -0.61778041995056      1.17492785324903     -0.61991704558350
  H          -1.89925048755813     -0.80459941045031      0.89251227437461
  O          -0.85923478732093     -3.27324243826764      3.44179226867139
  C          -1.05801608327655     -3.77783096860144      2.42139360818000
  O          -1.27436397470084     -4.31729152117398      1.42267038010394
