14
Coordinates from ORCA-job ./orca E -399.101708384388
  N           0.39338382006485     -1.58475815255620      0.90920342211630
  C           0.50933404815704     -0.18962682611583      0.47435033815878
  C          -0.70907488364107      0.19414158511401     -0.33807349310726
  O          -1.90981151242994      0.03973247083220      0.41991756107331
  H           1.12251257968498     -1.79732409494933      1.57798161287720
  H           0.54628651856574     -2.19979279150481      0.11861168460844
  H           1.40578349247749      0.00243710185152     -0.12493006413015
  H           0.56131439976274      0.43899892425453      1.36450173354473
  H          -0.76167405094703     -0.42056540245357     -1.24260157788512
  H          -0.65574775746578      1.24008835125041     -0.63434344912210
  H          -1.83437561525602     -0.81561654855445      0.86104079409147
  O          -1.00765548897570     -3.50199152692853      3.60771337764050
  C          -1.23339275888711     -4.04104442572841      2.61121926427771
  O          -1.46294334091011     -4.58556021351132      1.61849037635609
