14
Coordinates from ORCA-job ./orca E -399.100716796802
  N           0.41295753070399     -1.99699884357960      0.88267202637658
  C           0.36488172643748     -0.52538147288419      0.80943938310097
  C          -0.75677270494733     -0.03014070207161     -0.07470020066025
  O          -2.05743860942265     -0.31344189947674      0.43255293172701
  H           1.32887908510778     -2.30429328697688      1.19326082120158
  H           0.23633698602616     -2.42211577441124     -0.02113237439440
  H           1.31075434199392     -0.16784453889298      0.40424262891288
  H           0.25827977418456     -0.14913979999199      1.82458331940085
  H          -0.64935588313749     -0.44068962278005     -1.08147745375972
  H          -0.68515049616019      1.05365905269034     -0.13744697823154
  H          -2.20715767624418     -1.26091190740892      0.36444908191075
  O          -0.75939263874947     -2.12232094892818      3.04942715206842
  C          -0.69847316618389     -2.76240065273020      2.03056776541697
  O          -1.13440881940853     -3.77886115155726      1.54664347742957
