14
Coordinates from ORCA-job ./orca E -399.094373646678
  N           0.44019674699201     -1.97932729169614      0.85327422782203
  C           0.38590902490595     -0.51514291613488      0.78570613800322
  C          -0.75300831881412     -0.02283616310286     -0.07929198363833
  O          -2.04420637287200     -0.32600595467061      0.44402114027237
  H           1.34396690701273     -2.28816950836348      1.19112599535334
  H           0.28600406299672     -2.40292632574835     -0.05394211320799
  H           1.31923627467087     -0.12861035948857      0.37249865417896
  H           0.28341768846152     -0.13777396455810      1.80274736880360
  H          -0.65632292084981     -0.42634392603430     -1.09039373817919
  H          -0.69860917389674      1.06231992017851     -0.13727082027480
  H          -2.17584922446393     -1.27677749752499      0.38590762505643
  O          -0.79715066823680     -2.14724341218322      3.08215190399452
  C          -0.78557137859945     -2.82340387713445      2.10288533025455
  O          -1.18407319710679     -3.80864027253808      1.56366185206096
