14
Coordinates from ORCA-job ./orca E -399.101291569778
  N           0.36773978678703     -1.61583107854673      0.92840793173955
  C           0.49719663545316     -0.22159611716437      0.49444679726497
  C          -0.71385717973511      0.17217690952667     -0.32412833193310
  O          -1.91980246558559      0.02787721752105      0.42758455377278
  H           1.09303834307555     -1.83459160801107      1.59933789077545
  H           0.51830217711558     -2.23165436302914      0.13798565245278
  H           1.39819915858219     -0.03647577403714     -0.10020465431559
  H           0.54968243710358      0.40646373627240      1.38499022972676
  H          -0.76692115415009     -0.44205420671156     -1.22895024995156
  H          -0.65026929372277      1.21762360742739     -0.62013163251023
  H          -1.85433990058209     -0.82838061027759      0.86849172821938
  O          -0.96488605536027     -3.41109003175868      3.55243232138567
  C          -1.18271252317346     -3.94109759380244      2.54926269442287
  O          -1.40743051560764     -4.48225163640855      1.55355664945014
