14
Coordinates from ORCA-job ./orca E -399.102161240377
  N           0.44308462807004     -1.44724066730837      0.85532079278901
  C           0.55207936604713     -0.06028485811227      0.39232013919813
  C          -0.67525579553210      0.30472507419200     -0.41515847672384
  O          -1.86768840904659      0.15735225678654      0.35706395318356
  H           1.17866159289232     -1.64452437163317      1.52190604211761
  H           0.59339365543122     -2.07636443145006      0.07524906044094
  H           1.44242082850916      0.12095494215231     -0.21909506172450
  H           0.61134974509668      0.58551699872241      1.26954954946262
  H          -0.73408166342553     -0.32527113447740     -1.30866370915691
  H          -0.62955535236809      1.34586568604514     -0.72915150385909
  H          -1.78036923249160     -0.68689356172425      0.81704008963593
  O          -1.12957876930786     -3.92626948632428      3.83820600665062
  C          -1.38985376839474     -4.49799475363670      2.86873847904952
  O          -1.65066737528003     -5.07045324223181      1.89975621943637
