14
Coordinates from ORCA-job ./orca E -399.097259060357
  N           0.42510312237504     -1.98888754505100      0.86596956479694
  C           0.37499515417481     -0.52127965789389      0.79817961501497
  C          -0.75405705768057     -0.02459053737842     -0.07644989068722
  O          -2.05081406372413     -0.32032436546029      0.43548705535604
  H           1.33606110171254     -2.29933285046931      1.18473342502318
  H           0.25244907646423     -2.41272815495988     -0.03842602802894
  H           1.31537013178605     -0.14933993632926      0.39043993066308
  H           0.26993150521307     -0.14630947879241      1.81494085210237
  H          -0.65011489558055     -0.42791463239192     -1.08669987563797
  H          -0.69134905334545      1.06015928175974     -0.13270136751511
  H          -2.19070175507451     -1.26939062997621      0.36901233997825
  O          -0.78407799811513     -2.12749179824088      3.06385963332936
  C          -0.73975829804149     -2.79244087705617      2.06916309976085
  O          -1.14909751996375     -3.80101036675962      1.56557322634388
