14
Coordinates from ORCA-job ./orca E -399.101975200375
  N           0.41582540164573     -1.54418467864399      0.88855427239938
  C           0.52302885207599     -0.14939981965003      0.44999226579452
  C          -0.69993068471833      0.22655754638365     -0.35920326546659
  O          -1.89744959883052      0.06887859170179      0.40313897597712
  H           1.14840264188231     -1.75118967341554      1.55535548997960
  H           0.56976641407086     -2.16019066164454      0.09889104740885
  H           1.41652359308787      0.04553105905638     -0.15272905150624
  H           0.57491186347001      0.48155374736535      1.33848591356065
  H          -0.75287218435424     -0.39070877883086     -1.26195340898925
  H          -0.65235273297583      1.27198333118690     -0.65828979947591
  H          -1.81758278749011     -0.78531354157546      0.84561178179099
  O          -1.04731350940745     -3.62267987561384      3.67561925701007
  C          -1.28738074086691     -4.17720735815457      2.69107796812445
  O          -1.52963707738935     -4.73451143716507      1.70853013389227
