14
Coordinates from ORCA-job ./orca E -399.102156649876
  N       0.442614     -1.437102      0.852689
  C       0.554957     -0.051992      0.384656
  C      -0.673606      0.312488     -0.421329
  O      -1.863995      0.161785      0.353422
  H       1.174639     -1.632270      1.523780
  H       0.595952     -2.069385      0.075775
  H       1.444516      0.124528     -0.229105
  H       0.617393      0.596633      1.259525
  H      -0.733160     -0.316974     -1.315159
  H      -0.629698      1.353933     -0.734640
  H      -1.766987     -0.677683      0.820618
  O      -1.141370     -3.955962      3.853987
  C      -1.399474     -4.527980      2.884096
  O      -1.657842     -5.100898      1.914766
14
Coordinates from ORCA-job ./orca E -399.102155199807
  N       0.442610     -1.437113      0.852689
  C       0.554966     -0.051999      0.384665
  C      -0.673612      0.312458     -0.421313
  O      -1.864005      0.161791      0.353457
  H       1.174622     -1.632296      1.523777
  H       0.595973     -2.069377      0.075787
  H       1.444523      0.124519     -0.229099
  H       0.617401      0.596634      1.259530
  H      -0.733175     -0.317032     -1.315124
  H      -0.629690      1.353890     -0.734667
  H      -1.767038     -0.677686      0.820666
  O      -1.141356     -3.955889      3.853935
  C      -1.399503     -4.527979      2.884091
  O      -1.657778     -5.100803      1.914688
14
Coordinates from ORCA-job ./orca E -399.101895993867
  N       0.437322     -1.449197      0.858807
  C       0.547346     -0.061746      0.389283
  C      -0.675718      0.312645     -0.419916
  O      -1.866150      0.167941      0.350917
  H       1.180315     -1.629486      1.524983
  H       0.600647     -2.071553      0.070564
  H       1.437964      0.112446     -0.223612
  H       0.610942      0.585543      1.265062
  H      -0.736332     -0.314337     -1.315424
  H      -0.624541      1.354466     -0.730962
  H      -1.768560     -0.671851      0.812785
  O      -1.140308     -3.950302      3.853651
  C      -1.385003     -4.506508      2.871913
  O      -1.653984     -5.098942      1.915029
14
Coordinates from ORCA-job ./orca E -399.102104942364
  N       0.436268     -1.451116      0.859830
  C       0.547666     -0.063200      0.391993
  C      -0.675460      0.307750     -0.418760
  O      -1.869677      0.170383      0.351767
  H       1.178925     -1.634217      1.522854
  H       0.599620     -2.071590      0.075148
  H       1.439119      0.111123     -0.219575
  H       0.609247      0.584788      1.267523
  H      -0.736293     -0.323730     -1.311317
  H      -0.620542      1.347476     -0.736107
  H      -1.779123     -0.667963      0.821618
  O      -1.129962     -3.938896      3.843190
  C      -1.389386     -4.507343      2.871566
  O      -1.646463     -5.084344      1.903353
14
Coordinates from ORCA-job ./orca E -399.102107606913
  N       0.437795     -1.450547      0.859045
  C       0.548917     -0.062316      0.392766
  C      -0.675203      0.305569     -0.417760
  O      -1.870350      0.168144      0.352816
  H       1.179800     -1.637564      1.521680
  H       0.598912     -2.072720      0.075734
  H       1.440398      0.113480     -0.218218
  H       0.609059      0.585492      1.268463
  H      -0.735812     -0.326993     -1.309439
  H      -0.621495      1.345045     -0.736200
  H      -1.783311     -0.670354      0.823512
  O      -1.130782     -3.932805      3.839578
  C      -1.384041     -4.509008      2.870845
  O      -1.649947     -5.076306      1.900259
14
Coordinates from ORCA-job ./orca E -399.102143797652
  N       0.439027     -1.449440      0.858148
  C       0.550140     -0.061243      0.392972
  C      -0.674843      0.304660     -0.417062
  O      -1.870058      0.165429      0.353559
  H       1.180159     -1.640159      1.521021
  H       0.597489     -2.073791      0.075713
  H       1.441563      0.115736     -0.217682
  H       0.609443      0.586207      1.268912
  H      -0.735163     -0.327844     -1.308648
  H      -0.623193      1.344422     -0.734943
  H      -1.785215     -0.673981      0.822809
  O      -1.127555     -3.932065      3.838674
  C      -1.389006     -4.504299      2.869800
  O      -1.648849     -5.074512      1.899808
14
Coordinates from ORCA-job ./orca E -399.102144910749
  N       0.440421     -1.448570      0.857281
  C       0.550826     -0.060705      0.392821
  C      -0.674775      0.304805     -0.416612
  O      -1.869121      0.162954      0.354193
  H       1.180312     -1.641813      1.520712
  H       0.596235     -2.074557      0.075512
  H       1.442071      0.117598     -0.217784
  H       0.609872      0.586065      1.269268
  H      -0.734800     -0.326806     -1.308804
  H      -0.625382      1.345154     -0.732856
  H      -1.784477     -0.678123      0.820188
  O      -1.127625     -3.931183      3.839205
  C      -1.389610     -4.501852      2.869511
  O      -1.650008     -5.073851      1.900446
14
Coordinates from ORCA-job ./orca E -399.102148234574
  N       0.442460     -1.447495      0.855992
  C       0.551786     -0.060163      0.392731
  C      -0.674816      0.304695     -0.415732
  O      -1.868057      0.159376      0.355574
  H       1.180174     -1.644365      1.520586
  H       0.594181     -2.075809      0.075316
  H       1.442705      0.120272     -0.217913
  H       0.610457      0.585702      1.269897
  H      -0.734196     -0.325900     -1.308687
  H      -0.628287      1.345680     -0.730196
  H      -1.783440     -0.684145      0.817076
  O      -1.127907     -3.928413      3.838931
  C      -1.389736     -4.498905      2.869092
  O      -1.651386     -5.071410      1.900414
14
Coordinates from ORCA-job ./orca E -399.102160398417
  N       0.442912     -1.447325      0.855629
  C       0.551961     -0.060191      0.392605
  C      -0.674982      0.304708     -0.415424
  O      -1.867836      0.158369      0.356256
  H       1.179651     -1.644708      1.521028
  H       0.593609     -2.076137      0.075255
  H       1.442651      0.120807     -0.218304
  H       0.610786      0.585542      1.269889
  H      -0.734058     -0.325589     -1.308653
  H      -0.628975      1.345793     -0.729585
  H      -1.782301     -0.685746      0.816623
  O      -1.128481     -3.927316      3.838627
  C      -1.389693     -4.498333      2.868964
  O      -1.651305     -5.070757      1.900172
14
Coordinates from ORCA-job ./orca E -399.102161240377
  N       0.443085     -1.447241      0.855321
  C       0.552079     -0.060285      0.392320
  C      -0.675256      0.304725     -0.415158
  O      -1.867688      0.157352      0.357064
  H       1.178662     -1.644524      1.521906
  H       0.593394     -2.076364      0.075249
  H       1.442421      0.120955     -0.219095
  H       0.611350      0.585517      1.269550
  H      -0.734082     -0.325271     -1.308664
  H      -0.629555      1.345866     -0.729152
  H      -1.780369     -0.686894      0.817040
  O      -1.129579     -3.926269      3.838206
  C      -1.389854     -4.497995      2.868738
  O      -1.650667     -5.070453      1.899756
14
Coordinates from ORCA-job ./orca E -399.101892068895
  N       0.437810     -1.459288      0.861419
  C       0.544465     -0.070023      0.396918
  C      -0.677377      0.304894     -0.413729
  O      -1.869837      0.163442      0.354534
  H       1.184438     -1.641743      1.523144
  H       0.598057     -2.078603      0.069971
  H       1.435856      0.108923     -0.213649
  H       0.604872      0.574435      1.275060
  H      -0.737265     -0.322576     -1.308946
  H      -0.624442      1.346427     -0.725368
  H      -1.781922     -0.681101      0.809124
  O      -1.128532     -3.920612      3.837907
  C      -1.375287     -4.476498      2.856567
  O      -1.646897     -5.068557      1.900130
14
Coordinates from ORCA-job ./orca E -399.102103131301
  N       0.436607     -1.461202      0.862435
  C       0.544803     -0.071465      0.399519
  C      -0.677160      0.300060     -0.412607
  O      -1.873353      0.165626      0.355366
  H       1.182611     -1.646243      1.521181
  H       0.597228     -2.078580      0.074720
  H       1.436960      0.107392     -0.209856
  H       0.603395      0.573765      1.277330
  H      -0.737279     -0.331728     -1.304991
  H      -0.620546      1.339561     -0.730345
  H      -1.791947     -0.677270      0.818259
  O      -1.118341     -3.909334      3.827478
  C      -1.380083     -4.477196      2.856152
  O      -1.638957     -5.054270      1.888441
14
Coordinates from ORCA-job ./orca E -399.102101468076
  N       0.438013     -1.460688      0.861656
  C       0.546041     -0.070633      0.400186
  C      -0.676987      0.297841     -0.411637
  O      -1.874067      0.163221      0.356488
  H       1.183130     -1.649394      1.520295
  H       0.596853     -2.079728      0.075445
  H       1.438161      0.109483     -0.208728
  H       0.603373      0.574495      1.278082
  H      -0.736940     -0.334957     -1.303188
  H      -0.621583      1.337109     -0.730415
  H      -1.795631     -0.679480      0.820784
  O      -1.119841     -3.902813      3.823653
  C      -1.374180     -4.479367      2.855403
  O      -1.642402     -5.045971      1.885057
14
Coordinates from ORCA-job ./orca E -399.102138384174
  N       0.438944     -1.459674      0.860867
  C       0.547080     -0.069699      0.400158
  C      -0.676733      0.297234     -0.411117
  O      -1.873683      0.160664      0.357154
  H       1.183128     -1.651310      1.520079
  H       0.595834     -2.080666      0.075388
  H       1.439083      0.111218     -0.208619
  H       0.603922      0.575166      1.278204
  H      -0.736477     -0.335276     -1.302746
  H      -0.623253      1.336852     -0.729113
  H      -1.796456     -0.682621      0.820311
  O      -1.117164     -3.902737      3.823189
  C      -1.379401     -4.474782      2.854416
  O      -1.640886     -5.045252      1.884911
14
Coordinates from ORCA-job ./orca E -399.102142834246
  N       0.440232     -1.458742      0.859968
  C       0.547850     -0.069114      0.399891
  C      -0.676698      0.297252     -0.410661
  O      -1.872773      0.157853      0.357918
  H       1.182953     -1.652906      1.519994
  H       0.594806     -2.081477      0.075330
  H       1.439631      0.112948     -0.208922
  H       0.604517      0.575164      1.278358
  H      -0.736171     -0.334332     -1.302908
  H      -0.625583      1.337481     -0.726994
  H      -1.795413     -0.686757      0.818391
  O      -1.117390     -3.901658      3.823478
  C      -1.380281     -4.472233      2.853980
  O      -1.641740     -5.044360      1.885258
14
Coordinates from ORCA-job ./orca E -399.102146615152
  N       0.442270     -1.457412      0.858499
  C       0.549017     -0.068430      0.399501
  C      -0.676826      0.297058     -0.409741
  O      -1.871518      0.153224      0.359627
  H       1.182183     -1.655486      1.520332
  H       0.592991     -2.082915      0.075336
  H       1.440351      0.115618     -0.209540
  H       0.605499      0.574996      1.278616
  H      -0.735645     -0.333207     -1.302952
  H      -0.629197      1.338096     -0.723845
  H      -1.793263     -0.693505      0.816003
  O      -1.118244     -3.898494      3.823035
  C      -1.380785     -4.468841      2.853305
  O      -1.642894     -5.041584      1.884904
14
Coordinates from ORCA-job ./orca E -399.102161529976
  N       0.442750     -1.457101      0.858037
  C       0.549285     -0.068401      0.399218
  C      -0.677054      0.297058     -0.409409
  O      -1.871164      0.151635      0.360499
  H       1.181316     -1.655853      1.521023
  H       0.592466     -2.083341      0.075384
  H       1.440323      0.116193     -0.210184
  H       0.606018      0.574907      1.278436
  H      -0.735530     -0.332729     -1.303023
  H      -0.630305      1.338288     -0.722956
  H      -1.791391     -0.695608      0.815812
  O      -1.119159     -3.897165      3.822678
  C      -1.380812     -4.468073      2.853070
  O      -1.642804     -5.040693      1.884496
14
Coordinates from ORCA-job ./orca E -399.102163823662
  N       0.442887     -1.456859      0.857624
  C       0.549481     -0.068461      0.398695
  C      -0.677453      0.297087     -0.409124
  O      -1.870856      0.149845      0.361598
  H       1.179745     -1.655560      1.522362
  H       0.592304     -2.083671      0.075525
  H       1.440065      0.116309     -0.211398
  H       0.606859      0.574976      1.277808
  H      -0.735581     -0.332154     -1.303203
  H      -0.631412      1.338478     -0.722208
  H      -1.788163     -0.697368      0.816704
  O      -1.120816     -3.895836      3.822180
  C      -1.381056     -4.467564      2.852711
  O      -1.642064     -5.040103      1.883808
14
Coordinates from ORCA-job ./orca E -399.102161794838
  N       0.442641     -1.456665      0.857382
  C       0.549601     -0.068482      0.398063
  C      -0.677841      0.297117     -0.409046
  O      -1.870605      0.148252      0.362436
  H       1.178075     -1.654810      1.523775
  H       0.592731     -2.083819      0.075775
  H       1.439776      0.115936     -0.212741
  H       0.607749      0.575250      1.276912
  H      -0.735834     -0.331616     -1.303524
  H      -0.632377      1.338670     -0.721677
  H      -1.784723     -0.698257      0.818474
  O      -1.122676     -3.895070      3.821817
  C      -1.381518     -4.467347      2.852306
  O      -1.641060     -5.040041      1.883131
14
Coordinates from ORCA-job ./orca E -399.101894088897
  N       0.437380     -1.468682      0.863474
  C       0.541993     -0.078204      0.402650
  C      -0.679981      0.297278     -0.407599
  O      -1.872786      0.154308      0.359909
  H       1.183919     -1.652055      1.525059
  H       0.597411     -2.086128      0.070467
  H       1.433206      0.103941     -0.207329
  H       0.601266      0.564188      1.282405
  H      -0.739033     -0.328927     -1.303786
  H      -0.627304      1.339226     -0.717864
  H      -1.786311     -0.692489      0.810542
  O      -1.121636     -3.889365      3.821492
  C      -1.366882     -4.445846      2.840133
  O      -1.637304     -5.038125      1.883530
14
Coordinates from ORCA-job ./orca E -399.102103461142
  N       0.436054     -1.470515      0.864516
  C       0.542350     -0.079570      0.405201
  C      -0.679711      0.292498     -0.406577
  O      -1.876249      0.156308      0.360567
  H       1.182037     -1.656535      1.522956
  H       0.596656     -2.085992      0.075353
  H       1.434397      0.102311     -0.203512
  H       0.599787      0.563582      1.284625
  H      -0.739003     -0.337887     -1.300020
  H      -0.623536      1.332515     -0.722677
  H      -1.796264     -0.688733      0.819716
  O      -1.111235     -3.878469      3.811278
  C      -1.371976     -4.446368      2.839705
  O      -1.629366     -5.024027      1.871951
14
Coordinates from ORCA-job ./orca E -399.102106637885
  N       0.437340     -1.470025      0.863810
  C       0.543564     -0.078746      0.405884
  C      -0.679520      0.290204     -0.405677
  O      -1.877001      0.153867      0.361564
  H       1.182533     -1.659714      1.521990
  H       0.596411     -2.087099      0.076219
  H       1.435650      0.104249     -0.202271
  H       0.599680      0.564322      1.285378
  H      -0.738668     -0.341199     -1.298278
  H      -0.624577      1.330001     -0.722791
  H      -1.800009     -0.690766      0.822556
  O      -1.112832     -3.871751      3.807335
  C      -1.365533     -4.448978      2.839040
  O      -1.633098     -5.015247      1.868323
14
Coordinates from ORCA-job ./orca E -399.102138362543
  N       0.438067     -1.469057      0.863139
  C       0.544456     -0.077879      0.405769
  C      -0.679279      0.289823     -0.405313
  O      -1.876545      0.151530      0.362035
  H       1.182503     -1.661262      1.521866
  H       0.595519     -2.087915      0.076091
  H       1.436466      0.105705     -0.202251
  H       0.600185      0.564954      1.285388
  H      -0.738239     -0.341170     -1.298084
  H      -0.626167      1.330006     -0.721497
  H      -1.800378     -0.693568      0.821952
  O      -1.110167     -3.872390      3.807322
  C      -1.370981     -4.444409      2.838150
  O      -1.631502     -5.015249      1.868514
14
Coordinates from ORCA-job ./orca E -399.102142407060
  N       0.439218     -1.468139      0.862318
  C       0.545201     -0.077283      0.405512
  C      -0.679224      0.289774     -0.404920
  O      -1.875709      0.148792      0.362704
  H       1.182314     -1.662794      1.521771
  H       0.594563     -2.088684      0.076096
  H       1.437045      0.107311     -0.202482
  H       0.600707      0.565029      1.285502
  H      -0.737914     -0.340368     -1.298250
  H      -0.628380      1.330530     -0.719553
  H      -1.799407     -0.697402      0.820362
  O      -1.110235     -3.871466      3.807570
  C      -1.371876     -4.441992      2.837713
  O      -1.632363     -5.014190      1.868738
14
Coordinates from ORCA-job ./orca E -399.102146498409
  N       0.441165     -1.466713      0.860886
  C       0.546402     -0.076519      0.405084
  C      -0.679320      0.289532     -0.404076
  O      -1.874436      0.143927      0.364298
  H       1.181477     -1.665408      1.522103
  H       0.592716     -2.090140      0.076210
  H       1.437862      0.109955     -0.203043
  H       0.601654      0.564976      1.285692
  H      -0.737313     -0.339243     -1.298391
  H      -0.632112      1.331129     -0.716384
  H      -1.797113     -0.704185      0.818180
  O      -1.110875     -3.868564      3.807226
  C      -1.372475     -4.438523      2.837019
  O      -1.633695     -5.011106      1.868278
14
Coordinates from ORCA-job ./orca E -399.102161457486
  N       0.441645     -1.466339      0.860421
  C       0.546699     -0.076450      0.404789
  C      -0.679538      0.289501     -0.403759
  O      -1.874053      0.142186      0.365161
  H       1.180556     -1.665822      1.522816
  H       0.592107     -2.090597      0.076314
  H       1.437877      0.110577     -0.203675
  H       0.602174      0.564934      1.285496
  H      -0.737161     -0.338781     -1.298484
  H      -0.633308      1.331304     -0.715473
  H      -1.795133     -0.706406      0.818028
  O      -1.111699     -3.867309      3.806901
  C      -1.372523     -4.437688      2.836761
  O      -1.633704     -5.009994      1.867783
14
Coordinates from ORCA-job ./orca E -399.102164451063
  N       0.441779     -1.466023      0.860015
  C       0.546917     -0.076482      0.404240
  C      -0.679942      0.289507     -0.403491
  O      -1.873707      0.140229      0.366274
  H       1.178864     -1.665539      1.524258
  H       0.591813     -2.090973      0.076539
  H       1.437637      0.110735     -0.204924
  H       0.603040      0.565058      1.284824
  H      -0.737174     -0.338218     -1.298693
  H      -0.634512      1.331476     -0.714724
  H      -1.791666     -0.708297      0.818983
  O      -1.113294     -3.866097      3.806455
  C      -1.372760     -4.437134      2.836372
  O      -1.633056     -5.009123      1.866953
14
Coordinates from ORCA-job ./orca E -399.102161881058
  N       0.441503     -1.465784      0.859805
  C       0.547040     -0.076493      0.403583
  C      -0.680333      0.289531     -0.403441
  O      -1.873438      0.138580      0.367102
  H       1.177096     -1.664746      1.525773
  H       0.592147     -2.091146      0.076871
  H       1.437347      0.110350     -0.206313
  H       0.603958      0.565379      1.283878
  H      -0.737410     -0.337690     -1.299039
  H      -0.635501      1.331660     -0.714232
  H      -1.788063     -0.709203      0.820812
  O      -1.115109     -3.865509      3.806169
  C      -1.373206     -4.436930      2.835955
  O      -1.632092     -5.008879      1.866162
14
Coordinates from ORCA-job ./orca E -399.101892574333
  N       0.436253     -1.477773      0.865891
  C       0.539438     -0.086198      0.408158
  C      -0.682492      0.289684     -0.401981
  O      -1.875654      0.144608      0.364574
  H       1.183007     -1.662018      1.527103
  H       0.596845     -2.093524      0.071537
  H       1.430772      0.098388     -0.200931
  H       0.597469      0.554338      1.289355
  H      -0.740620     -0.335009     -1.299282
  H      -0.630468      1.332212     -0.710396
  H      -1.789683     -0.703457      0.812868
  O      -1.114074     -3.859764      3.805818
  C      -1.358502     -4.415424      2.823785
  O      -1.628352     -5.006945      1.866581
14
Coordinates from ORCA-job ./orca E -399.102102307262
  N       0.434884     -1.479595      0.866937
  C       0.539798     -0.087561      0.410694
  C      -0.682208      0.284946     -0.400973
  O      -1.879110      0.146585      0.365217
  H       1.181026     -1.666445      1.524959
  H       0.596040     -2.093302      0.076506
  H       1.431964      0.096724     -0.197140
  H       0.596021      0.553740      1.291553
  H      -0.740552     -0.343882     -1.295575
  H      -0.626687      1.325574     -0.715166
  H      -1.799605     -0.699766      0.821988
  O      -1.103642     -3.849005      3.795693
  C      -1.363622     -4.415940      2.823347
  O      -1.620368     -4.992953      1.855040
14
Coordinates from ORCA-job ./orca E -399.102104942842
  N       0.436120     -1.479130      0.866263
  C       0.540996     -0.086768      0.411376
  C      -0.682017      0.282664     -0.400085
  O      -1.879859      0.144186      0.366211
  H       1.181462     -1.669584      1.524036
  H       0.595784     -2.094407      0.077405
  H       1.433201      0.098580     -0.195910
  H       0.595934      0.554467      1.292288
  H      -0.740234     -0.347179     -1.293849
  H      -0.627694      1.323071     -0.715295
  H      -1.803322     -0.701746      0.824844
  O      -1.105256     -3.842265      3.791732
  C      -1.357144     -4.418648      2.822719
  O      -1.624030     -4.984122      1.851346
14
Coordinates from ORCA-job ./orca E -399.102136959410
  N       0.436799     -1.478184      0.865627
  C       0.541855     -0.085931      0.411246
  C      -0.681784      0.282319     -0.399745
  O      -1.879389      0.141930      0.366666
  H       1.181400     -1.671050      1.523972
  H       0.594907     -2.095215      0.077270
  H       1.433985      0.099957     -0.195920
  H       0.596448      0.555087      1.292267
  H      -0.739833     -0.347111     -1.293682
  H      -0.629245      1.323105     -0.714032
  H      -1.803606     -0.704444      0.824237
  O      -1.102630     -3.843000      3.791773
  C      -1.362598     -4.414112      2.821843
  O      -1.622370     -4.984231      1.851558
14
Coordinates from ORCA-job ./orca E -399.102140726199
  N       0.437908     -1.477266      0.864836
  C       0.542597     -0.085340      0.410978
  C      -0.681729      0.282258     -0.399369
  O      -1.878559      0.139253      0.367336
  H       1.181171     -1.672530      1.523920
  H       0.593968     -2.095976      0.077308
  H       1.434561      0.101501     -0.196172
  H       0.596991      0.555190      1.292344
  H      -0.739532     -0.346358     -1.293834
  H      -0.631415      1.323593     -0.712162
  H      -1.802628     -0.708160      0.822751
  O      -1.102729     -3.842129      3.792017
  C      -1.363482     -4.411746      2.821392
  O      -1.623182     -4.983171      1.851737
14
Coordinates from ORCA-job ./orca E -399.102145081762
  N       0.439830     -1.475791      0.863432
  C       0.543827     -0.084554      0.410506
  C      -0.681824      0.281988     -0.398543
  O      -1.877250      0.134382      0.368969
  H       1.180239     -1.675114      1.524350
  H       0.592122     -2.097467      0.077508
  H       1.435398      0.104100     -0.196798
  H       0.598006      0.555201      1.292451
  H      -0.738981     -0.345301     -1.293954
  H      -0.635177      1.324146     -0.709053
  H      -1.800261     -0.714878      0.820719
  O      -1.103442     -3.839300      3.791679
  C      -1.364101     -4.408272      2.820642
  O      -1.624448     -4.980023      1.851174
14
Coordinates from ORCA-job ./orca E -399.102159965631
  N       0.440298     -1.475391      0.862988
  C       0.544135     -0.084479      0.410189
  C      -0.682044      0.281948     -0.398237
  O      -1.876856      0.132647      0.369844
  H       1.179276     -1.675512      1.525115
  H       0.591509     -2.097942      0.077666
  H       1.435419      0.104694     -0.197467
  H       0.598554      0.555189      1.292213
  H      -0.738851     -0.344865     -1.294045
  H      -0.636384      1.324307     -0.708172
  H      -1.798245     -0.717055      0.820641
  O      -1.104301     -3.838096      3.791365
  C      -1.364148     -4.407447      2.820360
  O      -1.624424     -4.978881      1.850623
14
Coordinates from ORCA-job ./orca E -399.102163449766
  N       0.440412     -1.475036      0.862610
  C       0.544366     -0.084505      0.409598
  C      -0.682457      0.281952     -0.397984
  O      -1.876486      0.130669      0.370981
  H       1.177493     -1.675200      1.526658
  H       0.591186     -2.098352      0.077977
  H       1.435180      0.104812     -0.198794
  H       0.599476      0.555358      1.291471
  H      -0.738889     -0.344309     -1.294263
  H      -0.637620      1.324476     -0.707444
  H      -1.794659     -0.718927      0.821684
  O      -1.105961     -3.836958      3.790942
  C      -1.364379     -4.406908      2.819940
  O      -1.623722     -4.977955      1.849706
14
Coordinates from ORCA-job ./orca E -399.102160608121
  N       0.440096     -1.474764      0.862441
  C       0.544492     -0.084516      0.408902
  C      -0.682856      0.281975     -0.397957
  O      -1.876198      0.129047      0.371834
  H       1.175629     -1.674348      1.528283
  H       0.591499     -2.098549      0.078398
  H       1.434879      0.104363     -0.200262
  H       0.600442      0.555729      1.290447
  H      -0.739163     -0.343812     -1.294608
  H      -0.638605      1.324643     -0.707016
  H      -1.790937     -0.719747      0.823644
  O      -1.107847     -3.836470      3.790671
  C      -1.364816     -4.406750      2.819488
  O      -1.622674     -4.977683      1.848816
14
Coordinates from ORCA-job ./orca E -399.101888517193
  N       0.434856     -1.486724      0.868524
  C       0.536895     -0.094203      0.413467
  C      -0.685035      0.282122     -0.396485
  O      -1.878447      0.135050      0.369306
  H       1.181604     -1.671647      1.529661
  H       0.596214     -2.100992      0.073041
  H       1.428297      0.092434     -0.194909
  H       0.593949      0.544713      1.295908
  H      -0.742384     -0.341140     -1.294833
  H      -0.633611      1.325191     -0.703163
  H      -1.792588     -0.714021      0.815694
  O      -1.106817     -3.830690      3.790293
  C      -1.350044     -4.385240      2.807324
  O      -1.618948     -4.975733      1.849254
14
Coordinates from ORCA-job ./orca E -399.102098855169
  N       0.433459     -1.488526      0.869566
  C       0.537266     -0.095554      0.415994
  C      -0.684732      0.277414     -0.395487
  O      -1.881887      0.136986      0.369940
  H       1.179549     -1.676044      1.527452
  H       0.595347     -2.100685      0.078084
  H       1.429505      0.090761     -0.191128
  H       0.592523      0.544125      1.298097
  H      -0.742279     -0.349940     -1.291176
  H      -0.629832      1.318614     -0.707887
  H      -1.802494     -0.710415      0.824757
  O      -1.096342     -3.820048      3.780249
  C      -1.355202     -4.385728      2.806863
  O      -1.610942     -4.961840      1.837758
14
Coordinates from ORCA-job ./orca E -399.102100972158
  N       0.434656     -1.488085      0.868919
  C       0.538451     -0.094789      0.416686
  C      -0.684540      0.275127     -0.394606
  O      -1.882638      0.134627      0.370932
  H       1.179946     -1.679173      1.526548
  H       0.595074     -2.101791      0.079016
  H       1.430736      0.092556     -0.189882
  H       0.592442      0.544834      1.298832
  H      -0.741976     -0.353253     -1.289451
  H      -0.630806      1.316100     -0.708040
  H      -1.806225     -0.712344      0.827644
  O      -1.097961     -3.813233      3.776235
  C      -1.348670     -4.388539      2.806270
  O      -1.614550     -4.952919      1.833979
14
Coordinates from ORCA-job ./orca E -399.102133537375
  N       0.435298     -1.487158      0.868313
  C       0.539283     -0.093976      0.416546
  C      -0.684312      0.274815     -0.394285
  O      -1.882153      0.132442      0.371372
  H       1.179870     -1.680575      1.526526
  H       0.594200     -2.102596      0.078865
  H       1.431494      0.093869     -0.189911
  H       0.592961      0.545442      1.298792
  H      -0.741596     -0.353149     -1.289304
  H      -0.632326      1.316162     -0.706799
  H      -1.806444     -0.714959      0.827015
  O      -1.095359     -3.814052      3.776326
  C      -1.354152     -4.384011      2.805404
  O      -1.612825     -4.953136      1.834222
14
Coordinates from ORCA-job ./orca E -399.102136988306
  N       0.436377     -1.486243      0.867546
  C       0.540022     -0.093389      0.416269
  C      -0.684256      0.274746     -0.393919
  O      -1.881325      0.129819      0.372045
  H       1.179622     -1.682016      1.526497
  H       0.593266     -2.103350      0.078924
  H       1.432069      0.095367     -0.190178
  H       0.593517      0.545565      1.298838
  H      -0.741314     -0.352436     -1.289442
  H      -0.634459      1.316623     -0.704985
  H      -1.805468     -0.718582      0.825602
  O      -1.095495     -3.813215      3.776566
  C      -1.355025     -4.381684      2.804944
  O      -1.613593     -4.952089      1.834374
14
Coordinates from ORCA-job ./orca E -399.102141675459
  N       0.438289     -1.484731      0.866160
  C       0.541279     -0.092588      0.415773
  C      -0.684345      0.274462     -0.393100
  O      -1.879990      0.124938      0.373702
  H       1.178648     -1.684601      1.526969
  H       0.591377     -2.104872      0.079177
  H       1.432932      0.097939     -0.190838
  H       0.594580      0.545615      1.298900
  H      -0.740788     -0.351411     -1.289552
  H      -0.638244      1.317152     -0.701901
  H      -1.803071     -0.725278      0.823636
  O      -1.096274     -3.810414      3.776238
  C      -1.355656     -4.378191      2.804162
  O      -1.614799     -4.948902      1.833755
14
Coordinates from ORCA-job ./orca E -399.102156374996
  N       0.438747     -1.484310      0.865736
  C       0.541594     -0.092502      0.415446
  C      -0.684562      0.274405     -0.392803
  O      -1.879585      0.123229      0.374587
  H       1.177665     -1.684989      1.527759
  H       0.590746     -2.105354      0.079373
  H       1.432958      0.098519     -0.191524
  H       0.595144      0.545636      1.298634
  H      -0.740673     -0.351030     -1.289617
  H      -0.639446      1.317280     -0.701073
  H      -1.801044     -0.727393      0.823635
  O      -1.097160     -3.809250      3.775921
  C      -1.355702     -4.377381      2.803853
  O      -1.614743     -4.947742      1.833154
14
Coordinates from ORCA-job ./orca E -399.102160193599
  N       0.438848     -1.483925      0.865390
  C       0.541834     -0.092524      0.414833
  C      -0.684978      0.274401     -0.392564
  O      -1.879197      0.121282      0.375747
  H       1.175838     -1.684658      1.529364
  H       0.590389     -2.105788      0.079753
  H       1.432718      0.098608     -0.192898
  H       0.596101      0.545843      1.297844
  H      -0.740745     -0.350519     -1.289819
  H      -0.640682      1.317427     -0.700402
  H      -1.797405     -0.729196      0.824769
  O      -1.098882     -3.808167      3.775500
  C      -1.355925     -4.376867      2.803399
  O      -1.613975     -4.946799      1.832163
14
Coordinates from ORCA-job ./orca E -399.102157607738
  N       0.438511     -1.483618      0.865254
  C       0.541970     -0.092532      0.414102
  C      -0.685388      0.274421     -0.392548
  O      -1.878890      0.119657      0.376634
  H       1.173894     -1.683770      1.531084
  H       0.590660     -2.106010      0.080254
  H       1.432411      0.098120     -0.194444
  H       0.597125      0.546261      1.296755
  H      -0.741048     -0.350047     -1.290163
  H      -0.641684      1.317582     -0.700015
  H      -1.793563     -0.729972      0.826842
  O      -1.100856     -3.807734      3.775230
  C      -1.356361     -4.376736      2.802910
  O      -1.612842     -4.946504      1.831186
14
Coordinates from ORCA-job ./orca E -399.101881569834
  N       0.433279     -1.495549      0.871334
  C       0.534378     -0.102199      0.418657
  C      -0.687585      0.274561     -0.391067
  O      -1.881171      0.125636      0.374106
  H       1.179933     -1.681098      1.532511
  H       0.595392     -2.108518      0.074876
  H       1.425822      0.086224     -0.189120
  H       0.590628      0.535270      1.302200
  H      -0.744280     -0.347385     -1.290371
  H      -0.636729      1.318125     -0.696149
  H      -1.795243     -0.724265      0.818890
  O      -1.099829     -3.801922      3.774822
  C      -1.341522     -4.355222      2.790753
  O      -1.609133     -4.944540      1.831640
14
Coordinates from ORCA-job ./orca E -399.102081958995
  N       0.431862     -1.497330      0.872366
  C       0.534760     -0.103537      0.421174
  C      -0.687265      0.269886     -0.390075
  O      -1.884598      0.127530      0.374728
  H       1.177814     -1.685466      1.530228
  H       0.594469     -2.108128      0.079982
  H       1.427044      0.084543     -0.185346
  H       0.589225      0.534689      1.304383
  H      -0.744134     -0.356105     -1.286761
  H      -0.632953      1.311613     -0.700818
  H      -1.805141     -0.720750      0.827881
  O      -1.089319     -3.791393      3.764865
  C      -1.346710     -4.355678      2.790268
  O      -1.601114     -4.930756      1.820205
14
Coordinates from ORCA-job ./orca E -399.102083585699
  N       0.433000     -1.496918      0.871764
  C       0.535911     -0.102799      0.421897
  C      -0.687056      0.267614     -0.389225
  O      -1.885368      0.125276      0.375640
  H       1.178174     -1.688603      1.529331
  H       0.594123     -2.109232      0.080945
  H       1.428264      0.086271     -0.184045
  H       0.589108      0.535382      1.305138
  H      -0.743808     -0.359421     -1.285058
  H      -0.633843      1.309103     -0.701030
  H      -1.808932     -0.722559      0.830746
  O      -1.090823     -3.784639      3.760867
  C      -1.340110     -4.358608      2.789739
  O      -1.604702     -4.921747      1.816372
14
Coordinates from ORCA-job ./orca E -399.102116445989
  N       0.433584     -1.496016      0.871200
  C       0.536700     -0.102014      0.421764
  C      -0.686821      0.267345     -0.388943
  O      -1.884885      0.123213      0.376006
  H       1.178080     -1.689959      1.529343
  H       0.593210     -2.110030      0.080785
  H       1.428995      0.087515     -0.184056
  H       0.589596      0.535972      1.305097
  H      -0.743425     -0.359282     -1.284946
  H      -0.635284      1.309196     -0.699846
  H      -1.809132     -0.725030      0.830070
  O      -1.088161     -3.785618      3.761046
  C      -1.345570     -4.354130      2.788910
  O      -1.602947     -4.922042      1.816652
14
Coordinates from ORCA-job ./orca E -399.102119499340
  N       0.434596     -1.495116      0.870475
  C       0.537415     -0.101441      0.421504
  C      -0.686745      0.267284     -0.388614
  O      -1.884084      0.120725      0.376605
  H       1.177799     -1.691379      1.529325
  H       0.592224     -2.110778      0.080870
  H       1.429569      0.088952     -0.184284
  H       0.590123      0.536101      1.305145
  H      -0.743129     -0.358602     -1.285092
  H      -0.637303      1.309639     -0.698133
  H      -1.808244     -0.728472      0.828671
  O      -1.088206     -3.784927      3.761339
  C      -1.346376     -4.351897      2.788482
  O      -1.603699     -4.920970      1.816789
14
Coordinates from ORCA-job ./orca E -399.102134413894
  N       0.436407     -1.493575      0.869147
  C       0.538661     -0.100631      0.421027
  C      -0.686780      0.267012     -0.387863
  O      -1.882758      0.116019      0.378132
  H       1.176729     -1.694002      1.529828
  H       0.590147     -2.112322      0.081195
  H       1.430467      0.091468     -0.184872
  H       0.591149      0.536192      1.305203
  H      -0.742557     -0.357632     -1.285215
  H      -0.640942      1.310150     -0.695195
  H      -1.806004     -0.734946      0.826673
  O      -1.088777     -3.782435      3.761149
  C      -1.346906     -4.348500      2.787744
  O      -1.604897     -4.917680      1.816128
14
Coordinates from ORCA-job ./orca E -399.102115654941
  N       0.436741     -1.493193      0.868786
  C       0.538931     -0.100582      0.420706
  C      -0.686963      0.267032     -0.387626
  O      -1.882385      0.114608      0.378896
  H       1.175686     -1.694350      1.530636
  H       0.589452     -2.112815      0.081437
  H       1.430485      0.091916     -0.185525
  H       0.591693      0.536200      1.304923
  H      -0.742456     -0.357201     -1.285318
  H      -0.641936      1.310332     -0.694474
  H      -1.804169     -0.736764      0.826581
  O      -1.089586     -3.781499      3.760950
  C      -1.346842     -4.347864      2.787508
  O      -1.604713     -4.916701      1.815602
14
Coordinates from ORCA-job ./orca E -399.102133417840
  N       0.436668     -1.492825      0.868526
  C       0.539119     -0.100641      0.420108
  C      -0.687329      0.267070     -0.387477
  O      -1.882023      0.113205      0.379962
  H       1.173700     -1.693991      1.532332
  H       0.588986     -2.113284      0.081920
  H       1.430247      0.091841     -0.186842
  H       0.592609      0.536425      1.304112
  H      -0.742603     -0.356839     -1.285469
  H      -0.642840      1.310433     -0.694147
  H      -1.800839     -0.737958      0.827805
  O      -1.091225     -3.780712      3.760589
  C      -1.346891     -4.347624      2.787082
  O      -1.603639     -4.915983      1.814580
14
Coordinates from ORCA-job ./orca E -399.102132534769
  N       0.436165     -1.492501      0.868454
  C       0.539237     -0.100673      0.419366
  C      -0.687679      0.267175     -0.387531
  O      -1.881703      0.112001      0.380769
  H       1.171533     -1.693139      1.534165
  H       0.589046     -2.113577      0.082547
  H       1.429966      0.091211     -0.188378
  H       0.593657      0.536857      1.302980
  H      -0.742953     -0.356385     -1.285797
  H      -0.643595      1.310627     -0.693960
  H      -1.797252     -0.738337      0.829799
  O      -1.093149     -3.780528      3.760418
  C      -1.347140     -4.347709      2.786638
  O      -1.602194     -4.915903      1.813613
14
Coordinates from ORCA-job ./orca E -399.101847083202
  N       0.430938     -1.504402      0.874530
  C       0.531648     -0.110321      0.423910
  C      -0.689892      0.267308     -0.386039
  O      -1.884005      0.117957      0.378243
  H       1.177630     -1.690493      1.535636
  H       0.593786     -2.116145      0.077146
  H       1.423367      0.079347     -0.183083
  H       0.587156      0.525892      1.308407
  H      -0.746196     -0.353734     -1.285990
  H      -0.638672      1.311160     -0.690079
  H      -1.798953     -0.732651      0.821847
  O      -1.092124     -3.774688      3.759982
  C      -1.332241     -4.326185      2.774491
  O      -1.598503     -4.913925      1.814082
14
Coordinates from ORCA-job ./orca E -399.102058125541
  N       0.429474     -1.506160      0.875558
  C       0.532043     -0.111646      0.426429
  C      -0.689536      0.262696     -0.385061
  O      -1.887413      0.119870      0.378816
  H       1.175410     -1.694881      1.533280
  H       0.592725     -2.115687      0.082321
  H       1.424616      0.077649     -0.179296
  H       0.585777      0.525314      1.310600
  H      -0.745991     -0.362342     -1.282437
  H      -0.634855      1.304736     -0.694693
  H      -1.808927     -0.729194      0.830660
  O      -1.081551     -3.764293      3.750142
  C      -1.337376     -4.326661      2.774012
  O      -1.590459     -4.900283      1.802752
14
Coordinates from ORCA-job ./orca E -399.102059843185
  N       0.430559     -1.505768      0.874969
  C       0.533199     -0.110940      0.427162
  C      -0.689311      0.260432     -0.384201
  O      -1.888165      0.117703      0.379757
  H       1.175687     -1.698057      1.532400
  H       0.592300     -2.116815      0.083314
  H       1.425852      0.079304     -0.177977
  H       0.585690      0.525978      1.311360
  H      -0.745689     -0.365666     -1.280712
  H      -0.635687      1.302227     -0.694913
  H      -1.812825     -0.730956      0.833480
  O      -1.083067     -3.757401      3.746069
  C      -1.330745     -4.329668      2.773521
  O      -1.593859     -4.891255      1.798853
14
Coordinates from ORCA-job ./orca E -399.102093087172
  N       0.431110     -1.504876      0.874414
  C       0.533984     -0.110174      0.427023
  C      -0.689073      0.260184     -0.383920
  O      -1.887662      0.115713      0.380146
  H       1.175551     -1.699418      1.532450
  H       0.591350     -2.117641      0.083147
  H       1.426585      0.080500     -0.177999
  H       0.586204      0.526555      1.311306
  H      -0.745337     -0.365513     -1.280593
  H      -0.637098      1.302337     -0.693741
  H      -1.813049     -0.733375      0.832770
  O      -1.080451     -3.758351      3.746241
  C      -1.336211     -4.325195      2.772698
  O      -1.591965     -4.891627      1.799141
14
Coordinates from ORCA-job ./orca E -399.102096058207
  N       0.432080     -1.503977      0.873698
  C       0.534704     -0.109613      0.426745
  C      -0.688986      0.260155     -0.383598
  O      -1.886842      0.113347      0.380764
  H       1.175210     -1.700835      1.532461
  H       0.590317     -2.118399      0.083244
  H       1.427167      0.081881     -0.178253
  H       0.586770      0.526685      1.311327
  H      -0.745077     -0.364825     -1.280726
  H      -0.639056      1.302797     -0.692071
  H      -1.812206     -0.736722      0.831356
  O      -1.080603     -3.757664      3.746548
  C      -1.336966     -4.323016      2.772277
  O      -1.592571     -4.890696      1.799308
14
Coordinates from ORCA-job ./orca E -399.102121191009
  N       0.433813     -1.502406      0.872379
  C       0.535987     -0.108804      0.426243
  C      -0.688989      0.259925     -0.382849
  O      -1.885470      0.108839      0.382345
  H       1.173985     -1.703522      1.533021
  H       0.588072     -2.119992      0.083615
  H       1.428104      0.084315     -0.178884
  H       0.587894      0.526800      1.311335
  H      -0.744560     -0.363874     -1.280800
  H      -0.642604      1.303323     -0.689211
  H      -1.810084     -0.743048      0.829332
  O      -1.081357     -3.755134      3.746358
  C      -1.337409     -4.319690      2.771534
  O      -1.593443     -4.887615      1.798663
14
Coordinates from ORCA-job ./orca E -399.102102534010
  N       0.434142     -1.501969      0.872005
  C       0.536303     -0.108727      0.425912
  C      -0.689157      0.259947     -0.382594
  O      -1.885061      0.107319      0.383138
  H       1.172866     -1.703963      1.533850
  H       0.587224     -2.120520      0.083885
  H       1.428161      0.084789     -0.179563
  H       0.588499      0.526836      1.311044
  H      -0.744426     -0.363418     -1.280901
  H      -0.643670      1.303524     -0.688432
  H      -1.808208     -0.745010      0.829184
  O      -1.082191     -3.754147      3.746164
  C      -1.337336     -4.319003      2.771292
  O      -1.593207     -4.886540      1.798097
14
Coordinates from ORCA-job ./orca E -399.102120618855
  N       0.434013     -1.501572      0.871775
  C       0.536500     -0.108767      0.425329
  C      -0.689495      0.260010     -0.382462
  O      -1.884693      0.105892      0.384137
  H       1.170865     -1.703651      1.535508
  H       0.586604     -2.120969      0.084381
  H       1.427944      0.084690     -0.180858
  H       0.589425      0.527085      1.310243
  H      -0.744507     -0.363012     -1.281082
  H      -0.644569      1.303660     -0.688089
  H      -1.804887     -0.746232      0.830334
  O      -1.083774     -3.753449      3.745875
  C      -1.337354     -4.318784      2.770903
  O      -1.592132     -4.885782      1.797088
14
Coordinates from ORCA-job ./orca E -399.102121038094
  N       0.433418     -1.501198      0.871727
  C       0.536623     -0.108790      0.424542
  C      -0.689858      0.260139     -0.382542
  O      -1.884348      0.104568      0.384953
  H       1.168487     -1.702764      1.537479
  H       0.586503     -2.121276      0.085077
  H       1.427648      0.083998     -0.182498
  H       0.590550      0.527579      1.309028
  H      -0.744815     -0.362504     -1.281467
  H      -0.645372      1.303884     -0.687907
  H      -1.800946     -0.746651      0.832472
  O      -1.085792     -3.753356      3.745750
  C      -1.337588     -4.318906      2.770453
  O      -1.590570     -4.885606      1.796015
14
Coordinates from ORCA-job ./orca E -399.101829289958
  N       0.428197     -1.513069      0.877798
  C       0.529035     -0.118416      0.429076
  C      -0.692085      0.260264     -0.381039
  O      -1.886671      0.110498      0.382429
  H       1.174642     -1.700148      1.538989
  H       0.591251     -2.123904      0.079653
  H       1.421036      0.072169     -0.177232
  H       0.584044      0.516639      1.314442
  H      -0.748065     -0.359862     -1.281645
  H      -0.640483      1.304407     -0.684009
  H      -1.802666     -0.740989      0.824517
  O      -1.084767     -3.747489      3.745285
  C      -1.322631     -4.297369      2.758319
  O      -1.586898     -4.883614      1.796499
14
Coordinates from ORCA-job ./orca E -399.102039970963
  N       0.426705     -1.514801      0.878806
  C       0.529436     -0.119719      0.431584
  C      -0.691710      0.255690     -0.380079
  O      -1.890062      0.112345      0.382962
  H       1.172359     -1.704505      1.536557
  H       0.590146     -2.123367      0.084873
  H       1.422302      0.070471     -0.173439
  H       0.582671      0.516072      1.316630
  H      -0.747806     -0.368368     -1.278158
  H      -0.636676      1.298054     -0.688554
  H      -1.812592     -0.737622      0.833261
  O      -1.074147     -3.737246      3.735565
  C      -1.327808     -4.297801      2.757816
  O      -1.578879     -4.870085      1.785258
14
Coordinates from ORCA-job ./orca E -399.102041000844
  N       0.427743     -1.514441      0.878236
  C       0.530568     -0.119040      0.432335
  C      -0.691481      0.253413     -0.379235
  O      -1.890829      0.110204      0.383873
  H       1.172596     -1.707688      1.535673
  H       0.589705     -2.124494      0.085895
  H       1.423537      0.072069     -0.172075
  H       0.582558      0.516713      1.317406
  H      -0.747501     -0.371711     -1.276447
  H      -0.637468      1.295529     -0.688800
  H      -1.816499     -0.739317      0.836135
  O      -1.075637     -3.730286      3.731447
  C      -1.321094     -4.300923      2.757375
  O      -1.582260     -4.860910      1.781262
14
Coordinates from ORCA-job ./orca E -399.102074991417
  N       0.428248     -1.513573      0.877704
  C       0.531316     -0.118300      0.432186
  C      -0.691246      0.253215     -0.378984
  O      -1.890313      0.108279      0.384219
  H       1.172446     -1.708983      1.535755
  H       0.588755     -2.125314      0.085696
  H       1.424242      0.073203     -0.172105
  H       0.583058      0.517267      1.317338
  H      -0.747154     -0.371484     -1.276376
  H      -0.638845      1.295693     -0.687634
  H      -1.816632     -0.741654      0.835379
  O      -1.073021     -3.731366      3.731710
  C      -1.326597     -4.296453      2.756580
  O      -1.580317     -4.861411      1.781614
14
Coordinates from ORCA-job ./orca E -399.102077574819
  N       0.429172     -1.512686      0.877007
  C       0.532023     -0.117745      0.431909
  C      -0.691152      0.253187     -0.378683
  O      -1.889509      0.105955      0.384803
  H       1.172082     -1.710372      1.535768
  H       0.587711     -2.126059      0.085798
  H       1.424826      0.074539     -0.172345
  H       0.583613      0.517407      1.317346
  H      -0.746886     -0.370810     -1.276521
  H      -0.640756      1.296143     -0.686012
  H      -1.815787     -0.744907      0.834022
  O      -1.073163     -3.730748      3.732044
  C      -1.327327     -4.294325      2.756177
  O      -1.580907     -4.860462      1.781769
14
Coordinates from ORCA-job ./orca E -399.102102897417
  N       0.430859     -1.511094      0.875683
  C       0.533317     -0.116923      0.431389
  C      -0.691136      0.252964     -0.377965
  O      -1.888123      0.101416      0.386343
  H       1.170779     -1.713087      1.536338
  H       0.585395     -2.127686      0.086192
  H       1.425800      0.076955     -0.172962
  H       0.584740      0.517533      1.317335
  H      -0.746349     -0.369832     -1.276634
  H      -0.644309      1.296686     -0.683153
  H      -1.813618     -0.751218      0.832032
  O      -1.073908     -3.728318      3.731935
  C      -1.327759     -4.290988      2.755451
  O      -1.581748     -4.857289      1.781097
14
Coordinates from ORCA-job ./orca E -399.102084107691
  N       0.431164     -1.510639      0.875306
  C       0.533640     -0.116837      0.431051
  C      -0.691294      0.252988     -0.377723
  O      -1.887706      0.099875      0.387120
  H       1.169612     -1.713550      1.537177
  H       0.584496     -2.128228      0.086479
  H       1.425872      0.077423     -0.173638
  H       0.585349      0.517581      1.317034
  H      -0.746200     -0.369370     -1.276749
  H      -0.645378      1.296892     -0.682376
  H      -1.811714     -0.753184      0.831897
  O      -1.074734     -3.727387      3.731783
  C      -1.327678     -4.290297      2.755216
  O      -1.581490     -4.856149      1.780503
14
Coordinates from ORCA-job ./orca E -399.102102678776
  N       0.430995     -1.510213      0.875078
  C       0.533843     -0.116869      0.430453
  C      -0.691625      0.253059     -0.377608
  O      -1.887325      0.098420      0.388105
  H       1.167516     -1.713262      1.538880
  H       0.583786     -2.128698      0.087008
  H       1.425666      0.077309     -0.174952
  H       0.586291      0.517853      1.316209
  H      -0.746264     -0.368952     -1.276951
  H      -0.646287      1.297038     -0.682045
  H      -1.808300     -0.754405      0.833084
  O      -1.076334     -3.726778      3.731556
  C      -1.327670     -4.290087      2.754833
  O      -1.580353     -4.855296      1.779433
14
Coordinates from ORCA-job ./orca E -399.102103647069
  N       0.430328     -1.509805      0.875036
  C       0.533972     -0.116889      0.429627
  C      -0.691989      0.253217     -0.377713
  O      -1.886955      0.097044      0.388920
  H       1.164969     -1.712365      1.540949
  H       0.583578     -2.129030      0.087755
  H       1.425368      0.076572     -0.176662
  H       0.587466      0.518379      1.314935
  H      -0.746556     -0.368392     -1.277379
  H      -0.647110      1.297298     -0.681864
  H      -1.804154     -0.754837      0.835289
  O      -1.078429     -3.726798      3.731511
  C      -1.327877     -4.290239      2.754393
  O      -1.578673     -4.855038      1.778285
14
Coordinates from ORCA-job ./orca E -399.101805452707
  N       0.425113     -1.521647      0.881103
  C       0.526386     -0.126492      0.434151
  C      -0.694230      0.253336     -0.376200
  O      -1.889299      0.102949      0.386397
  H       1.171182     -1.709779      1.542496
  H       0.588332     -2.131719      0.082309
  H       1.418743      0.064779     -0.171424
  H       0.580956      0.507464      1.320335
  H      -0.749811     -0.365759     -1.277542
  H      -0.642255      1.297812     -0.677950
  H      -1.805893     -0.749199      0.827331
  O      -1.077403     -3.720906      3.731016
  C      -1.312863     -4.268685      2.742274
  O      -1.575020     -4.853034      1.778784
14
Coordinates from ORCA-job ./orca E -399.102015873439
  N       0.423598     -1.523359      0.882093
  C       0.526796     -0.127779      0.436649
  C      -0.693837      0.248803     -0.375250
  O      -1.892676      0.104740      0.386899
  H       1.168843     -1.714113      1.539995
  H       0.587189     -2.131106      0.087568
  H       1.420025      0.063075     -0.167632
  H       0.579602      0.506902      1.322520
  H      -0.749503     -0.374154     -1.274122
  H      -0.638454      1.291534     -0.682416
  H      -1.815810     -0.745930      0.835978
  O      -1.066745     -3.710793      3.721411
  C      -1.318074     -4.269081      2.741750
  O      -1.567015     -4.839621      1.767638
14
Coordinates from ORCA-job ./orca E -399.102016278944
  N       0.424593     -1.523036      0.881543
  C       0.527909     -0.127132      0.437420
  C      -0.693602      0.246525     -0.374415
  O      -1.893456      0.102642      0.387781
  H       1.169043     -1.717307      1.539107
  H       0.586733     -2.132233      0.088612
  H       1.421260      0.064612     -0.166228
  H       0.579472      0.507513      1.323313
  H      -0.749195     -0.377494     -1.272423
  H      -0.639199      1.289009     -0.682670
  H      -1.819765     -0.747571      0.838856
  O      -1.068204     -3.703756      3.717250
  C      -1.311286     -4.272314      2.741365
  O      -1.570362     -4.830337      1.763571
14
Coordinates from ORCA-job ./orca E -399.102050865998
  N       0.425057     -1.522191      0.881031
  C       0.528624     -0.126416      0.437263
  C      -0.693369      0.246370     -0.374188
  O      -1.892929      0.100787      0.388096
  H       1.168881     -1.718545      1.539219
  H       0.585785     -2.133047      0.088381
  H       1.421939      0.065690     -0.166267
  H       0.579962      0.508047      1.323234
  H      -0.748860     -0.377212     -1.272385
  H      -0.640541      1.289215     -0.681518
  H      -1.819832     -0.749827      0.838055
  O      -1.065590     -3.704941      3.717584
  C      -1.316817     -4.267850      2.740594
  O      -1.568371     -4.830961      1.763981
14
Coordinates from ORCA-job ./orca E -399.102053086834
  N       0.425939     -1.521324      0.880348
  C       0.529316     -0.125873      0.436990
  C      -0.693269      0.246348     -0.373904
  O      -1.892141      0.098532      0.388651
  H       1.168495     -1.719910      1.539232
  H       0.584743     -2.133781      0.088481
  H       1.422522      0.066982     -0.166493
  H       0.580505      0.508183      1.323239
  H      -0.748593     -0.376547     -1.272536
  H      -0.642390      1.289660     -0.679943
  H      -1.819013     -0.752980      0.836733
  O      -1.065730     -3.704366      3.717934
  C      -1.317516     -4.265776      2.740211
  O      -1.568930     -4.830028      1.764139
14
Coordinates from ORCA-job ./orca E -399.102078440302
  N       0.427589     -1.519718      0.879017
  C       0.530624     -0.125040      0.436465
  C      -0.693230      0.246129     -0.373208
  O      -1.890744      0.094012      0.390158
  H       1.167122     -1.722676      1.539810
  H       0.582362     -2.135433      0.088888
  H       1.423534      0.069385     -0.167083
  H       0.581633      0.508321      1.323222
  H      -0.748044     -0.375571     -1.272662
  H      -0.645924      1.290205     -0.677111
  H      -1.816873     -0.759249      0.834752
  O      -1.066448     -3.702009      3.717878
  C      -1.317928     -4.262438      2.739501
  O      -1.569733     -4.826798      1.763454
14
Coordinates from ORCA-job ./orca E -399.102059689937
  N       0.427863     -1.519260      0.878646
  C       0.530946     -0.124952      0.436130
  C      -0.693376      0.246160     -0.372982
  O      -1.890331      0.092505      0.390904
  H       1.165922     -1.723153      1.540646
  H       0.581425     -2.135974      0.089180
  H       1.423616      0.069836     -0.167743
  H       0.582234      0.508373      1.322922
  H      -0.747882     -0.375112     -1.272784
  H      -0.646964      1.290413     -0.676361
  H      -1.814991     -0.761162      0.834623
  O      -1.067249     -3.701136      3.717761
  C      -1.317825     -4.261769      2.739280
  O      -1.569450     -4.825650      1.762860
14
Coordinates from ORCA-job ./orca E -399.102078440012
  N       0.427648     -1.518819      0.878417
  C       0.531149     -0.124981      0.435528
  C      -0.693693      0.246246     -0.372885
  O      -1.889943      0.091071      0.391863
  H       1.163734     -1.722894      1.542379
  H       0.580630     -2.136460      0.089724
  H       1.423417      0.069709     -0.169054
  H       0.583178      0.508653      1.322091
  H      -0.747924     -0.374687     -1.272999
  H      -0.647848      1.290572     -0.676057
  H      -1.811545     -0.762347      0.835816
  O      -1.068832     -3.700601      3.717579
  C      -1.317779     -4.261588      2.738912
  O      -1.568255     -4.824756      1.761765
14
Coordinates from ORCA-job ./orca E -399.102079319634
  N       0.426924     -1.518402      0.878382
  C       0.531271     -0.125004      0.434697
  C      -0.694043      0.246433     -0.373015
  O      -1.889573      0.089748      0.392639
  H       1.161093     -1.722016      1.544487
  H       0.580346     -2.136808      0.090492
  H       1.423126      0.068943     -0.170764
  H       0.584357      0.509181      1.320810
  H      -0.748199     -0.374103     -1.273448
  H      -0.648629      1.290857     -0.675909
  H      -1.807388     -0.762715      0.838011
  O      -1.070906     -3.700728      3.717597
  C      -1.317938     -4.261787      2.738498
  O      -1.566501     -4.824481      1.760604
14
Coordinates from ORCA-job ./orca E -399.101775899867
  N       0.421715     -1.530215      0.884445
  C       0.523687     -0.134584      0.439212
  C      -0.696296      0.246545     -0.371491
  O      -1.891936      0.095627      0.390116
  H       1.167363     -1.719462      1.546070
  H       0.585104     -2.139559      0.085024
  H       1.416487      0.057187     -0.165555
  H       0.577842      0.498292      1.326197
  H      -0.751458     -0.371478     -1.273595
  H      -0.643807      1.291361     -0.671977
  H      -1.809142     -0.757102      0.830050
  O      -1.069880     -3.694811      3.717072
  C      -1.302870     -4.240216      2.726395
  O      -1.562869     -4.822465      1.761118
14
Coordinates from ORCA-job ./orca E -399.101986195273
  N       0.420195     -1.531906      0.885412
  C       0.524109     -0.135853      0.441702
  C      -0.695889      0.242046     -0.370543
  O      -1.895297      0.097366      0.390605
  H       1.164981     -1.723778      1.543502
  H       0.583930     -2.138869      0.090320
  H       1.417784      0.055492     -0.161766
  H       0.576506      0.497736      1.328381
  H      -0.751111     -0.379786     -1.270222
  H      -0.640018      1.285143     -0.676373
  H      -1.819054     -0.753936      0.838601
  O      -1.059201     -3.684801      3.707565
  C      -1.308109     -4.240572      2.725840
  O      -1.554885     -4.809162      1.750056
14
Coordinates from ORCA-job ./orca E -399.101986184676
  N       0.421161     -1.531619      0.884877
  C       0.525209     -0.135238      0.442493
  C      -0.695651      0.239764     -0.369708
  O      -1.896087      0.095298      0.391475
  H       1.165150     -1.726989      1.542613
  H       0.583461     -2.140000      0.091382
  H       1.419017      0.056979     -0.160327
  H       0.576369      0.498315      1.329192
  H      -0.750804     -0.383123     -1.268529
  H      -0.640729      1.282615     -0.676625
  H      -1.823059     -0.755552      0.841467
  O      -1.060626     -3.677664      3.703346
  C      -1.301276     -4.243887      2.725501
  O      -1.558196     -4.799782      1.745924
14
Coordinates from ORCA-job ./orca E -399.102021249008
  N       0.421595     -1.530794      0.884382
  C       0.525898     -0.134544      0.442333
  C      -0.695419      0.239644     -0.369497
  O      -1.895547      0.093498      0.391768
  H       1.164978     -1.728188      1.542753
  H       0.582511     -2.140814      0.091122
  H       1.419676      0.058014     -0.160371
  H       0.576853      0.498829      1.329108
  H      -0.750479     -0.382794     -1.268516
  H      -0.642045      1.282857     -0.675478
  H      -1.823078     -0.757751      0.840620
  O      -1.058009     -3.678909      3.703724
  C      -1.306830     -4.239424      2.724749
  O      -1.556164     -4.800506      1.746385
14
Coordinates from ORCA-job ./orca E -399.102023178657
  N       0.422449     -1.529944      0.883711
  C       0.526580     -0.134011      0.442063
  C      -0.695313      0.239625     -0.369224
  O      -1.894769      0.091306      0.392307
  H       1.164578     -1.729536      1.542769
  H       0.581470     -2.141538      0.091220
  H       1.420257      0.059274     -0.160585
  H       0.577385      0.498965      1.329110
  H      -0.750215     -0.382145     -1.268663
  H      -0.643844      1.283293     -0.673948
  H      -1.822286     -0.760822      0.839322
  O      -1.058144     -3.678355      3.704071
  C      -1.307501     -4.237395      2.724378
  O      -1.556707     -4.799598      1.746549
14
Coordinates from ORCA-job ./orca E -399.102048744305
  N       0.424074     -1.528321      0.882365
  C       0.527905     -0.133166      0.441538
  C      -0.695252      0.239414     -0.368537
  O      -1.893353      0.086779      0.393800
  H       1.163137     -1.732354      1.543347
  H       0.579008     -2.143208      0.091625
  H       1.421303      0.061680     -0.161152
  H       0.578515      0.499110      1.329094
  H      -0.749639     -0.381157     -1.268796
  H      -0.647371      1.283849     -0.671115
  H      -1.820154     -0.767100      0.837317
  O      -1.058831     -3.676000      3.704028
  C      -1.307897     -4.234042      2.723678
  O      -1.557505     -4.796364      1.745891
14
Coordinates from ORCA-job ./orca E -399.102039418229
  N       0.424324     -1.527872      0.882001
  C       0.528220     -0.133081      0.441209
  C      -0.695390      0.239451     -0.368324
  O      -1.892952      0.085325      0.394516
  H       1.161922     -1.732835      1.544183
  H       0.578068     -2.143750      0.091916
  H       1.421389      0.062114     -0.161792
  H       0.579105      0.499160      1.328800
  H      -0.749478     -0.380705     -1.268921
  H      -0.648371      1.284057     -0.670397
  H      -1.818309     -0.768941      0.837202
  O      -1.059603     -3.675156      3.703915
  C      -1.307779     -4.233404      2.723465
  O      -1.557207     -4.795245      1.745309
14
Coordinates from ORCA-job ./orca E -399.102045608975
  N       0.424078     -1.527419      0.881765
  C       0.528427     -0.133114      0.440591
  C      -0.695709      0.239558     -0.368235
  O      -1.892560      0.083901      0.395476
  H       1.159630     -1.732587      1.545972
  H       0.577234     -2.144260      0.092489
  H       1.421196      0.061969     -0.163130
  H       0.580077      0.499438      1.327951
  H      -0.749520     -0.380255     -1.269147
  H      -0.649248      1.284236     -0.670099
  H      -1.814804     -0.770106      0.838411
  O      -1.061210     -3.674628      3.703737
  C      -1.307704     -4.233248      2.723097
  O      -1.555946     -4.794366      1.744204
14
Coordinates from ORCA-job ./orca E -399.102046786989
  N       0.423311     -1.526992      0.881730
  C       0.528546     -0.133138      0.439748
  C      -0.696053      0.239763     -0.368384
  O      -1.892182      0.082615      0.396240
  H       1.156891     -1.731716      1.548134
  H       0.576917     -2.144628      0.093278
  H       1.420905      0.061180     -0.164853
  H       0.581267      0.499970      1.326654
  H      -0.749803     -0.379654     -1.269614
  H      -0.650004      1.284537     -0.669974
  H      -1.810605     -0.770417      0.840643
  O      -1.063296     -3.674785      3.703757
  C      -1.307834     -4.233486      2.722683
  O      -1.554120     -4.794129      1.743039
14
Coordinates from ORCA-job ./orca E -399.101742202376
  N       0.418108     -1.538777      0.887788
  C       0.520964     -0.142695      0.444253
  C      -0.698319      0.239869     -0.366849
  O      -1.894563      0.088469      0.393717
  H       1.163216     -1.729194      1.549752
  H       0.581680     -2.147442      0.087788
  H       1.414251      0.049462     -0.159673
  H       0.574747      0.489107      1.332028
  H      -0.753064     -0.377038     -1.269745
  H      -0.645215      1.285029     -0.666023
  H      -1.812373     -0.764830      0.832680
  O      -1.062269     -3.668843      3.703201
  C      -1.292713     -4.211896      2.710596
  O      -1.550510     -4.792102      1.743569
14
Coordinates from ORCA-job ./orca E -399.101952461517
  N       0.416587     -1.540440      0.888736
  C       0.521402     -0.143941      0.446738
  C      -0.697894      0.235390     -0.365901
  O      -1.897904      0.090148      0.394199
  H       1.160804     -1.733494      1.547116
  H       0.580473     -2.146667      0.093116
  H       1.415566      0.047785     -0.155883
  H       0.573425      0.488567      1.334214
  H      -0.752677     -0.385284     -1.266406
  H      -0.641443      1.278856     -0.670364
  H      -1.822283     -0.761762      0.841159
  O      -1.051555     -3.658934      3.693777
  C      -1.298004     -4.212197      2.709998
  O      -1.542556     -4.778909      1.732582
14
Coordinates from ORCA-job ./orca E -399.101951887352
  N       0.417536     -1.540187      0.888219
  C       0.522491     -0.143354      0.447556
  C      -0.697652      0.233089     -0.365064
  O      -1.898706      0.088117      0.395064
  H       1.160958     -1.736726      1.546219
  H       0.580001     -2.147792      0.094201
  H       1.416801      0.049233     -0.154400
  H       0.573268      0.489122      1.335049
  H      -0.752375     -0.388660     -1.264698
  H      -0.642119      1.276301     -0.670641
  H      -1.826354     -0.763334      0.844050
  O      -1.052946     -3.651666      3.689467
  C      -1.291101     -4.215612      2.709693
  O      -1.545862     -4.769412      1.728365
14
Coordinates from ORCA-job ./orca E -399.101987629836
  N       0.417945     -1.539382      0.887742
  C       0.523153     -0.142681      0.447389
  C      -0.697424      0.233009     -0.364870
  O      -1.898153      0.086373      0.395335
  H       1.160787     -1.737877      1.546387
  H       0.579055     -2.148604      0.093905
  H       1.417437      0.050229     -0.154453
  H       0.573744      0.489615      1.334957
  H      -0.752059     -0.388276     -1.264712
  H      -0.643413      1.276586     -0.669496
  H      -1.826314     -0.765479      0.843145
  O      -1.050323     -3.652987      3.689897
  C      -1.296696     -4.211139      2.708958
  O      -1.543797     -4.770271      1.728896
14
Coordinates from ORCA-job ./orca E -399.101989242759
  N       0.418774     -1.538548      0.887085
  C       0.523826     -0.142158      0.447126
  C      -0.697313      0.232994     -0.364604
  O      -1.897386      0.084232      0.395859
  H       1.160383     -1.739206      1.546400
  H       0.578017     -2.149314      0.094000
  H       1.418016      0.051457     -0.154655
  H       0.574268      0.489749      1.334960
  H      -0.751794     -0.387637     -1.264858
  H      -0.645169      1.277017     -0.667997
  H      -1.825551     -0.768485      0.841858
  O      -1.050446     -3.652435      3.690229
  C      -1.297345     -4.209151      2.708600
  O      -1.544342     -4.769398      1.729079
14
Coordinates from ORCA-job ./orca E -399.102014633980
  N       0.420390     -1.536921      0.885738
  C       0.525162     -0.141304      0.446612
  C      -0.697234      0.232779     -0.363923
  O      -1.895971      0.079732      0.397333
  H       1.158921     -1.742057      1.546967
  H       0.575521     -2.150992      0.094401
  H       1.419088      0.053866     -0.155189
  H       0.575397      0.489900      1.334955
  H      -0.751205     -0.386669     -1.264981
  H      -0.648674      1.277562     -0.665188
  H      -1.823476     -0.774730      0.839850
  O      -1.051080     -3.650056      3.690155
  C      -1.297734     -4.205796      2.707896
  O      -1.545166     -4.766196      1.728453
14
Coordinates from ORCA-job ./orca E -399.102005736526
  N       0.420628     -1.536473      0.885377
  C       0.525475     -0.141216      0.446290
  C      -0.697363      0.232818     -0.363716
  O      -1.895572      0.078306      0.398031
  H       1.157701     -1.742546      1.547795
  H       0.574569     -2.151532      0.094694
  H       1.419181      0.054298     -0.155809
  H       0.575974      0.489948      1.334671
  H      -0.751038     -0.386223     -1.265105
  H      -0.649651      1.277768     -0.664487
  H      -1.821661     -0.776536      0.839731
  O      -1.051814     -3.649209      3.690027
  C      -1.297608     -4.205173      2.707686
  O      -1.544882     -4.765113      1.727895
14
Coordinates from ORCA-job ./orca E -399.102011660588
  N       0.420369     -1.536020      0.885142
  C       0.525680     -0.141249      0.445680
  C      -0.697670      0.232938     -0.363636
  O      -1.895181      0.076899      0.398965
  H       1.155386     -1.742320      1.549585
  H       0.573709     -2.152054      0.095272
  H       1.418996      0.054158     -0.157124
  H       0.576931      0.490219      1.333838
  H      -0.751069     -0.385750     -1.265345
  H      -0.650510      1.277964     -0.664187
  H      -1.818177     -0.777687      0.840913
  O      -1.053364     -3.648668      3.689828
  C      -1.297519     -4.205031      2.707322
  O      -1.543641     -4.764280      1.726828
14
Coordinates from ORCA-job ./orca E -399.102012461616
  N       0.419583     -1.535595      0.885112
  C       0.525789     -0.141273      0.444857
  C      -0.698000      0.233155     -0.363794
  O      -1.894815      0.075669      0.399686
  H       1.152645     -1.741466      1.551731
  H       0.573363     -2.152420      0.096059
  H       1.418712      0.053373     -0.158804
  H       0.578088      0.490744      1.332569
  H      -0.751329     -0.385150     -1.265813
  H      -0.651217      1.278270     -0.664087
  H      -1.814046     -0.777945      0.843117
  O      -1.055356     -3.648831      3.689820
  C      -1.297625     -4.205301      2.706916
  O      -1.541854     -4.764112      1.725712
14
Coordinates from ORCA-job ./orca E -399.101705112275
  N       0.414385     -1.547350      0.891166
  C       0.518209     -0.150805      0.449352
  C      -0.700277      0.233254     -0.362248
  O      -1.897214      0.081496      0.397165
  H       1.159026     -1.738977      1.553384
  H       0.578128     -2.155297      0.090546
  H       1.412043      0.041694     -0.153653
  H       0.571563      0.479907      1.337929
  H      -0.754592     -0.382542     -1.265928
  H      -0.646460      1.278751     -0.660118
  H      -1.815827     -0.772385      0.835150
  O      -1.054327     -3.642863      3.689234
  C      -1.282453     -4.183693      2.694843
  O      -1.538266     -4.762071      1.726260
14
Coordinates from ORCA-job ./orca E -399.101915583180
  N       0.412878     -1.548989      0.892095
  C       0.518664     -0.152035      0.451830
  C      -0.699845      0.228793     -0.361297
  O      -1.900535      0.083127      0.397658
  H       1.156581     -1.743255      1.550695
  H       0.576902     -2.154443      0.095915
  H       1.413372      0.040038     -0.149872
  H       0.570263      0.479378      1.340111
  H      -0.754179     -0.390739     -1.262615
  H      -0.642711      1.272614     -0.664412
  H      -1.825723     -0.769406      0.843571
  O      -1.043624     -3.633017      3.679872
  C      -1.287759     -4.183961      2.694197
  O      -1.530345     -4.748988      1.715333
14
Coordinates from ORCA-job ./orca E -399.101914964639
  N       0.413815     -1.548764      0.891594
  C       0.519744     -0.151473      0.452667
  C      -0.699603      0.226481     -0.360453
  O      -1.901338      0.081123      0.398533
  H       1.156716     -1.746497      1.549806
  H       0.576422     -2.155567      0.097013
  H       1.414602      0.041452     -0.148364
  H       0.570104      0.479911      1.340962
  H      -0.753885     -0.394137     -1.260894
  H      -0.643368      1.270045     -0.664698
  H      -1.829823     -0.770955      0.846465
  O      -1.044974     -3.625640      3.675481
  C      -1.280869     -4.187419      2.693913
  O      -1.533604     -4.739441      1.711057
14
Coordinates from ORCA-job ./orca E -399.101950756104
  N       0.414209     -1.547974      0.891131
  C       0.520390     -0.150817      0.452502
  C      -0.699377      0.226416     -0.360264
  O      -1.900780      0.079415      0.398797
  H       1.156542     -1.747632      1.549995
  H       0.575471     -2.156385      0.096698
  H       1.415226      0.042421     -0.148415
  H       0.570576      0.480391      1.340870
  H      -0.753578     -0.393737     -1.260914
  H      -0.644646      1.270342     -0.663559
  H      -1.829764     -0.773064      0.845537
  O      -1.042345     -3.626959      3.675908
  C      -1.286474     -4.182949      2.693185
  O      -1.531513     -4.740350      1.711610
14
Coordinates from ORCA-job ./orca E -399.101952173768
  N       0.415028     -1.547153      0.890483
  C       0.521055     -0.150303      0.452239
  C      -0.699266      0.226404     -0.360005
  O      -1.900014      0.077324      0.399323
  H       1.156136     -1.748933      1.550014
  H       0.574449     -2.157084      0.096789
  H       1.415801      0.043628     -0.148618
  H       0.571098      0.480521      1.340868
  H      -0.753328     -0.393113     -1.261052
  H      -0.646369      1.270765     -0.662097
  H      -1.828999     -0.776005      0.844279
  O      -1.042495     -3.626401      3.676223
  C      -1.287102     -4.180995      2.692826
  O      -1.532053     -4.739536      1.711810
14
Coordinates from ORCA-job ./orca E -399.101977713810
  N       0.416652     -1.545518      0.889137
  C       0.522407     -0.149446      0.451721
  C      -0.699181      0.226183     -0.359319
  O      -1.898586      0.072840      0.400819
  H       1.154655     -1.751793      1.550595
  H       0.571936     -2.158774      0.097201
  H       1.416891      0.046034     -0.149150
  H       0.572247      0.480678      1.340856
  H      -0.752750     -0.392168     -1.261158
  H      -0.649873      1.271298     -0.659304
  H      -1.826939     -0.782237      0.842287
  O      -1.043140     -3.623953      3.676090
  C      -1.287495     -4.177631      2.692100
  O      -1.532884     -4.736394      1.711206
14
Coordinates from ORCA-job ./orca E -399.101968716225
  N       0.416885     -1.545071      0.888787
  C       0.522720     -0.149355      0.451405
  C      -0.699307      0.226216     -0.359116
  O      -1.898193      0.071452      0.401518
  H       1.153440     -1.752271      1.551424
  H       0.570993     -2.159308      0.097499
  H       1.416987      0.046459     -0.149764
  H       0.572819      0.480740      1.340570
  H      -0.752590     -0.391755     -1.261262
  H      -0.650828      1.271489     -0.658643
  H      -1.825145     -0.783986      0.842205
  O      -1.043864     -3.623099      3.675930
  C      -1.287370     -4.177029      2.691873
  O      -1.532606     -4.735364      1.710656
14
Coordinates from ORCA-job ./orca E -399.101974512207
  N       0.416614     -1.544614      0.888568
  C       0.522922     -0.149383      0.450804
  C      -0.699608      0.226337     -0.359042
  O      -1.897808      0.070079      0.402437
  H       1.151127     -1.752041      1.553215
  H       0.570122     -2.159826      0.098090
  H       1.416804      0.046313     -0.151066
  H       0.573766      0.481021      1.339743
  H      -0.752619     -0.391303     -1.261492
  H      -0.651663      1.271678     -0.658376
  H      -1.821679     -0.785087      0.843412
  O      -1.045376     -3.622541      3.675682
  C      -1.287278     -4.176915      2.691496
  O      -1.531384     -4.734600      1.709610
14
Coordinates from ORCA-job ./orca E -399.101975200375
  N       0.415825     -1.544185      0.888554
  C       0.523029     -0.149400      0.449992
  C      -0.699931      0.226558     -0.359203
  O      -1.897450      0.068879      0.403139
  H       1.148403     -1.751190      1.555355
  H       0.569766     -2.160191      0.098891
  H       1.416524      0.045531     -0.152729
  H       0.574912      0.481554      1.338486
  H      -0.752872     -0.390709     -1.261953
  H      -0.652353      1.271983     -0.658290
  H      -1.817583     -0.785314      0.845612
  O      -1.047314     -3.622680      3.675619
  C      -1.287381     -4.177207      2.691078
  O      -1.529637     -4.734511      1.708530
14
Coordinates from ORCA-job ./orca E -399.101667286217
  N       0.410632     -1.555908      0.894603
  C       0.515451     -0.158908      0.454476
  C      -0.702219      0.226649     -0.357646
  O      -1.899865      0.074680      0.400619
  H       1.154840     -1.748734      1.557044
  H       0.574532     -2.163131      0.093355
  H       1.409841      0.033890     -0.147608
  H       0.568383      0.470744      1.343833
  H      -0.756137     -0.388111     -1.262053
  H      -0.647628      1.272451     -0.654302
  H      -1.819378     -0.779779      0.837645
  O      -1.046284     -3.616685      3.675002
  C      -1.272158     -4.155581      2.679015
  O      -1.526071     -4.732457      1.709097
14
Coordinates from ORCA-job ./orca E -399.101875452496
  N       0.409136     -1.557519      0.895514
  C       0.515922     -0.160117      0.456945
  C      -0.701778      0.222209     -0.356690
  O      -1.903161      0.076256      0.401123
  H       1.152367     -1.752986      1.554301
  H       0.573281     -2.162202      0.098763
  H       1.411179      0.032255     -0.143841
  H       0.567111      0.470228      1.346009
  H      -0.755697     -0.396246     -1.258768
  H      -0.643903      1.266353     -0.658538
  H      -1.829256     -0.776902      0.845990
  O      -1.035599     -3.606908      3.665712
  C      -1.277472     -4.155813      2.678328
  O      -1.518190     -4.719489      1.698236
14
Coordinates from ORCA-job ./orca E -399.101874940816
  N       0.410062     -1.557318      0.895038
  C       0.516994     -0.159584      0.457802
  C      -0.701537      0.219876     -0.355844
  O      -1.903966      0.074289      0.402010
  H       1.152480     -1.756236      1.553419
  H       0.572790     -2.163321      0.099893
  H       1.412409      0.033636     -0.142305
  H       0.566945      0.470743      1.346874
  H      -0.755419     -0.399692     -1.257032
  H      -0.644535      1.263756     -0.658859
  H      -1.833392     -0.778406      0.848918
  O      -1.036901     -3.599440      3.661239
  C      -1.270601     -4.159320      2.678058
  O      -1.521391     -4.709864      1.693871
14
Coordinates from ORCA-job ./orca E -399.101910758057
  N       0.410441     -1.556541      0.894593
  C       0.517626     -0.158944      0.457640
  C      -0.701313      0.219819     -0.355663
  O      -1.903400      0.072623      0.402271
  H       1.152303     -1.757350      1.553633
  H       0.571835     -2.164144      0.099567
  H       1.413022      0.034578     -0.142355
  H       0.567413      0.471213      1.346778
  H      -0.755125     -0.399295     -1.257051
  H      -0.645797      1.264057     -0.657744
  H      -1.833312     -0.780464      0.847987
  O      -1.034266     -3.600775      3.661667
  C      -1.276219     -4.154854      2.677330
  O      -1.519267     -4.710805      1.694429
14
Coordinates from ORCA-job ./orca E -399.101912064340
  N       0.411247     -1.555727      0.893964
  C       0.518283     -0.158438      0.457373
  C      -0.701202      0.219811     -0.355413
  O      -1.902637      0.070586      0.402795
  H       1.151897     -1.758613      1.553665
  H       0.570818     -2.164831      0.099663
  H       1.413589      0.035760     -0.142566
  H       0.567935      0.471350      1.346762
  H      -0.754885     -0.398691     -1.257182
  H      -0.647489      1.264471     -0.656326
  H      -1.832544     -0.783336      0.846755
  O      -1.034439     -3.600249      3.661984
  C      -1.276822     -4.152940      2.676969
  O      -1.519813     -4.710036      1.694638
14
Coordinates from ORCA-job ./orca E -399.101937574840
  N       0.412875     -1.554069      0.892636
  C       0.519653     -0.157572      0.456845
  C      -0.701109      0.219573     -0.354730
  O      -1.901192      0.066132      0.404320
  H       1.150396     -1.761467      1.554277
  H       0.568274     -2.166535      0.100108
  H       1.414701      0.038157     -0.143110
  H       0.569107      0.471538      1.346723
  H      -0.754329     -0.397807     -1.257255
  H      -0.650987      1.264972     -0.653588
  H      -1.830491     -0.789518      0.844824
  O      -1.035114     -3.597799      3.661817
  C      -1.277216     -4.149578      2.676208
  O      -1.520628     -4.706909      1.694007
14
Coordinates from ORCA-job ./orca E -399.101928788497
  N       0.413098     -1.553623      0.892308
  C       0.519963     -0.157483      0.456530
  C      -0.701233      0.219608     -0.354535
  O      -1.900808      0.064790      0.405007
  H       1.149190     -1.761926      1.555112
  H       0.567330     -2.167066      0.100426
  H       1.414795      0.038559     -0.143725
  H       0.569685      0.471611      1.346428
  H      -0.754180     -0.397408     -1.257356
  H      -0.651915      1.265157     -0.652958
  H      -1.828725     -0.791209      0.844759
  O      -1.035833     -3.596972      3.661651
  C      -1.277085     -4.149006      2.675977
  O      -1.520340     -4.705914      1.693457
14
Coordinates from ORCA-job ./orca E -399.101934617685
  N       0.412819     -1.553146      0.892115
  C       0.520170     -0.157504      0.455920
  C      -0.701537      0.219728     -0.354469
  O      -1.900421      0.063438      0.405933
  H       1.146848     -1.761681      1.556946
  H       0.566425     -2.167601      0.101068
  H       1.414612      0.038398     -0.145053
  H       0.570656      0.471920      1.345576
  H      -0.754221     -0.396979     -1.257577
  H      -0.652746      1.265336     -0.652730
  H      -1.825230     -0.792268      0.846018
  O      -1.037357     -3.596438      3.661382
  C      -1.276989     -4.148917      2.675574
  O      -1.519090     -4.705168      1.692378
14
Coordinates from ORCA-job ./orca E -399.101935292207
  N       0.412015     -1.552695      0.892133
  C       0.520278     -0.157513      0.455105
  C      -0.701855      0.219948     -0.354641
  O      -1.900061      0.062263      0.406629
  H       1.144110     -1.760811      1.559113
  H       0.566029     -2.167974      0.101920
  H       1.414331      0.037598     -0.146732
  H       0.571814      0.472483      1.344302
  H      -0.754476     -0.396406     -1.258034
  H      -0.653420      1.265635     -0.652676
  H      -1.821131     -0.792454      0.848252
  O      -1.039278     -3.596620      3.661300
  C      -1.277084     -4.149240      2.675136
  O      -1.517333     -4.705095      1.691275
14
Coordinates from ORCA-job ./orca E -399.101623130280
  N       0.406825     -1.564387      0.898177
  C       0.512703     -0.166996      0.459578
  C      -0.704155      0.220031     -0.353073
  O      -1.902491      0.068038      0.404111
  H       1.150603     -1.758389      1.560839
  H       0.570795     -2.170977      0.096362
  H       1.407635      0.025995     -0.141640
  H       0.565282      0.461702      1.349634
  H      -0.757744     -0.393819     -1.258118
  H      -0.648728      1.266088     -0.648673
  H      -1.822940     -0.786946      0.840288
  O      -1.038247     -3.590600      3.660651
  C      -1.261810     -4.127596      2.663084
  O      -1.513789     -4.703027      1.691862
14
Coordinates from ORCA-job ./orca E -399.101831662783
  N       0.405331     -1.565962      0.899081
  C       0.513194     -0.168182      0.462040
  C      -0.703701      0.215601     -0.352118
  O      -1.905760      0.069565      0.404622
  H       1.148093     -1.762607      1.558041
  H       0.569509     -2.169962      0.101819
  H       1.408990      0.024377     -0.137887
  H       0.564034      0.461211      1.351800
  H      -0.757278     -0.401922     -1.254855
  H      -0.645025      1.260015     -0.652876
  H      -1.832796     -0.784146      0.848588
  O      -1.027564     -3.580923      3.651437
  C      -1.267144     -4.127797      2.662348
  O      -1.505944     -4.690149      1.681041
14
Coordinates from ORCA-job ./orca E -399.101831085992
  N       0.406235     -1.565779      0.898638
  C       0.514257     -0.167672      0.462912
  C      -0.703459      0.213246     -0.351275
  O      -1.906564      0.067646      0.405518
  H       1.148185     -1.765852      1.557179
  H       0.569007     -2.171074      0.102986
  H       1.410219      0.025715     -0.136331
  H       0.563864      0.461721      1.352666
  H      -0.757018     -0.405429     -1.253096
  H      -0.645631      1.257382     -0.653248
  H      -1.836959     -0.785582      0.851563
  O      -1.028833     -3.573413      3.646909
  C      -1.260276     -4.131368      2.662094
  O      -1.509087     -4.680422      1.676567
14
Coordinates from ORCA-job ./orca E -399.101867000900
  N       0.406593     -1.565012      0.898217
  C       0.514873     -0.167047      0.462746
  C      -0.703239      0.213201     -0.351108
  O      -1.905989      0.066033      0.405774
  H       1.148004     -1.766934      1.557426
  H       0.568048     -2.171903      0.102654
  H       1.410818      0.026622     -0.136388
  H       0.564327      0.462189      1.352557
  H      -0.756743     -0.405035     -1.253118
  H      -0.646875      1.257689     -0.652168
  H      -1.836848     -0.787572      0.850636
  O      -1.026204     -3.574805      3.647362
  C      -1.265905     -4.126912      2.661366
  O      -1.506921     -4.681395      1.677125
14
Coordinates from ORCA-job ./orca E -399.101868128669
  N       0.407380     -1.564203      0.897617
  C       0.515520     -0.166548      0.462474
  C      -0.703128      0.213191     -0.350872
  O      -1.905226      0.064064      0.406299
  H       1.147595     -1.768154      1.557477
  H       0.567035     -2.172575      0.102770
  H       1.411378      0.027766     -0.136610
  H       0.564853      0.462341      1.352519
  H      -0.756523     -0.404469     -1.253238
  H      -0.648530      1.258084     -0.650816
  H      -1.836081     -0.790351      0.849452
  O      -1.026410     -3.574350      3.647699
  C      -1.266481     -4.125049      2.661004
  O      -1.507443     -4.680630      1.677308
14
Coordinates from ORCA-job ./orca E -399.101893738352
  N       0.408996     -1.562509      0.896335
  C       0.516911     -0.165671      0.461927
  C      -0.703027      0.212935     -0.350210
  O      -1.903763      0.059677      0.407846
  H       1.146065     -1.770984      1.558137
  H       0.564430     -2.174293      0.103289
  H       1.412512      0.030126     -0.137183
  H       0.566066      0.462585      1.352427
  H      -0.755998     -0.403672     -1.253278
  H      -0.652014      1.258545     -0.648177
  H      -1.834049     -0.796443      0.847591
  O      -1.027128     -3.572041      3.647579
  C      -1.266863     -4.121710      2.660214
  O      -1.508199     -4.677428      1.676586
14
Coordinates from ORCA-job ./orca E -399.101885534593
  N       0.409213     -1.562043      0.896032
  C       0.517228     -0.165574      0.461601
  C      -0.703150      0.212960     -0.350024
  O      -1.903371      0.058363      0.408545
  H       1.144848     -1.771428      1.559000
  H       0.563462     -2.174838      0.103650
  H       1.412613      0.030512     -0.137821
  H       0.566662      0.462688      1.352105
  H      -0.755870     -0.403314     -1.253365
  H      -0.652936      1.258709     -0.647594
  H      -1.832286     -0.798089      0.847571
  O      -1.027875     -3.571288      3.647436
  C      -1.266729     -4.121151      2.659965
  O      -1.507870     -4.676389      1.675980
14
Coordinates from ORCA-job ./orca E -399.101891202535
  N       0.408915     -1.561529      0.895881
  C       0.517445     -0.165586      0.460969
  C      -0.703453      0.213071     -0.349971
  O      -1.902975      0.057052      0.409489
  H       1.142467     -1.771148      1.560895
  H       0.562500     -2.175398      0.104374
  H       1.412430      0.030314     -0.139198
  H       0.567671      0.463046      1.351202
  H      -0.755937     -0.402932     -1.253572
  H      -0.653753      1.258865     -0.647428
  H      -1.828771     -0.799088      0.848894
  O      -1.029446     -3.570885      3.647210
  C      -1.266618     -4.121096      2.659536
  O      -1.506536     -4.675567      1.674802
14
Coordinates from ORCA-job ./orca E -399.101892382394
  N       0.408068     -1.561030      0.895951
  C       0.517561     -0.165591      0.460110
  C      -0.703781      0.213297     -0.350164
  O      -1.902599      0.055900      0.410213
  H       1.139623     -1.770212      1.563183
  H       0.562026     -2.175807      0.105339
  H       1.412139      0.029447     -0.140976
  H       0.568903      0.463668      1.349840
  H      -0.756229     -0.402381     -1.254031
  H      -0.654425      1.259157     -0.647438
  H      -1.824550     -0.799211      0.851237
  O      -1.031472     -3.571224      3.647180
  C      -1.266692     -4.121474      2.659068
  O      -1.504632     -4.675420      1.673570
14
Coordinates from ORCA-job ./orca E -399.101574084369
  N       0.402882     -1.572690      0.901991
  C       0.509988     -0.175048      0.464573
  C      -0.706093      0.213373     -0.348588
  O      -1.905043      0.061651      0.407698
  H       1.146172     -1.767826      1.564947
  H       0.566790     -2.178871      0.099762
  H       1.405428      0.017882     -0.135914
  H       0.562369      0.452918      1.355158
  H      -0.759501     -0.399806     -1.254101
  H      -0.649764      1.259597     -0.643424
  H      -1.826372     -0.793727      0.843279
  O      -1.030438     -3.565185      3.646498
  C      -1.251367     -4.099810      2.647029
  O      -1.501111     -4.673339      1.674173
14
Coordinates from ORCA-job ./orca E -399.101784477128
  N       0.401374     -1.574236      0.902890
  C       0.510498     -0.176216      0.467019
  C      -0.705624      0.208972     -0.347638
  O      -1.908287      0.063121      0.408195
  H       1.143615     -1.772011      1.562092
  H       0.565468     -2.177781      0.105271
  H       1.406802      0.016265     -0.132181
  H       0.561153      0.452447      1.357307
  H      -0.759002     -0.407827     -1.250883
  H      -0.646083      1.253577     -0.647559
  H      -1.836209     -0.791016      0.851495
  O      -1.019746     -3.555633      3.637394
  C      -1.256730     -4.099980      2.646263
  O      -1.493289     -4.660565      1.663418
14
Coordinates from ORCA-job ./orca E -399.101781620143
  N       0.402243     -1.574067      0.902489
  C       0.511552     -0.175725      0.467903
  C      -0.705379      0.206593     -0.346806
  O      -1.909091      0.061264      0.409092
  H       1.143679     -1.775240      1.561251
  H       0.564955     -2.178882      0.106487
  H       1.408031      0.017545     -0.130610
  H       0.560985      0.452966      1.358165
  H      -0.758764     -0.411404     -1.249103
  H      -0.646654      1.250903     -0.647998
  H      -1.840412     -0.792359      0.854539
  O      -1.020999     -3.548114      3.632828
  C      -1.249832     -4.103645      2.646026
  O      -1.496376     -4.650716      1.658818
14
Coordinates from ORCA-job ./orca E -399.101813460956
  N       0.402571     -1.573308      0.902098
  C       0.512147     -0.175114      0.467730
  C      -0.705161      0.206568     -0.346660
  O      -1.908505      0.059719      0.409333
  H       1.143492     -1.776274      1.561538
  H       0.563992     -2.179709      0.106147
  H       1.408612      0.018409     -0.130682
  H       0.561447      0.453436      1.358038
  H      -0.758507     -0.411006     -1.249134
  H      -0.647873      1.251222     -0.646962
  H      -1.840259     -0.794262      0.853611
  O      -1.018380     -3.549616      3.633337
  C      -1.255474     -4.099206      2.645303
  O      -1.494163     -4.651741      1.659385
14
Coordinates from ORCA-job ./orca E -399.101827735760
  N       0.403323     -1.572503      0.901535
  C       0.512784     -0.174624      0.467453
  C      -0.705048      0.206557     -0.346446
  O      -1.907751      0.057835      0.409844
  H       1.143069     -1.777451      1.561614
  H       0.562975     -2.180369      0.106294
  H       1.409169      0.019501     -0.130912
  H       0.561974      0.453608      1.357972
  H      -0.758304     -0.410486     -1.249246
  H      -0.649478      1.251598     -0.645692
  H      -1.839511     -0.796920      0.852486
  O      -1.018601     -3.549268      3.633707
  C      -1.256016     -4.097408      2.644948
  O      -1.494645     -4.650953      1.659525
14
Coordinates from ORCA-job ./orca E -399.101843962592
  N       0.404898     -1.570747      0.900302
  C       0.514207     -0.173724      0.466867
  C      -0.704926      0.206310     -0.345812
  O      -1.906246      0.053449      0.411389
  H       1.141455     -1.780278      1.562329
  H       0.560226     -2.182115      0.106918
  H       1.410341      0.021815     -0.131541
  H       0.563253      0.453925      1.357803
  H      -0.757776     -0.409698     -1.249298
  H      -0.652978      1.252070     -0.643088
  H      -1.837459     -0.803019      0.850603
  O      -1.019345     -3.547209      3.633739
  C      -1.256379     -4.094070      2.644160
  O      -1.495332     -4.647592      1.658711
14
Coordinates from ORCA-job ./orca E -399.101834805492
  N       0.405075     -1.570271      0.900042
  C       0.514517     -0.173628      0.466539
  C      -0.705044      0.206328     -0.345651
  O      -1.905865      0.052225      0.412070
  H       1.140221     -1.780691      1.563224
  H       0.559229     -2.182665      0.107329
  H       1.410442      0.022146     -0.132183
  H       0.563855      0.454060      1.357455
  H      -0.757669     -0.409398     -1.249373
  H      -0.653848      1.252207     -0.642595
  H      -1.835742     -0.804540      0.850644
  O      -1.020085     -3.546592      3.633641
  C      -1.256219     -4.093574      2.643912
  O      -1.494929     -4.646489      1.658029
14
Coordinates from ORCA-job ./orca E -399.101843063270
  N       0.404714     -1.569699      0.899945
  C       0.514738     -0.173635      0.465865
  C      -0.705354      0.206440     -0.345635
  O      -1.905451      0.050980      0.413040
  H       1.137679     -1.780364      1.565268
  H       0.558139     -2.183275      0.108184
  H       1.410255      0.021874     -0.133644
  H       0.564927      0.454486      1.356464
  H      -0.757771     -0.409074     -1.249577
  H      -0.654639      1.252337     -0.642552
  H      -1.832105     -0.805420      0.852101
  O      -1.021739     -3.546408      3.633494
  C      -1.256045     -4.093600      2.643458
  O      -1.493411     -4.645523      1.656672
14
Coordinates from ORCA-job ./orca E -399.101830510175
  N       0.403783     -1.569133      0.900081
  C       0.514864     -0.173630      0.464947
  C      -0.705685      0.206680     -0.345871
  O      -1.905046      0.049884      0.413785
  H       1.134649     -1.779362      1.567727
  H       0.557527     -2.183739      0.109302
  H       1.409960      0.020912     -0.135538
  H       0.566247      0.455194      1.354987
  H      -0.758101     -0.408553     -1.250047
  H      -0.655294      1.252626     -0.642667
  H      -1.827736     -0.805429      0.854576
  O      -1.023873     -3.547019      3.633572
  C      -1.256066     -4.094066      2.642966
  O      -1.491288     -4.645247      1.655262
14
Coordinates from ORCA-job ./orca E -399.101518472729
  N       0.398600     -1.580761      0.906116
  C       0.507291     -0.183060      0.469400
  C      -0.708008      0.206749     -0.344289
  O      -1.907501      0.055613      0.411273
  H       1.141252     -1.777014      1.569529
  H       0.562289     -2.186861      0.103706
  H       1.403234      0.009385     -0.130503
  H       0.559711      0.444475      1.360291
  H      -0.761377     -0.405991     -1.250105
  H      -0.650664      1.253052     -0.638646
  H      -1.829569     -0.799969      0.846627
  O      -1.022836     -3.540966      3.632857
  C      -1.240690     -4.072379      2.630947
  O      -1.487793     -4.643156      1.655877
14
Coordinates from ORCA-job ./orca E -399.101728222758
  N       0.397064     -1.582270      0.907008
  C       0.507824     -0.184204      0.471825
  C      -0.707515      0.202390     -0.343346
  O      -1.910718      0.057022      0.411738
  H       1.138642     -1.781156      1.566607
  H       0.560928     -2.185696      0.109259
  H       1.404632      0.007759     -0.126796
  H       0.558537      0.444028      1.362416
  H      -0.760838     -0.413901     -1.246942
  H      -0.647000      1.247105     -0.642689
  H      -1.839397     -0.797354      0.854733
  O      -1.012120     -3.531575      3.623892
  C      -1.246112     -4.072499      2.630148
  O      -1.479986     -4.630530      1.645228
14
Coordinates from ORCA-job ./orca E -399.101724759429
  N       0.397877     -1.582129      0.906648
  C       0.508868     -0.183742      0.472722
  C      -0.707260      0.200001     -0.342528
  O      -1.911538      0.055227      0.412604
  H       1.138660     -1.784379      1.565770
  H       0.560398     -2.186786      0.110538
  H       1.405866      0.008968     -0.125204
  H       0.558367      0.444539      1.363272
  H      -0.760607     -0.417502     -1.245166
  H      -0.647515      1.244413     -0.643164
  H      -1.843673     -0.798606      0.857813
  O      -1.013351     -3.524018      3.619294
  C      -1.239110     -4.076315      2.629955
  O      -1.483041     -4.620553      1.640527
14
Coordinates from ORCA-job ./orca E -399.101757327153
  N       0.398159     -1.581380      0.906287
  C       0.509431     -0.183149      0.472533
  C      -0.707044      0.200027     -0.342413
  O      -1.910934      0.053767      0.412810
  H       1.138464     -1.785342      1.566104
  H       0.559432     -2.187608      0.110172
  H       1.406419      0.009774     -0.125301
  H       0.558826      0.445004      1.363118
  H      -0.760367     -0.417046     -1.245234
  H      -0.648700      1.244784     -0.642152
  H      -1.843445     -0.800412      0.856839
  O      -1.010748     -3.525681      3.619901
  C      -1.244774     -4.071889      2.629254
  O      -1.480778     -4.621729      1.641164
14
Coordinates from ORCA-job ./orca E -399.101771020121
  N       0.398854     -1.580584      0.905760
  C       0.510053     -0.182670      0.472256
  C      -0.706921      0.200017     -0.342224
  O      -1.910192      0.051983      0.413295
  H       1.138011     -1.786481      1.566197
  H       0.558400     -2.188254      0.110347
  H       1.406974      0.010807     -0.125526
  H       0.559345      0.445193      1.363035
  H      -0.760173     -0.416565     -1.245343
  H      -0.650233      1.245142     -0.640965
  H      -1.842740     -0.802933      0.855768
  O      -1.010953     -3.525426      3.620290
  C      -1.245276     -4.070173      2.628915
  O      -1.481208     -4.620938      1.641276
14
Coordinates from ORCA-job ./orca E -399.101787555195
  N       0.400334     -1.578780      0.904588
  C       0.511488     -0.181753      0.471653
  C      -0.706766      0.199780     -0.341647
  O      -1.908668      0.047730      0.414794
  H       1.136275     -1.789311      1.566982
  H       0.555510     -2.190021      0.111075
  H       1.408189      0.013043     -0.126155
  H       0.560651      0.445577      1.362809
  H      -0.759656     -0.415840     -1.245397
  H      -0.653667      1.245602     -0.638499
  H      -1.840750     -0.808856      0.853933
  O      -1.011644     -3.523628      3.620423
  C      -1.245575     -4.066919      2.628139
  O      -1.481783     -4.617506      1.640382
14
Coordinates from ORCA-job ./orca E -399.101779200699
  N       0.400462     -1.578279      0.904360
  C       0.511799     -0.181649      0.471317
  C      -0.706868      0.199812     -0.341513
  O      -1.908282      0.046574      0.415446
  H       1.134975     -1.789724      1.567914
  H       0.554431     -2.190584      0.111541
  H       1.408304      0.013332     -0.126802
  H       0.561266      0.445746      1.362434
  H      -0.759545     -0.415555     -1.245477
  H      -0.654496      1.245744     -0.638066
  H      -1.839063     -0.810296      0.853977
  O      -1.012351     -3.523149      3.620384
  C      -1.245373     -4.066475      2.627900
  O      -1.481319     -4.616380      1.639667
14
Coordinates from ORCA-job ./orca E -399.101787259150
  N       0.400000     -1.577645      0.904313
  C       0.512026     -0.181649      0.470605
  C      -0.707161      0.199968     -0.341537
  O      -1.907848      0.045400      0.416395
  H       1.132227     -1.789395      1.570093
  H       0.553139     -2.191249      0.112523
  H       1.408127      0.012974     -0.128327
  H       0.562404      0.446232      1.361366
  H      -0.759640     -0.415208     -1.245706
  H      -0.655241      1.245910     -0.638086
  H      -1.835365     -0.811102      0.855426
  O      -1.013999     -3.523182      3.620336
  C      -1.245104     -4.066596      2.627460
  O      -1.479626     -4.615339      1.638221
14
Coordinates from ORCA-job ./orca E -399.101774873570
  N       0.398931     -1.577015      0.904518
  C       0.512146     -0.181639      0.469648
  C      -0.707476      0.200258     -0.341831
  O      -1.907429      0.044430      0.417101
  H       1.128960     -1.788350      1.572717
  H       0.552324     -2.191757      0.113786
  H       1.407833      0.011893     -0.130293
  H       0.563787      0.447012      1.359797
  H      -0.759975     -0.414675     -1.246210
  H      -0.655813      1.246229     -0.638316
  H      -1.830919     -0.810947      0.857944
  O      -1.016127     -3.524088      3.620529
  C      -1.245013     -4.067205      2.626981
  O      -1.477291     -4.615028      1.636712
14
Coordinates from ORCA-job ./orca E -399.101452928518
  N       0.393751     -1.588612      0.910549
  C       0.504573     -0.191041      0.474091
  C      -0.709807      0.200321     -0.340243
  O      -1.909892      0.050136      0.414592
  H       1.135615     -1.786039      1.574553
  H       0.557082     -2.194936      0.108174
  H       1.401090      0.000404     -0.125284
  H       0.557249      0.436324      1.365089
  H      -0.763253     -0.412125     -1.246259
  H      -0.651211      1.246640     -0.634289
  H      -1.832757     -0.805512      0.850005
  O      -1.015085     -3.518027      3.619779
  C      -1.229593     -4.045489      2.614989
  O      -1.473823     -4.612928      1.637336
14
Coordinates from ORCA-job ./orca E -399.101660023274
  N       0.392191     -1.590090      0.911424
  C       0.505126     -0.192161      0.476496
  C      -0.709293      0.196007     -0.339307
  O      -1.913085      0.051489      0.415020
  H       1.132954     -1.790143      1.571568
  H       0.555689     -2.193704      0.113752
  H       1.402512     -0.001223     -0.121596
  H       0.556113      0.435895      1.367199
  H      -0.762674     -0.419907     -1.243159
  H      -0.647559      1.240769     -0.638235
  H      -1.842579     -0.802988      0.857992
  O      -1.004354     -3.508773      3.610946
  C      -1.235049     -4.045571      2.614159
  O      -1.466053     -4.600481      1.626822
14
Coordinates from ORCA-job ./orca E -399.101657898429
  N       0.392941     -1.589977      0.911099
  C       0.506155     -0.191729      0.477413
  C      -0.709025      0.193615     -0.338506
  O      -1.913918      0.049771      0.415850
  H       1.132918     -1.793363      1.570729
  H       0.555135     -2.194779      0.115083
  H       1.403752     -0.000084     -0.119965
  H       0.555928      0.436391      1.368065
  H      -0.762444     -0.423528     -1.241390
  H      -0.648003      1.238067     -0.638748
  H      -1.846933     -0.804139      0.861099
  O      -1.005525     -3.501154      3.606292
  C      -1.227964     -4.049527      2.614003
  O      -1.469079     -4.590445      1.622058
14
Coordinates from ORCA-job ./orca E -399.101690622437
  N       0.393174     -1.589242      0.910764
  C       0.506686     -0.191155      0.477213
  C      -0.708808      0.193694     -0.338421
  O      -1.913300      0.048393      0.416016
  H       1.132707     -1.794267      1.571103
  H       0.554156     -2.195598      0.114689
  H       1.404280      0.000671     -0.120076
  H       0.556377      0.436845      1.367895
  H      -0.762211     -0.423008     -1.241497
  H      -0.649149      1.238492     -0.637756
  H      -1.846643     -0.805853      0.860070
  O      -1.002915     -3.502941      3.606971
  C      -1.233633     -4.045127      2.613331
  O      -1.466782     -4.591787      1.622780
14
Coordinates from ORCA-job ./orca E -399.101703595536
  N       0.393807     -1.588460      0.910269
  C       0.507288     -0.190685      0.476945
  C      -0.708673      0.193695     -0.338260
  O      -1.912575      0.046719      0.416456
  H       1.132222     -1.795382      1.571211
  H       0.553101     -2.196230      0.114882
  H       1.404832      0.001650     -0.120279
  H       0.556876      0.437045      1.367804
  H      -0.762016     -0.422550     -1.241605
  H      -0.650600      1.238844     -0.636648
  H      -1.845983     -0.808224      0.859038
  O      -1.003074     -3.502749      3.607356
  C      -1.234081     -4.043505      2.613013
  O      -1.467185     -4.591051      1.622900
14
Coordinates from ORCA-job ./orca E -399.101719975172
  N       0.395158     -1.586632      0.909149
  C       0.508717     -0.189761      0.476342
  C      -0.708470      0.193509     -0.337745
  O      -1.911047      0.042636      0.417856
  H       1.130341     -1.798239      1.572041
  H       0.550042     -2.198016      0.115685
  H       1.406089      0.003803     -0.120867
  H       0.558174      0.437468      1.367556
  H      -0.761475     -0.421810     -1.241696
  H      -0.653915      1.239347     -0.634283
  H      -1.844094     -0.813951      0.857169
  O      -1.003620     -3.501111      3.607530
  C      -1.234274     -4.040383      2.612282
  O      -1.467688     -4.587743      1.622062
14
Coordinates from ORCA-job ./orca E -399.101712209679
  N       0.395215     -1.586113      0.908947
  C       0.509020     -0.189652      0.476015
  C      -0.708547      0.193561     -0.337639
  O      -1.910666      0.041572      0.418454
  H       1.128967     -1.798662      1.572989
  H       0.548865     -2.198576      0.116187
  H       1.406218      0.004048     -0.121483
  H       0.558778      0.437655      1.367180
  H      -0.761342     -0.421528     -1.241786
  H      -0.654671      1.239498     -0.633907
  H      -1.842468     -0.815288      0.857193
  O      -1.004224     -3.500716      3.607504
  C      -1.234020     -4.040007      2.612061
  O      -1.467186     -4.586673      1.621369
14
Coordinates from ORCA-job ./orca E -399.101720251749
  N       0.394615     -1.585431      0.908943
  C       0.509235     -0.189644      0.475302
  C      -0.708805      0.193776     -0.337714
  O      -1.910227      0.040531      0.419327
  H       1.125999     -1.798354      1.575267
  H       0.547344     -2.199266      0.117258
  H       1.406060      0.003611     -0.122995
  H       0.559930      0.438181      1.366087
  H      -0.761393     -0.421150     -1.242048
  H      -0.655311      1.239707     -0.634019
  H      -1.838775     -0.815953      0.858599
  O      -1.005726     -3.500896      3.607483
  C      -1.233628     -4.040266      2.611650
  O      -1.465379     -4.585728      1.619943
14
Coordinates from ORCA-job ./orca E -399.101708384388
  N       0.393384     -1.584758      0.909203
  C       0.509334     -0.189627      0.474350
  C      -0.709075      0.194142     -0.338073
  O      -1.909812      0.039732      0.419918
  H       1.122513     -1.797324      1.577982
  H       0.546287     -2.199793      0.118612
  H       1.405783      0.002437     -0.124930
  H       0.561314      0.438999      1.364502
  H      -0.761674     -0.420565     -1.242602
  H      -0.655748      1.240088     -0.634343
  H      -1.834376     -0.815617      0.861041
  O      -1.007655     -3.501992      3.607713
  C      -1.233393     -4.041044      2.611219
  O      -1.462943     -4.585560      1.618490
14
Coordinates from ORCA-job ./orca E -399.101373670624
  N       0.388206     -1.596326      0.915230
  C       0.501759     -0.199000      0.478784
  C      -0.711413      0.194197     -0.336480
  O      -1.912276      0.045416      0.417412
  H       1.129217     -1.795050      1.579846
  H       0.551035     -2.203025      0.112981
  H       1.399021     -0.009013     -0.119947
  H       0.554775      0.428342      1.369782
  H      -0.764952     -0.418027     -1.242641
  H      -0.651172      1.240483     -0.630310
  H      -1.836213     -0.810207      0.853113
  O      -1.006607     -3.495924      3.606931
  C      -1.217937     -4.019296      2.599253
  O      -1.459503     -4.583451      1.619126
14
Coordinates from ORCA-job ./orca E -399.101580710366
  N       0.386645     -1.597773      0.916077
  C       0.502336     -0.200094      0.481167
  C      -0.710882      0.189935     -0.335545
  O      -1.915445      0.046711      0.417813
  H       1.126521     -1.799126      1.576806
  H       0.549630     -2.201737      0.118573
  H       1.400466     -0.010628     -0.116279
  H       0.553675      0.427926      1.371877
  H      -0.764336     -0.425677     -1.239599
  H      -0.647539      1.234693     -0.634150
  H      -1.846032     -0.807785      0.860967
  O      -0.995897     -3.486766      3.598214
  C      -1.223387     -4.019348      2.598391
  O      -1.451815     -4.571213      1.608769
14
Coordinates from ORCA-job ./orca E -399.101576907597
  N       0.387352     -1.597686      0.915772
  C       0.503353     -0.199684      0.482099
  C      -0.710601      0.187556     -0.334753
  O      -1.916287      0.045058      0.418608
  H       1.126442     -1.802353      1.575975
  H       0.549062     -2.202814      0.119931
  H       1.401711     -0.009537     -0.114617
  H       0.553483      0.428405      1.372754
  H      -0.764104     -0.429276     -1.237843
  H      -0.647930      1.232003     -0.634667
  H      -1.850454     -0.808865      0.864047
  O      -0.996983     -3.479082      3.593506
  C      -1.216291     -4.023376      2.598261
  O      -1.454811     -4.561231      1.604009
14
Coordinates from ORCA-job ./orca E -399.101609814336
  N       0.387547     -1.596965      0.915455
  C       0.503861     -0.199126      0.481902
  C      -0.710380      0.187664     -0.334685
  O      -1.915666      0.043748      0.418743
  H       1.126212     -1.803236      1.576374
  H       0.548063     -2.203637      0.119522
  H       1.402227     -0.008819     -0.114719
  H       0.553917      0.428846      1.372586
  H      -0.763873     -0.428727     -1.237967
  H      -0.649038      1.232456     -0.633694
  H      -1.850154     -0.810505      0.862984
  O      -0.994345     -3.480891      3.594187
  C      -1.221928     -4.019021      2.597611
  O      -1.452502     -4.562669      1.604782
14
Coordinates from ORCA-job ./orca E -399.101622301936
  N       0.388130     -1.596198      0.914980
  C       0.504446     -0.198671      0.481643
  C      -0.710233      0.187684     -0.334544
  O      -1.914952      0.042176      0.419150
  H       1.125687     -1.804329      1.576493
  H       0.546989     -2.204256      0.119725
  H       1.402778     -0.007881     -0.114899
  H       0.554396      0.429039      1.372501
  H      -0.763679     -0.428271     -1.238084
  H      -0.650413      1.232818     -0.632641
  H      -1.849542     -0.812761      0.861952
  O      -0.994448     -3.480708      3.594545
  C      -1.222324     -4.017480      2.597313
  O      -1.452895     -4.562044      1.604948
14
Coordinates from ORCA-job ./orca E -399.101638265865
  N       0.389351     -1.594369      0.913897
  C       0.505852     -0.197755      0.481066
  C      -0.709980      0.187559     -0.334080
  O      -1.913432      0.038309      0.420448
  H       1.123662     -1.807204      1.577353
  H       0.543791     -2.206033      0.120565
  H       1.404061     -0.005807     -0.115410
  H       0.555663      0.429465      1.372272
  H      -0.763102     -0.427513     -1.238194
  H      -0.653570      1.233366     -0.630379
  H      -1.847798     -0.818265      0.860018
  O      -0.994774     -3.479086      3.594648
  C      -1.222401     -4.014515      2.596621
  O      -1.453384     -4.559033      1.604257
14
Coordinates from ORCA-job ./orca E -399.101630466427
  N       0.389343     -1.593849      0.913712
  C       0.506143     -0.197644      0.480755
  C      -0.710031      0.187651     -0.333999
  O      -1.913062      0.037343      0.420981
  H       1.122218     -1.807654      1.578315
  H       0.542532     -2.206598      0.121083
  H       1.404206     -0.005590     -0.115981
  H       0.556242      0.429656      1.371910
  H      -0.762942     -0.427200     -1.238304
  H      -0.654248      1.233553     -0.630039
  H      -1.846253     -0.819511      0.859975
  O      -0.995236     -3.478705      3.594595
  C      -1.222086     -4.014218      2.596426
  O      -1.452888     -4.558116      1.603651
14
Coordinates from ORCA-job ./orca E -399.101638168028
  N       0.388616     -1.593148      0.913739
  C       0.506336     -0.197628      0.480073
  C      -0.710241      0.187935     -0.334122
  O      -1.912637      0.036480      0.421737
  H       1.119088     -1.807396      1.580638
  H       0.540833     -2.207298      0.122197
  H       1.404073     -0.006076     -0.117409
  H       0.557350      0.430191      1.370846
  H      -0.762937     -0.426770     -1.238602
  H      -0.654746      1.233821     -0.630224
  H      -1.842681     -0.820008      0.861269
  O      -0.996463     -3.478915      3.594514
  C      -1.221566     -4.014624      2.596053
  O      -1.451086     -4.557444      1.602372
14
Coordinates from ORCA-job ./orca E -399.101627058723
  N       0.387212     -1.592440      0.914037
  C       0.506409     -0.197605      0.479143
  C      -0.710457      0.188391     -0.334536
  O      -1.912229      0.035861      0.422202
  H       1.115345     -1.806407      1.583447
  H       0.539537     -2.207839      0.123618
  H       1.403817     -0.007323     -0.119280
  H       0.558709      0.431028      1.369273
  H      -0.763146     -0.426104     -1.239205
  H      -0.655026      1.234282     -0.630622
  H      -1.838348     -0.819500      0.863593
  O      -0.998099     -3.480050      3.594673
  C      -1.221168     -4.015588      2.595668
  O      -1.448616     -4.557587      1.601072
14
Coordinates from ORCA-job ./orca E -399.101277754724
  N       0.382044     -1.604026      0.919993
  C       0.498802     -0.206978      0.483530
  C      -0.712814      0.188482     -0.332952
  O      -1.914695      0.041504      0.419684
  H       1.122103     -1.804189      1.585280
  H       0.544288     -2.211199      0.117929
  H       1.397118     -0.018729     -0.114177
  H       0.552066      0.420320      1.374546
  H      -0.766423     -0.423459     -1.239302
  H      -0.650489      1.234723     -0.626514
  H      -1.840174     -0.814162      0.855599
  O      -0.996993     -3.473920      3.593887
  C      -1.205672     -3.993787      2.583754
  O      -1.445223     -4.555462      1.601825
14
Coordinates from ORCA-job ./orca E -399.101483021818
  N       0.380323     -1.605467      0.920700
  C       0.499351     -0.208038      0.485995
  C      -0.712160      0.184313     -0.332117
  O      -1.917858      0.042631      0.419742
  H       1.119359     -1.808428      1.581866
  H       0.542447     -2.209806      0.123310
  H       1.398754     -0.020116     -0.110023
  H       0.550617      0.419769      1.376867
  H      -0.765473     -0.430841     -1.236493
  H      -0.646768      1.229088     -0.630212
  H      -1.850010     -0.811960      0.863011
  O      -0.985568     -3.465004      3.585468
  C      -1.211050     -3.993743      2.583100
  O      -1.438024     -4.543279      1.591869
14
Coordinates from ORCA-job ./orca E -399.101478244367
  N       0.381034     -1.605369      0.920499
  C       0.500379     -0.207623      0.486980
  C      -0.711884      0.181869     -0.331296
  O      -1.918701      0.041121      0.420612
  H       1.119222     -1.811629      1.581164
  H       0.541994     -2.210800      0.124803
  H       1.399865     -0.019152     -0.108563
  H       0.550594      0.420362      1.377723
  H      -0.765328     -0.434634     -1.234617
  H      -0.647102      1.226285     -0.630861
  H      -1.854527     -0.812845      0.866272
  O      -0.986846     -3.457166      3.580561
  C      -1.203821     -3.997982      2.582888
  O      -1.440939     -4.533318      1.586917
14
Coordinates from ORCA-job ./orca E -399.101512230015
  N       0.381164     -1.604663      0.920199
  C       0.500844     -0.207081      0.486784
  C      -0.711651      0.182060     -0.331266
  O      -1.918067      0.039893      0.420668
  H       1.118971     -1.812467      1.581590
  H       0.540946     -2.211610      0.124324
  H       1.400352     -0.018475     -0.108656
  H       0.551000      0.420778      1.377558
  H      -0.765069     -0.433966     -1.234804
  H      -0.648162      1.226834     -0.629882
  H      -1.854151     -0.814410      0.865069
  O      -0.984124     -3.459127      3.581341
  C      -1.209482     -3.993635      2.582295
  O      -1.438632     -4.535010      1.587862
14
Coordinates from ORCA-job ./orca E -399.101524090135
  N       0.381723     -1.603908      0.919770
  C       0.501425     -0.206638      0.486535
  C      -0.711506      0.182084     -0.331116
  O      -1.917386      0.038444      0.421080
  H       1.118407     -1.813538      1.581779
  H       0.539925     -2.212217      0.124573
  H       1.400859     -0.017622     -0.108913
  H       0.551545      0.420996      1.377445
  H      -0.764905     -0.433553     -1.234877
  H      -0.649470      1.227180     -0.628888
  H      -1.853636     -0.816518      0.864100
  O      -0.984263     -3.458889      3.581600
  C      -1.209858     -3.992183      2.581973
  O      -1.438920     -4.534521      1.588020
14
Coordinates from ORCA-job ./orca E -399.101540124556
  N       0.382927     -1.602053      0.918733
  C       0.502864     -0.205721      0.485954
  C      -0.711242      0.181994     -0.330627
  O      -1.915886      0.034796      0.422414
  H       1.116210     -1.816447      1.582819
  H       0.536762     -2.214034      0.125525
  H       1.402103     -0.015653     -0.109582
  H       0.552975      0.421466      1.377163
  H      -0.764393     -0.432828     -1.234910
  H      -0.652544      1.227744     -0.626687
  H      -1.852099     -0.821822      0.862188
  O      -0.984636     -3.457098      3.581494
  C      -1.209884     -3.989320      2.581204
  O      -1.439217     -4.531907      1.587394
14
Coordinates from ORCA-job ./orca E -399.101532465352
  N       0.382888     -1.601564      0.918535
  C       0.503137     -0.205628      0.485654
  C      -0.711282      0.182113     -0.330552
  O      -1.915537      0.033960      0.422917
  H       1.114731     -1.816902      1.583776
  H       0.535517     -2.214609      0.126028
  H       1.402253     -0.015448     -0.110103
  H       0.553519      0.421618      1.376829
  H      -0.764239     -0.432504     -1.235012
  H      -0.653132      1.227947     -0.626379
  H      -1.850672     -0.822944      0.862119
  O      -0.985027     -3.456630      3.581365
  C      -1.209526     -3.989087      2.581019
  O      -1.438689     -4.531202      1.586885
14
Coordinates from ORCA-job ./orca E -399.101539263503
  N       0.382093     -1.600930      0.918493
  C       0.503283     -0.205643      0.485018
  C      -0.711453      0.182460     -0.330703
  O      -1.915145      0.033270      0.423554
  H       1.111557     -1.816716      1.585995
  H       0.533747     -2.215329      0.127040
  H       1.402175     -0.015879     -0.111302
  H       0.554455      0.422033      1.375887
  H      -0.764178     -0.431996     -1.235350
  H      -0.653468      1.228274     -0.626579
  H      -1.847311     -0.823308      0.863254
  O      -0.985963     -3.456684      3.581193
  C      -1.208900     -3.989577      2.580723
  O      -1.436952     -4.530855      1.585859
14
Coordinates from ORCA-job ./orca E -399.101540119540
  N       0.380618     -1.600309      0.918688
  C       0.503294     -0.205647      0.484178
  C      -0.711604      0.182998     -0.331154
  O      -1.914772      0.032794      0.423825
  H       1.107821     -1.815878      1.588593
  H       0.532309     -2.215880      0.128283
  H       1.401996     -0.017011     -0.112819
  H       0.555552      0.422704      1.374521
  H      -0.764262     -0.431189     -1.236032
  H      -0.653576      1.228832     -0.626944
  H      -1.843245     -0.822744      0.865260
  O      -0.987136     -3.457636      3.581287
  C      -1.208371     -3.990597      2.580476
  O      -1.434684     -4.531319      1.584921
14
Coordinates from ORCA-job ./orca E -399.101163948948
  N       0.375453     -1.611868      0.924634
  C       0.495684     -0.214993      0.488552
  C      -0.713964      0.183082     -0.329561
  O      -1.917230      0.038411      0.421312
  H       1.114624     -1.813694      1.590445
  H       0.537046     -2.219297      0.122572
  H       1.395275     -0.028377     -0.107747
  H       0.548903      0.412021      1.379782
  H      -0.767533     -0.428552     -1.236120
  H      -0.649061      1.229251     -0.622815
  H      -1.845059     -0.817436      0.857273
  O      -0.986024     -3.451490      3.580473
  C      -1.192858     -3.968760      2.568573
  O      -1.431318     -4.529181      1.585707
14
Coordinates from ORCA-job ./orca E -399.101367642041
  N       0.373790     -1.613249      0.925328
  C       0.496272     -0.216005      0.491019
  C      -0.713303      0.178917     -0.328704
  O      -1.920359      0.039467      0.421401
  H       1.111894     -1.817919      1.587004
  H       0.535225     -2.217800      0.127962
  H       1.396906     -0.029735     -0.103657
  H       0.547532      0.411532      1.382089
  H      -0.766569     -0.435909     -1.233305
  H      -0.645397      1.223628     -0.626458
  H      -1.854877     -0.815344      0.864603
  O      -0.974696     -3.442639      3.572120
  C      -1.198240     -3.968653      2.567848
  O      -1.424239     -4.517173      1.575833
14
Coordinates from ORCA-job ./orca E -399.101363338098
  N       0.374522     -1.613153      0.925158
  C       0.497310     -0.215597      0.492037
  C      -0.713027      0.176440     -0.327860
  O      -1.921205      0.038011      0.422311
  H       1.111752     -1.821142      1.586331
  H       0.534808     -2.218754      0.129482
  H       1.398000     -0.028801     -0.102217
  H       0.547548      0.412147      1.382955
  H      -0.766452     -0.439790     -1.231367
  H      -0.645714      1.220772     -0.627155
  H      -1.859470     -0.816175      0.867899
  O      -0.975959     -3.434690      3.567099
  C      -1.191068     -3.972902      2.567592
  O      -1.427107     -4.507247      1.570815
14
Coordinates from ORCA-job ./orca E -399.101396991301
  N       0.374645     -1.612456      0.924875
  C       0.497769     -0.215066      0.491849
  C      -0.712795      0.176636     -0.327829
  O      -1.920567      0.036826      0.422374
  H       1.111496     -1.821981      1.586785
  H       0.533760     -2.219569      0.128993
  H       1.398475     -0.028142     -0.102317
  H       0.547959      0.412560      1.382791
  H      -0.766205     -0.439135     -1.231539
  H      -0.646763      1.221322     -0.626197
  H      -1.859103     -0.817698      0.866689
  O      -0.973237     -3.436610      3.567838
  C      -1.196709     -3.968586      2.567000
  O      -1.424785     -4.508982      1.571770
14
Coordinates from ORCA-job ./orca E -399.101408623558
  N       0.375202     -1.611710      0.924466
  C       0.498347     -0.214631      0.491603
  C      -0.712650      0.176669     -0.327676
  O      -1.919889      0.035450      0.422801
  H       1.110925     -1.823033      1.587001
  H       0.532765     -2.220159      0.129248
  H       1.398970     -0.027311     -0.102595
  H       0.548522      0.412781      1.382670
  H      -0.766062     -0.438740     -1.231592
  H      -0.648041      1.221668     -0.625238
  H      -1.858623     -0.819742      0.865720
  O      -0.973391     -3.436339      3.568049
  C      -1.197064     -3.967179      2.566667
  O      -1.425070     -4.508606      1.571960
14
Coordinates from ORCA-job ./orca E -399.101424086104
  N       0.376410     -1.609853      0.923472
  C       0.499798     -0.213719      0.491034
  C      -0.712379      0.176582     -0.327170
  O      -1.918388      0.031973      0.424189
  H       1.108695     -1.825932      1.588109
  H       0.529642     -2.221944      0.130232
  H       1.400200     -0.025375     -0.103307
  H       0.550000      0.413278      1.382373
  H      -0.765593     -0.438099     -1.231543
  H      -0.651045      1.222207     -0.623133
  H      -1.857219     -0.824899      0.863828
  O      -0.973760     -3.434403      3.567760
  C      -1.197069     -3.964396      2.565838
  O      -1.425351     -4.506302      1.571400
14
Coordinates from ORCA-job ./orca E -399.101416338789
  N       0.376365     -1.609364      0.923286
  C       0.500074     -0.213630      0.490738
  C      -0.712416      0.176718     -0.327089
  O      -1.918046      0.031197      0.424698
  H       1.107199     -1.826380      1.589086
  H       0.528403     -2.222521      0.130753
  H       1.400353     -0.025192     -0.103830
  H       0.550565      0.413430      1.382040
  H      -0.765457     -0.437768     -1.231633
  H      -0.651601      1.222423     -0.622831
  H      -1.855868     -0.825990      0.863722
  O      -0.974115     -3.433862      3.567558
  C      -1.196696     -3.964196      2.565638
  O      -1.424821     -4.505747      1.570946
14
Coordinates from ORCA-job ./orca E -399.101423380413
  N       0.375545     -1.608727      0.923260
  C       0.500217     -0.213645      0.490115
  C      -0.712573      0.177090     -0.327236
  O      -1.917661      0.030612      0.425328
  H       1.103994     -1.826183      1.591324
  H       0.526630     -2.223249      0.131795
  H       1.400284     -0.025646     -0.104999
  H       0.551500      0.413844      1.381114
  H      -0.765412     -0.437254     -1.231950
  H      -0.651871      1.222766     -0.623052
  H      -1.852629     -0.826287      0.864804
  O      -0.974944     -3.433788      3.567243
  C      -1.196038     -3.964751      2.565318
  O      -1.423103     -4.505664      1.570018
14
Coordinates from ORCA-job ./orca E -399.101424165769
  N       0.374029     -1.608095      0.923473
  C       0.500218     -0.213648      0.489292
  C      -0.712711      0.177660     -0.327695
  O      -1.917298      0.030238      0.425577
  H       1.100200     -1.825330      1.593958
  H       0.525155     -2.223809      0.133073
  H       1.400115     -0.026801     -0.106477
  H       0.552587      0.414514      1.379768
  H      -0.765496     -0.436428     -1.232633
  H      -0.651910      1.223347     -0.623441
  H      -1.848656     -0.825654      0.866761
  O      -0.975969     -3.434618      3.567185
  C      -1.195456     -3.965853      2.565051
  O      -1.420870     -4.506405      1.569189
14
Coordinates from ORCA-job ./orca E -399.101033045472
  N       0.368866     -1.619627      0.929409
  C       0.492606     -0.222966      0.493650
  C      -0.715072      0.177734     -0.326092
  O      -1.919745      0.035830      0.423072
  H       1.107048     -1.823178      1.595832
  H       0.529876     -2.227282      0.127341
  H       1.393373     -0.038128     -0.101435
  H       0.545936      0.403859      1.385013
  H      -0.768763     -0.433799     -1.232710
  H      -0.647417      1.223743     -0.619291
  H      -1.850459     -0.820376      0.858786
  O      -0.974851     -3.428455      3.566343
  C      -1.179929     -3.943983      2.553151
  O      -1.417530     -4.504253      1.570013
14
Coordinates from ORCA-job ./orca E -399.101235348201
  N       0.367277     -1.620960      0.930081
  C       0.493230     -0.223935      0.496102
  C      -0.714415      0.173557     -0.325225
  O      -1.922833      0.036826      0.423202
  H       1.104349     -1.827371      1.592360
  H       0.528108     -2.225712      0.132750
  H       1.395022     -0.039417     -0.097376
  H       0.544595      0.403419      1.387298
  H      -0.767809     -0.441176     -1.229880
  H      -0.643822      1.218101     -0.622926
  H      -1.860217     -0.818336      0.866124
  O      -0.963624     -3.419688      3.558048
  C      -1.185355     -3.943793      2.552340
  O      -1.410566     -4.492395      1.560182
14
Coordinates from ORCA-job ./orca E -399.101231260599
  N       0.368051     -1.620881      0.929934
  C       0.494277     -0.223540      0.497140
  C      -0.714149      0.171030     -0.324365
  O      -1.923683      0.035404      0.424159
  H       1.104230     -1.830598      1.591700
  H       0.527753     -2.226650      0.134311
  H       1.396118     -0.038484     -0.095926
  H       0.544616      0.404036      1.388171
  H      -0.767732     -0.445163     -1.227887
  H      -0.644140      1.215175     -0.623680
  H      -1.864856     -0.819100      0.869524
  O      -0.964903     -3.411612      3.552903
  C      -1.178218     -3.948062      2.552037
  O      -1.413424     -4.482437      1.555060
14
Coordinates from ORCA-job ./orca E -399.101264820627
  N       0.368174     -1.620194      0.929665
  C       0.494723     -0.223022      0.496949
  C      -0.713922      0.171235     -0.324338
  O      -1.923038      0.034257      0.424226
  H       1.103990     -1.831413      1.592182
  H       0.526718     -2.227476      0.133801
  H       1.396578     -0.037839     -0.096032
  H       0.545020      0.404439      1.388003
  H      -0.767504     -0.444506     -1.228057
  H      -0.645183      1.215735     -0.622737
  H      -1.864466     -0.820577      0.868309
  O      -0.962194     -3.413526      3.553627
  C      -1.183864     -3.943760      2.551441
  O      -1.411093     -4.484235      1.556042
14
Coordinates from ORCA-job ./orca E -399.101276293883
  N       0.368744     -1.619457      0.929274
  C       0.495296     -0.222597      0.496705
  C      -0.713783      0.171259     -0.324182
  O      -1.922364      0.032932      0.424675
  H       1.103445     -1.832433      1.592409
  H       0.525758     -2.228054      0.134062
  H       1.397063     -0.037019     -0.096318
  H       0.545582      0.404662      1.387876
  H      -0.767386     -0.444153     -1.228084
  H      -0.646438      1.216061     -0.621822
  H      -1.864005     -0.822558      0.867382
  O      -0.962374     -3.413222      3.553785
  C      -1.184214     -3.942382      2.551086
  O      -1.411385     -4.483920      1.556232
14
Coordinates from ORCA-job ./orca E -399.101291232089
  N       0.370013     -1.617603      0.928323
  C       0.496755     -0.221692      0.496142
  C      -0.713522      0.171137     -0.323657
  O      -1.920864      0.029579      0.426146
  H       1.101286     -1.835273      1.593549
  H       0.522722     -2.229820      0.135084
  H       1.398284     -0.035091     -0.097051
  H       0.547080      0.405183      1.387563
  H      -0.766995     -0.443651     -1.227942
  H      -0.649406      1.216534     -0.619831
  H      -1.862688     -0.827579      0.865603
  O      -0.962801     -3.411163      3.553323
  C      -1.184245     -3.939637      2.550166
  O      -1.411680     -4.481806      1.555664
14
Coordinates from ORCA-job ./orca E -399.101283599675
  N       0.369988     -1.617116      0.928157
  C       0.497035     -0.221601      0.495852
  C      -0.713561      0.171263     -0.323566
  O      -1.920530      0.028832      0.426673
  H       1.099839     -1.835696      1.594519
  H       0.521515     -2.230389      0.135618
  H       1.398436     -0.034909     -0.097578
  H       0.547652      0.405347      1.387230
  H      -0.766874     -0.443346     -1.228009
  H      -0.649949      1.216733     -0.619543
  H      -1.861391     -0.828648      0.865510
  O      -0.963151     -3.410565      3.553053
  C      -1.183892     -3.939447      2.549939
  O      -1.411178     -4.481339      1.555227
14
Coordinates from ORCA-job ./orca E -399.101290670598
  N       0.369209     -1.616474      0.928164
  C       0.497187     -0.221607      0.495246
  C      -0.713721      0.171626     -0.323695
  O      -1.920158      0.028259      0.427318
  H       1.096726     -1.835472      1.596740
  H       0.519762     -2.231108      0.136686
  H       1.398370     -0.035352     -0.098742
  H       0.548598      0.405778      1.386315
  H      -0.766841     -0.442849     -1.228304
  H      -0.650220      1.217065     -0.619757
  H      -1.858235     -0.828967      0.866565
  O      -0.963931     -3.410388      3.552625
  C      -1.183262     -3.940005      2.549578
  O      -1.409545     -4.481387      1.554342
14
Coordinates from ORCA-job ./orca E -399.101291569778
  N       0.367740     -1.615831      0.928408
  C       0.497197     -0.221596      0.494447
  C      -0.713857      0.172177     -0.324128
  O      -1.919802      0.027877      0.427585
  H       1.093038     -1.834592      1.599338
  H       0.518302     -2.231654      0.137986
  H       1.398199     -0.036476     -0.100205
  H       0.549682      0.406464      1.384990
  H      -0.766921     -0.442054     -1.228950
  H      -0.650269      1.217624     -0.620132
  H      -1.854340     -0.828381      0.868492
  O      -0.964886     -3.411090      3.552432
  C      -1.182713     -3.941098      2.549263
  O      -1.407431     -4.482252      1.553557
14
Coordinates from ORCA-job ./orca E -399.100885017393
  N       0.362578     -1.627332      0.934332
  C       0.489584     -0.230887      0.498789
  C      -0.716221      0.172241     -0.322517
  O      -1.922237      0.033444      0.425091
  H       1.099932     -1.832473      1.601239
  H       0.523006     -2.235179      0.132233
  H       1.391438     -0.047765     -0.095194
  H       0.543029      0.395837      1.390218
  H      -0.770186     -0.439439     -1.229018
  H      -0.645799      1.217995     -0.615968
  H      -1.856136     -0.823128      0.860536
  O      -0.963763     -3.404914      3.551560
  C      -1.167169     -3.919198      2.537362
  O      -1.404117     -4.480084      1.554422
14
Coordinates from ORCA-job ./orca E -399.101086509684
  N       0.361083     -1.628611      0.934993
  C       0.490251     -0.231814      0.501227
  C      -0.715579      0.168026     -0.321632
  O      -1.925281      0.034381      0.425297
  H       1.097273     -1.836617      1.597747
  H       0.521316     -2.233531      0.137673
  H       1.393104     -0.048985     -0.091174
  H       0.541735      0.395455      1.392477
  H      -0.769273     -0.446893     -1.226141
  H      -0.642289      1.212298     -0.619623
  H      -1.865815     -0.821133      0.867930
  O      -0.952672     -3.396213      3.543297
  C      -1.172650     -3.918920      2.536438
  O      -1.397262     -4.468324      1.544572
14
Coordinates from ORCA-job ./orca E -399.101082845354
  N       0.361925     -1.628538      0.934879
  C       0.491312     -0.231428      0.502279
  C      -0.715335      0.165427     -0.320751
  O      -1.926126      0.033001      0.426338
  H       1.097198     -1.839824      1.597124
  H       0.521057     -2.234453      0.139287
  H       1.394195     -0.048041     -0.089733
  H       0.541770      0.396092      1.393344
  H      -0.769267     -0.451048     -1.224059
  H      -0.642623      1.209266     -0.620477
  H      -1.870479     -0.821811      0.871484
  O      -0.954001     -3.388040      3.538020
  C      -1.165591     -3.923185      2.536056
  O      -1.400097     -4.458299      1.539291
14
Coordinates from ORCA-job ./orca E -399.101117791110
  N       0.362065     -1.627858      0.934628
  C       0.491751     -0.230921      0.502086
  C      -0.715116      0.165623     -0.320723
  O      -1.925474      0.031887      0.426431
  H       1.096987     -1.840618      1.597638
  H       0.520050     -2.235292      0.138771
  H       1.394644     -0.047400     -0.089849
  H       0.542172      0.396495      1.393166
  H      -0.769068     -0.450429     -1.224206
  H      -0.643671      1.209811     -0.619568
  H      -1.870076     -0.823243      0.870301
  O      -0.951322     -3.389937      3.538710
  C      -1.171247     -3.918894      2.535437
  O      -1.397756     -4.460105      1.540258
14
Coordinates from ORCA-job ./orca E -399.101128611580
  N       0.362668     -1.627126      0.934263
  C       0.492324     -0.230504      0.501834
  C      -0.714989      0.165628     -0.320561
  O      -1.924797      0.030608      0.426926
  H       1.096487     -1.841583      1.597892
  H       0.519154     -2.235861      0.139054
  H       1.395115     -0.046589     -0.090167
  H       0.542747      0.396731      1.393017
  H      -0.768994     -0.450141     -1.224194
  H      -0.644922      1.210103     -0.618706
  H      -1.869616     -0.825166      0.869443
  O      -0.951574     -3.389624      3.538822
  C      -1.171605     -3.917538      2.535044
  O      -1.398058     -4.459819      1.540414
14
Coordinates from ORCA-job ./orca E -399.101143918216
  N       0.364064     -1.625256      0.933386
  C       0.493811     -0.229602      0.501251
  C      -0.714763      0.165427     -0.320006
  O      -1.923286      0.027314      0.428547
  H       1.094467     -1.844297      1.599104
  H       0.516280     -2.237618      0.140170
  H       1.396324     -0.044657     -0.090989
  H       0.544304      0.397310      1.392641
  H      -0.768725     -0.449843     -1.223933
  H      -0.647925      1.210463     -0.616836
  H      -1.868328     -0.830102      0.867856
  O      -0.952153     -3.387504      3.538197
  C      -1.171726     -3.914783      2.533979
  O      -1.398403     -4.457735      1.539716
14
Coordinates from ORCA-job ./orca E -399.101138424804
  N       0.364087     -1.624763      0.933259
  C       0.494098     -0.229506      0.500961
  C      -0.714816      0.165516     -0.319901
  O      -1.922959      0.026601      0.429125
  H       1.093114     -1.844654      1.600087
  H       0.515149     -2.238172      0.140740
  H       1.396465     -0.044478     -0.091542
  H       0.544892      0.397508      1.392286
  H      -0.768652     -0.449631     -1.223946
  H      -0.648468      1.210607     -0.616607
  H      -1.867072     -0.831130      0.867845
  O      -0.952544     -3.386898      3.537860
  C      -1.171419     -3.914593      2.533690
  O      -1.397935     -4.457287      1.539224
14
Coordinates from ORCA-job ./orca E -399.100701407998
  N       0.358922     -1.636215      0.939166
  C       0.486492     -0.238771      0.505281
  C      -0.717186      0.165558     -0.318273
  O      -1.925378      0.032124      0.426647
  H       1.100077     -1.842574      1.602030
  H       0.519818     -2.241741      0.134944
  H       1.389697     -0.055730     -0.086567
  H       0.538236      0.386914      1.397486
  H      -0.771928     -0.447034     -1.224002
  H      -0.644027      1.210944     -0.612412
  H      -1.868886     -0.825915      0.859913
  O      -0.951417     -3.380693      3.536951
  C      -1.155828     -3.892667      2.521779
  O      -1.394653     -4.455082      1.540138
14
Coordinates from ORCA-job ./orca E -399.100911489034
  N       0.357767     -1.637636      0.939786
  C       0.487084     -0.239886      0.507787
  C      -0.716753      0.161265     -0.317179
  O      -1.928537      0.033367      0.427358
  H       1.097227     -1.846570      1.598804
  H       0.517965     -2.240138      0.140456
  H       1.391124     -0.056724     -0.082668
  H       0.536946      0.386385      1.399822
  H      -0.771101     -0.454863     -1.220777
  H      -0.640288      1.204928     -0.616502
  H      -1.878197     -0.823883      0.867293
  O      -0.941052     -3.371256      3.528329
  C      -1.160271     -3.893021      2.520769
  O      -1.387975     -4.442851      1.529803
14
Coordinates from ORCA-job ./orca E -399.100922396204
  N       0.358827     -1.637516      0.939601
  C       0.488101     -0.239565      0.508726
  C      -0.716645      0.158896     -0.316206
  O      -1.929211      0.032150      0.428769
  H       1.097013     -1.849492      1.598811
  H       0.517369     -2.241331      0.141718
  H       1.392003     -0.055543     -0.081564
  H       0.537151      0.386969      1.400567
  H      -0.771208     -0.458803     -1.218605
  H      -0.640652      1.202066     -0.617428
  H      -1.882029     -0.824712      0.870267
  O      -0.941977     -3.363948      3.523399
  C      -1.155150     -3.895966      2.520102
  O      -1.389653     -4.434086      1.524923
14
Coordinates from ORCA-job ./orca E -399.100945989220
  N       0.359268     -1.636823      0.939301
  C       0.488834     -0.239046      0.508794
  C      -0.716415      0.158396     -0.315868
  O      -1.928768      0.030803      0.429384
  H       1.096538     -1.851054      1.599368
  H       0.516063     -2.242424      0.141744
  H       1.392678     -0.054593     -0.081422
  H       0.537668      0.387472      1.400592
  H      -0.771075     -0.459407     -1.218069
  H      -0.641684      1.201723     -0.616901
  H      -1.882692     -0.826368      0.869989
  O      -0.939121     -3.363921      3.522614
  C      -1.160212     -3.892021      2.519162
  O      -1.387142     -4.433619      1.524394
14
Coordinates from ORCA-job ./orca E -399.100961715999
  N       0.360071     -1.635998      0.938877
  C       0.489431     -0.238648      0.508355
  C      -0.716359      0.158580     -0.315686
  O      -1.927900      0.029498      0.430107
  H       1.095934     -1.851740      1.599887
  H       0.515201     -2.243027      0.142046
  H       1.393044     -0.053704     -0.082133
  H       0.538479      0.387673      1.400263
  H      -0.771158     -0.458845     -1.218116
  H      -0.643111      1.202238     -0.615901
  H      -1.881651     -0.828542      0.868848
  O      -0.940113     -3.363855      3.523040
  C      -1.160372     -3.890589      2.518681
  O      -1.387556     -4.433922      1.524813
14
Coordinates from ORCA-job ./orca E -399.100977587602
  N       0.361839     -1.634075      0.937979
  C       0.491003     -0.237836      0.507559
  C      -0.716300      0.158385     -0.314970
  O      -1.926257      0.026282      0.432348
  H       1.093755     -1.854002      1.601714
  H       0.512531     -2.244941      0.143338
  H       1.394050     -0.051703     -0.083614
  H       0.540499      0.388267      1.399589
  H      -0.771292     -0.458648     -1.217627
  H      -0.646212      1.202544     -0.614094
  H      -1.879845     -0.833624      0.867404
  O      -0.941829     -3.361555      3.522293
  C      -1.160395     -3.887807      2.517283
  O      -1.387606     -4.432169      1.523880
14
Coordinates from ORCA-job ./orca E -399.100969282339
  N       0.361958     -1.633483      0.937877
  C       0.491386     -0.237723      0.507173
  C      -0.716404      0.158404     -0.314801
  O      -1.925871      0.025435      0.433197
  H       1.092244     -1.854309      1.602991
  H       0.511437     -2.245644      0.144113
  H       1.394193     -0.051545     -0.084426
  H       0.541323      0.388563      1.399074
  H      -0.771362     -0.458557     -1.217537
  H      -0.646914      1.202610     -0.613856
  H      -1.878418     -0.834788      0.867667
  O      -0.942568     -3.360712      3.521730
  C      -1.160159     -3.887560      2.516801
  O      -1.386906     -4.431573      1.523079
14
Coordinates from ORCA-job ./orca E -399.100972616445
  N       0.361309     -1.632733      0.938063
  C       0.491639     -0.237670      0.506461
  C      -0.716631      0.158634     -0.314872
  O      -1.925477      0.024685      0.434081
  H       1.089375     -1.853832      1.605364
  H       0.510051     -2.246406      0.145488
  H       1.394124     -0.052134     -0.085899
  H       0.542530      0.389210      1.397928
  H      -0.771532     -0.458245     -1.217721
  H      -0.647422      1.202816     -0.614035
  H      -1.875237     -0.835203      0.869179
  O      -0.943738     -3.360434      3.521036
  C      -1.159828     -3.888045      2.516168
  O      -1.385223     -4.431524      1.521839
14
Coordinates from ORCA-job ./orca E -399.100974784495
  N       0.359517     -1.631607      0.938654
  C       0.491805     -0.237551      0.505185
  C      -0.716946      0.159198     -0.315386
  O      -1.924892      0.023770      0.434874
  H       1.084577     -1.852279      1.609196
  H       0.508373     -2.247232      0.147785
  H       1.393898     -0.053800     -0.088365
  H       0.544377      0.390481      1.395766
  H      -0.771882     -0.457429     -1.218467
  H      -0.647963      1.203394     -0.614534
  H      -1.869468     -0.834704      0.872522
  O      -0.945674     -3.361241      3.520371
  C      -1.159438     -3.889412      2.515296
  O      -1.382347     -4.432470      1.520186
14
Coordinates from ORCA-job ./orca E -399.100961088889
  N       0.355522     -1.629516      0.940003
  C       0.491962     -0.237187      0.502731
  C      -0.717374      0.160349     -0.316779
  O      -1.923774      0.022037      0.435534
  H       1.075800     -1.848912      1.615913
  H       0.505945     -2.248325      0.152101
  H       1.393555     -0.057527     -0.092789
  H       0.547610      0.393076      1.391541
  H      -0.772532     -0.455590     -1.220378
  H      -0.648975      1.204740     -0.615400
  H      -1.858530     -0.832799      0.879522
  O      -0.949137     -3.363937      3.519660
  C      -1.158874     -3.892320      2.513859
  O      -1.377258     -4.434969      1.517562
14
Coordinates from ORCA-job ./orca E -399.100972175221
  N       0.351999     -1.627969      0.941268
  C       0.491968     -0.236752      0.500994
  C      -0.717440      0.161294     -0.318192
  O      -1.923009      0.020628      0.434986
  H       1.069847     -1.846311      1.620112
  H       0.504543     -2.248634      0.155223
  H       1.393499     -0.060764     -0.095570
  H       0.549625      0.395145      1.388472
  H      -0.772745     -0.453801     -1.222352
  H      -0.649705      1.206049     -0.615758
  H      -1.850977     -0.830855      0.884680
  O      -0.950807     -3.367068      3.519789
  C      -1.158486     -3.894729      2.513190
  O      -1.374371     -4.437114      1.516240
14
Coordinates from ORCA-job ./orca E -399.100969754478
  N       0.346662     -1.625635      0.943326
  C       0.491994     -0.235915      0.498657
  C      -0.717240      0.162671     -0.320517
  O      -1.921907      0.018412      0.433255
  H       1.062144     -1.842967      1.625142
  H       0.502674     -2.248703      0.159693
  H       1.393822     -0.065639     -0.098818
  H       0.552103      0.398210      1.384289
  H      -0.772724     -0.450905     -1.225640
  H      -0.650925      1.208189     -0.615856
  H      -1.841427     -0.827975      0.891393
  O      -0.951972     -3.372429      3.520600
  C      -1.157804     -3.898197      2.512641
  O      -1.371462     -4.439998      1.514915
14
Coordinates from ORCA-job ./orca E -399.100964318507
  N       0.346342     -1.625501      0.943650
  C       0.491985     -0.235765      0.498810
  C      -0.716983      0.162750     -0.320771
  O      -1.921970      0.018562      0.432446
  H       1.062698     -1.843268      1.624477
  H       0.502441     -2.248400      0.159827
  H       1.394140     -0.065897     -0.098226
  H       0.551788      0.398364      1.384449
  H      -0.772397     -0.450664     -1.225966
  H      -0.650824      1.208386     -0.615715
  H      -1.842665     -0.827872      0.890630
  O      -0.950651     -3.373339      3.521138
  C      -1.157537     -3.898409      2.513027
  O      -1.372427     -4.439829      1.515305
14
Coordinates from ORCA-job ./orca E -399.100966824413
  N       0.345893     -1.625178      0.944147
  C       0.491966     -0.235561      0.499035
  C      -0.716659      0.162846     -0.321076
  O      -1.921994      0.018993      0.431601
  H       1.063005     -1.843700      1.623993
  H       0.501471     -2.248166      0.160224
  H       1.394512     -0.066109     -0.097497
  H       0.551401      0.398699      1.384613
  H      -0.771893     -0.450639     -1.226214
  H      -0.650537      1.208501     -0.615947
  H      -1.844043     -0.827653      0.889551
  O      -0.948652     -3.374666      3.521688
  C      -1.156979     -3.898834      2.513405
  O      -1.373549     -4.439415      1.515558
14
Coordinates from ORCA-job ./orca E -399.100969343767
  N       0.345059     -1.624634      0.944941
  C       0.491877     -0.235312      0.499267
  C      -0.716278      0.163028     -0.321547
  O      -1.921983      0.019902      0.430634
  H       1.062714     -1.843958      1.623993
  H       0.499673     -2.247988      0.161074
  H       1.394865     -0.066503     -0.096765
  H       0.551021      0.399317      1.384614
  H      -0.771278     -0.450821     -1.226447
  H      -0.649904      1.208558     -0.616781
  H      -1.845203     -0.826889      0.888480
  O      -0.945967     -3.376801      3.522285
  C      -1.156070     -3.899756      2.513741
  O      -1.374587     -4.439023      1.515594
14
Coordinates from ORCA-job ./orca E -399.100529830915
  N       0.339872     -1.636125      0.950870
  C       0.484219     -0.244538      0.503590
  C      -0.718640      0.163106     -0.320003
  O      -1.924384      0.025535      0.428149
  H       1.069634     -1.841880      1.625968
  H       0.504394     -2.251542      0.155368
  H       1.388027     -0.077773     -0.091779
  H       0.544376      0.388767      1.389819
  H      -0.774508     -0.448245     -1.226544
  H      -0.645444      1.208898     -0.612773
  H      -1.846921     -0.821607      0.880674
  O      -0.944819     -3.370761      3.521363
  C      -1.140577     -3.877825      2.501891
  O      -1.371291     -4.436891      1.516488
14
Coordinates from ORCA-job ./orca E -399.100733049032
  N       0.339196     -1.637486      0.951370
  C       0.484962     -0.245535      0.506216
  C      -0.718145      0.158561     -0.318756
  O      -1.927485      0.026989      0.429109
  H       1.067669     -1.846077      1.622435
  H       0.502652     -2.249958      0.160470
  H       1.389603     -0.078184     -0.087671
  H       0.542954      0.388261      1.392360
  H      -0.773803     -0.456699     -1.222898
  H      -0.641726      1.202539     -0.617087
  H      -1.857151     -0.819588      0.887868
  O      -0.934212     -3.361499      3.512821
  C      -1.145626     -3.877541      2.500587
  O      -1.364949     -4.424665      1.506256
14
Coordinates from ORCA-job ./orca E -399.100739222161
  N       0.340842     -1.637518      0.951177
  C       0.486063     -0.245236      0.507484
  C      -0.718000      0.155701     -0.317556
  O      -1.928286      0.026213      0.430785
  H       1.068357     -1.849399      1.621831
  H       0.502245     -2.251082      0.161758
  H       1.390582     -0.076450     -0.086102
  H       0.542837      0.388737      1.393532
  H      -0.774049     -0.461782     -1.220048
  H      -0.641884      1.198958     -0.618541
  H      -1.862446     -0.820263      0.890905
  O      -0.935234     -3.353242      3.507302
  C      -1.139554     -3.880902      2.499812
  O      -1.367534     -4.414619      1.500744
14
Coordinates from ORCA-job ./orca E -399.100766705707
  N       0.341429     -1.636910      0.950882
  C       0.486645     -0.244755      0.507559
  C      -0.717761      0.155458     -0.317280
  O      -1.927737      0.025248      0.431224
  H       1.068498     -1.850697      1.622117
  H       0.501046     -2.252084      0.161380
  H       1.391135     -0.075359     -0.085894
  H       0.543137      0.389075      1.393668
  H      -0.773935     -0.462090     -1.219601
  H      -0.642834      1.198892     -0.617978
  H      -1.863124     -0.821832      0.889808
  O      -0.932264     -3.354069      3.507205
  C      -1.145042     -3.876623      2.499010
  O      -1.365252     -4.415135      1.500981
14
Coordinates from ORCA-job ./orca E -399.100781137416
  N       0.342577     -1.636225      0.950467
  C       0.487241     -0.244382      0.507378
  C      -0.717672      0.155429     -0.316974
  O      -1.927002      0.024271      0.431965
  H       1.068603     -1.851665      1.622200
  H       0.500161     -2.252703      0.161535
  H       1.391538     -0.074140     -0.086206
  H       0.543676      0.389164      1.393678
  H      -0.774011     -0.462050     -1.219305
  H      -0.644073      1.199076     -0.617216
  H      -1.863111     -0.823953      0.888354
  O      -0.932760     -3.353738      3.507409
  C      -1.145380     -3.875002      2.498521
  O      -1.365847     -4.414962      1.501275
14
Coordinates from ORCA-job ./orca E -399.100792807785
  N       0.345313     -1.634779      0.949599
  C       0.488683     -0.243700      0.507239
  C      -0.717557      0.154825     -0.315977
  O      -1.925731      0.022196      0.434150
  H       1.068649     -1.854351      1.622686
  H       0.497703     -2.254466      0.162239
  H       1.392510     -0.071319     -0.086663
  H       0.544877      0.389339      1.393921
  H      -0.774162     -0.463014     -1.218018
  H      -0.646535      1.198667     -0.616035
  H      -1.863999     -0.828672      0.885775
  O      -0.933503     -3.351163      3.506513
  C      -1.145581     -3.871902      2.497221
  O      -1.366727     -4.412542      1.500431
14
Coordinates from ORCA-job ./orca E -399.100783020407
  N       0.345739     -1.634522      0.949543
  C       0.488905     -0.243692      0.507159
  C      -0.717635      0.154734     -0.315738
  O      -1.925596      0.021986      0.434771
  H       1.068294     -1.854623      1.623192
  H       0.496969     -2.254899      0.162608
  H       1.392556     -0.070980     -0.086981
  H       0.545246      0.389393      1.393825
  H      -0.774222     -0.463244     -1.217712
  H      -0.646780      1.198511     -0.616024
  H      -1.863843     -0.829411      0.885485
  O      -0.933832     -3.350478      3.506112
  C      -1.145358     -3.871678      2.496920
  O      -1.366503     -4.411979      1.499921
14
Coordinates from ORCA-job ./orca E -399.100283509727
  N       0.340550     -1.645940      0.955446
  C       0.481264     -0.252892      0.511453
  C      -0.720008      0.154777     -0.314168
  O      -1.927969      0.027551      0.432322
  H       1.075299     -1.852594      1.625227
  H       0.501639     -2.258496      0.156847
  H       1.385733     -0.082206     -0.082035
  H       0.538604      0.378886      1.398989
  H      -0.777500     -0.460700     -1.217798
  H      -0.642356      1.198807     -0.611973
  H      -1.865602     -0.824172      0.877709
  O      -0.932684     -3.344396      3.505145
  C      -1.129779     -3.849715      2.485060
  O      -1.363253     -4.409792      1.500858
14
Coordinates from ORCA-job ./orca E -399.100491596888
  N       0.339619     -1.647205      0.956007
  C       0.482001     -0.253879      0.513949
  C      -0.719530      0.150394     -0.312985
  O      -1.931017      0.028647      0.433143
  H       1.072790     -1.856621      1.621731
  H       0.499833     -2.256825      0.162207
  H       1.387293     -0.082963     -0.078157
  H       0.537392      0.378462      1.401336
  H      -0.776685     -0.468655     -1.214430
  H      -0.638776      1.192689     -0.615946
  H      -1.875189     -0.822366      0.884945
  O      -0.922510     -3.335102      3.496756
  C      -1.134337     -3.849774      2.483865
  O      -1.356945     -4.397685      1.490658
14
Coordinates from ORCA-job ./orca E -399.100500844413
  N       0.340827     -1.647108      0.955907
  C       0.483070     -0.253570      0.515016
  C      -0.719385      0.147829     -0.311930
  O      -1.931710      0.027556      0.434608
  H       1.072904     -1.859739      1.621504
  H       0.499174     -2.258007      0.163567
  H       1.388247     -0.081671     -0.076887
  H       0.537524      0.379045      1.402214
  H      -0.776819     -0.473012     -1.212006
  H      -0.639092      1.189556     -0.617026
  H      -1.879604     -0.823123      0.887938
  O      -0.923326     -3.327442      3.491583
  C      -1.129115     -3.852785      2.483148
  O      -1.358754     -4.388409      1.485445
14
Coordinates from ORCA-job ./orca E -399.100525202266
  N       0.341294     -1.646440      0.955667
  C       0.483771     -0.253076      0.515125
  C      -0.719129      0.147370     -0.311604
  O      -1.931237      0.026359      0.435147
  H       1.072678     -1.861316      1.621935
  H       0.497745     -2.259105      0.163535
  H       1.388916     -0.080692     -0.076666
  H       0.537964      0.379501      1.402302
  H      -0.776673     -0.473604     -1.211457
  H      -0.640083      1.189257     -0.616514
  H      -1.880444     -0.824735      0.887371
  O      -0.920314     -3.327567      3.490918
  C      -1.134306     -3.848780      2.482268
  O      -1.356243     -4.388055      1.485055
14
Coordinates from ORCA-job ./orca E -399.100540224294
  N       0.342126     -1.645661      0.955322
  C       0.484325     -0.252705      0.514753
  C      -0.719052      0.147571     -0.311434
  O      -1.930414      0.025282      0.435785
  H       1.072331     -1.861985      1.622289
  H       0.496764     -2.259657      0.163827
  H       1.389263     -0.079797     -0.077276
  H       0.538685      0.379676      1.402047
  H      -0.776723     -0.473100     -1.211472
  H      -0.641365      1.189761     -0.615623
  H      -1.879687     -0.826781      0.886028
  O      -0.921224     -3.327633      3.491416
  C      -1.134348     -3.847457      2.481861
  O      -1.356741     -4.388396      1.485557
14
Coordinates from ORCA-job ./orca E -399.100553376719
  N       0.344023     -1.643855      0.954645
  C       0.485803     -0.251942      0.514199
  C      -0.718916      0.147339     -0.310715
  O      -1.928923      0.022736      0.437811
  H       1.070981     -1.864267      1.623566
  H       0.493747     -2.261425      0.165082
  H       1.390249     -0.077735     -0.078397
  H       0.540443      0.380226      1.401629
  H      -0.776778     -0.473228     -1.210791
  H      -0.644024      1.189915     -0.614173
  H      -1.878940     -0.831457      0.884043
  O      -0.922558     -3.325664      3.490818
  C      -1.134210     -3.844869      2.480611
  O      -1.356957     -4.386654      1.484753
14
Coordinates from ORCA-job ./orca E -399.100544631793
  N       0.344243     -1.643299      0.954628
  C       0.486170     -0.251834      0.513951
  C      -0.718972      0.147313     -0.310515
  O      -1.928614      0.022177      0.438572
  H       1.069888     -1.864660      1.624558
  H       0.492421     -2.262089      0.165838
  H       1.390408     -0.077506     -0.079005
  H       0.541157      0.380506      1.401260
  H      -0.776807     -0.473309     -1.210578
  H      -0.644524      1.189881     -0.614064
  H      -1.878158     -0.832498      0.883959
  O      -0.923033     -3.324931      3.490310
  C      -1.133937     -3.844635      2.480180
  O      -1.356303     -4.385997      1.483988
14
Coordinates from ORCA-job ./orca E -399.100544789552
  N       0.343801     -1.642690      0.954913
  C       0.486362     -0.251807      0.513503
  C      -0.719114      0.147468     -0.310534
  O      -1.928374      0.021955      0.439246
  H       1.067894     -1.864327      1.626298
  H       0.490867     -2.262732      0.167040
  H       1.390347     -0.077950     -0.080042
  H       0.542081      0.381038      1.400438
  H      -0.776931     -0.473248     -1.210575
  H      -0.644662      1.189934     -0.614398
  H      -1.876251     -0.832643      0.884792
  O      -0.923737     -3.324849      3.489773
  C      -1.133553     -3.845118      2.479690
  O      -1.354793     -4.385912      1.482936
14
Coordinates from ORCA-job ./orca E -399.100546841000
  N       0.342461     -1.641805      0.955601
  C       0.486455     -0.251749      0.512665
  C      -0.719299      0.147905     -0.310907
  O      -1.928025      0.021852      0.439768
  H       1.064578     -1.863106      1.629087
  H       0.488952     -2.263412      0.169000
  H       1.390130     -0.079289     -0.081795
  H       0.543483      0.382053      1.398853
  H      -0.777215     -0.472818     -1.210980
  H      -0.644659      1.190271     -0.615051
  H      -1.872679     -0.831891      0.886843
  O      -0.924955     -3.325805      3.489340
  C      -1.133037     -3.846390      2.479057
  O      -1.352250     -4.386698      1.481600
14
Coordinates from ORCA-job ./orca E -399.100011317237
  N       0.337272     -1.653172      0.961487
  C       0.478819     -0.260916      0.516938
  C      -0.721678      0.147928     -0.309334
  O      -1.930376      0.027381      0.437348
  H       1.071641     -1.861126      1.631173
  H       0.493593     -2.267042      0.163220
  H       1.383304     -0.090476     -0.076878
  H       0.536849      0.371590      1.403989
  H      -0.780520     -0.470308     -1.211062
  H      -0.640262      1.190530     -0.611009
  H      -1.874449     -0.826672      0.879113
  O      -0.923799     -3.319725      3.488331
  C      -1.117413     -3.824389      2.467206
  O      -1.349041     -4.384485      1.482560
14
Coordinates from ORCA-job ./orca E -399.100205007883
  N       0.335667     -1.654176      0.962145
  C       0.479543     -0.261675      0.519306
  C      -0.720952      0.143838     -0.308504
  O      -1.933174      0.028227      0.437471
  H       1.068695     -1.865012      1.627408
  H       0.491615     -2.265142      0.168681
  H       1.385050     -0.091615     -0.072945
  H       0.535671      0.371413      1.406148
  H      -0.779488     -0.477600     -1.208240
  H      -0.636799      1.184929     -0.614612
  H      -1.883725     -0.824729      0.886256
  O      -0.913151     -3.311669      3.480696
  C      -1.122240     -3.824381      2.466206
  O      -1.342771     -4.373288      1.473065
14
Coordinates from ORCA-job ./orca E -399.100210430876
  N       0.336060     -1.654018      0.962266
  C       0.480517     -0.261306      0.520390
  C      -0.720601      0.141390     -0.307789
  O      -1.933920      0.027213      0.438214
  H       1.068275     -1.868150      1.626911
  H       0.490710     -2.266041      0.170426
  H       1.386172     -0.090921     -0.071397
  H       0.535672      0.372145      1.406971
  H      -0.779367     -0.481692     -1.206243
  H      -0.636888      1.182005     -0.615712
  H      -1.888273     -0.824874      0.889633
  O      -0.913676     -3.304269      3.475681
  C      -1.115815     -3.828563      2.465894
  O      -1.344926     -4.363801      1.467836
14
Coordinates from ORCA-job ./orca E -399.100238520965
  N       0.335923     -1.653342      0.962165
  C       0.480951     -0.260831      0.520323
  C      -0.720296      0.141478     -0.307818
  O      -1.933359      0.026318      0.438155
  H       1.067833     -1.869206      1.627447
  H       0.489200     -2.266938      0.170177
  H       1.386714     -0.090424     -0.071266
  H       0.535992      0.372596      1.406868
  H      -0.779078     -0.481372     -1.206316
  H      -0.637711      1.182387     -0.615087
  H      -1.888305     -0.825952      0.888655
  O      -0.910552     -3.305837      3.476004
  C      -1.120959     -3.824826      2.465373
  O      -1.342415     -4.364934      1.468403
14
Coordinates from ORCA-job ./orca E -399.100249999629
  N       0.336146     -1.652560      0.961990
  C       0.481404     -0.260447      0.520037
  C      -0.720094      0.141733     -0.307850
  O      -1.932672      0.025504      0.438346
  H       1.067056     -1.869976      1.627800
  H       0.487786     -2.267421      0.170610
  H       1.387146     -0.089889     -0.071581
  H       0.536533      0.372887      1.406625
  H      -0.778904     -0.480851     -1.206503
  H      -0.638642      1.182917     -0.614457
  H      -1.887735     -0.827372      0.887570
  O      -0.910641     -3.306237      3.476475
  C      -1.120858     -3.823972      2.465183
  O      -1.342586     -4.365197      1.468837
14
Coordinates from ORCA-job ./orca E -399.099676035741
  N       0.330937     -1.663879      0.967860
  C       0.473768     -0.269593      0.524282
  C      -0.722471      0.141730     -0.306261
  O      -1.934973      0.031009      0.435947
  H       1.074166     -1.867997      1.629932
  H       0.492353     -2.271061      0.164765
  H       1.380308     -0.101057     -0.066697
  H       0.529894      0.362455      1.411728
  H      -0.782215     -0.478366     -1.206576
  H      -0.634254      1.183117     -0.610380
  H      -1.889491     -0.822186      0.879886
  O      -0.909473     -3.300148      3.475436
  C      -1.105210     -3.801950      2.453315
  O      -1.339398     -4.362956      1.469844
14
Coordinates from ORCA-job ./orca E -399.099880952318
  N       0.330379     -1.664708      0.968154
  C       0.474825     -0.270291      0.526632
  C      -0.721854      0.137609     -0.305055
  O      -1.937583      0.031479      0.436761
  H       1.071185     -1.872647      1.626182
  H       0.489809     -2.269608      0.170359
  H       1.382195     -0.101292     -0.062906
  H       0.528979      0.362129      1.414064
  H      -0.781177     -0.485709     -1.203401
  H      -0.631342      1.177453     -0.613664
  H      -1.898891     -0.821552      0.885853
  O      -0.899871     -3.290918      3.467696
  C      -1.108652     -3.801834      2.452177
  O      -1.334064     -4.350991      1.460231
14
Coordinates from ORCA-job ./orca E -399.099911026581
  N       0.331569     -1.664242      0.967881
  C       0.476155     -0.269842      0.527712
  C      -0.721510      0.135202     -0.303978
  O      -1.938010      0.030100      0.438171
  H       1.070578     -1.876750      1.626085
  H       0.487767     -2.271258      0.171907
  H       1.383539     -0.099685     -0.061414
  H       0.529266      0.362697      1.415073
  H      -0.780993     -0.489736     -1.201059
  H      -0.631944      1.174611     -0.614358
  H      -1.903670     -0.823128      0.887681
  O      -0.899131     -3.283489      3.462745
  C      -1.104802     -3.803495      2.451416
  O      -1.334872     -4.341869      1.455220
14
Coordinates from ORCA-job ./orca E -399.099932506685
  N       0.332371     -1.663018      0.967419
  C       0.477577     -0.269070      0.528217
  C      -0.720935      0.133969     -0.303243
  O      -1.937434      0.028234      0.439264
  H       1.069327     -1.880637      1.626706
  H       0.484194     -2.273321      0.172694
  H       1.385030     -0.097863     -0.060503
  H       0.529985      0.363386      1.415597
  H      -0.780523     -0.491654     -1.199663
  H      -0.633314      1.173462     -0.613920
  H      -1.906539     -0.825956      0.886901
  O      -0.894360     -3.281216      3.460344
  C      -1.109884     -3.798864      2.450155
  O      -1.331555     -4.338332      1.453114
14
Coordinates from ORCA-job ./orca E -399.099941397855
  N       0.333050     -1.661998      0.967002
  C       0.478138     -0.268671      0.527629
  C      -0.720798      0.134639     -0.303188
  O      -1.936333      0.027275      0.439850
  H       1.068366     -1.881300      1.627469
  H       0.482490     -2.274055      0.172997
  H       1.385362     -0.096963     -0.061420
  H       0.530923      0.363542      1.415158
  H      -0.780497     -0.490414     -1.199991
  H      -0.634641      1.174558     -0.612793
  H      -1.905222     -0.828279      0.884598
  O      -0.895859     -3.281787      3.461490
  C      -1.108675     -3.798023      2.449993
  O      -1.332364     -4.339407      1.454287
14
Coordinates from ORCA-job ./orca E -399.099978118147
  N       0.334062     -1.659655      0.966257
  C       0.479598     -0.267888      0.526735
  C      -0.720427      0.135411     -0.302799
  O      -1.934425      0.025381      0.441541
  H       1.064889     -1.883828      1.629774
  H       0.477180     -2.276225      0.174614
  H       1.386425     -0.095201     -0.062933
  H       0.533098      0.364118      1.414402
  H      -0.780201     -0.489131     -1.199974
  H      -0.636885      1.175854     -0.611213
  H      -1.903714     -0.833025      0.880735
  O      -0.897076     -3.281109      3.462063
  C      -1.106566     -3.796377      2.449311
  O      -1.332020     -4.339207      1.454568
14
Coordinates from ORCA-job ./orca E -399.099964378812
  N       0.333544     -1.658850      0.966304
  C       0.479922     -0.267764      0.526329
  C      -0.720342      0.135876     -0.302836
  O      -1.933991      0.025300      0.442000
  H       1.062402     -1.884285      1.631395
  H       0.474659     -2.277078      0.175739
  H       1.386622     -0.095373     -0.063724
  H       0.534051      0.364525      1.413784
  H      -0.780071     -0.488567     -1.200113
  H      -0.636991      1.176332     -0.611195
  H      -1.902605     -0.833730      0.880082
  O      -0.897051     -3.281211      3.462021
  C      -1.105751     -3.796627      2.449134
  O      -1.330460     -4.339429      1.454162
14
Coordinates from ORCA-job ./orca E -399.099964684482
  N       0.330764     -1.657144      0.967037
  C       0.480128     -0.267633      0.525214
  C      -0.720204      0.137241     -0.303540
  O      -1.933306      0.026296      0.442311
  H       1.055269     -1.883929      1.636076
  H       0.469082     -2.278665      0.178889
  H       1.386644     -0.097284     -0.065868
  H       0.536187      0.365883      1.411732
  H      -0.779961     -0.487204     -1.200897
  H      -0.636171      1.177498     -0.612298
  H      -1.898654     -0.832659      0.880725
  O      -0.896891     -3.283111      3.461977
  C      -1.103614     -3.798938      2.448834
  O      -1.325334     -4.341232      1.452889
14
Coordinates from ORCA-job ./orca E -399.099969699538
  N       0.325677     -1.655027      0.968570
  C       0.479912     -0.267448      0.523533
  C      -0.719965      0.139277     -0.305195
  O      -1.932563      0.028313      0.441641
  H       1.045258     -1.882105      1.642542
  H       0.462764     -2.280134      0.183328
  H       1.386399     -0.101179     -0.068820
  H       0.538751      0.368067      1.408455
  H      -0.779994     -0.485149     -1.202622
  H      -0.634508      1.179271     -0.614403
  H      -1.892291     -0.828783      0.883713
  O      -0.896828     -3.287538      3.462335
  C      -1.100564     -3.803457      2.448614
  O      -1.318108     -4.344989      1.451391
14
Coordinates from ORCA-job ./orca E -399.099989785998
  N       0.314403     -1.650935      0.972071
  C       0.479051     -0.266954      0.520036
  C      -0.719332      0.143324     -0.309303
  O      -1.931088      0.032441      0.439001
  H       1.025482     -1.877487      1.654891
  H       0.452060     -2.282307      0.192249
  H       1.385872     -0.110096     -0.074311
  H       0.543208      0.372651      1.401592
  H      -0.780203     -0.480920     -1.206884
  H      -0.631225      1.183003     -0.618858
  H      -1.878863     -0.818713      0.891973
  O      -0.896744     -3.298119      3.463510
  C      -1.094454     -3.813413      2.448301
  O      -1.304228     -4.353356      1.448814
14
Coordinates from ORCA-job ./orca E -399.099994544102
  N       0.301751     -1.646614      0.976080
  C       0.477945     -0.266274      0.516249
  C      -0.718451      0.147372     -0.314309
  O      -1.929501      0.036328      0.435001
  H       1.005278     -1.872115      1.666992
  H       0.442701     -2.283847      0.201651
  H       1.385571     -0.120354     -0.079384
  H       0.547211      0.377558      1.394230
  H      -0.780449     -0.476370     -1.212170
  H      -0.628218      1.187058     -0.623364
  H      -1.864688     -0.806478      0.902412
  O      -0.896298     -3.310551      3.465180
  C      -1.088062     -3.824251      2.448072
  O      -1.290851     -4.362344      1.446442
14
Coordinates from ORCA-job ./orca E -399.099981868464
  N       0.294022     -1.644011      0.978814
  C       0.477466     -0.265685      0.514152
  C      -0.717585      0.149318     -0.317627
  O      -1.928748      0.037917      0.431404
  H       0.995286     -1.868753      1.672488
  H       0.439043     -2.283554      0.206833
  H       1.386053     -0.126829     -0.081340
  H       0.548960      0.380497      1.390124
  H      -0.780394     -0.473746     -1.215808
  H      -0.626926      1.189402     -0.625371
  H      -1.858319     -0.798979      0.908919
  O      -0.894783     -3.318831      3.466800
  C      -1.084528     -3.830478      2.448303
  O      -1.285608     -4.367150      1.445391
14
Coordinates from ORCA-job ./orca E -399.100011944390
  N       0.290632     -1.642598      0.980415
  C       0.477603     -0.265215      0.513487
  C      -0.716808      0.150005     -0.319138
  O      -1.928410      0.038253      0.429095
  H       0.992487     -1.867775      1.673578
  H       0.437577     -2.282679      0.209000
  H       1.386978     -0.129637     -0.081306
  H       0.549494      0.381998      1.388640
  H      -0.779938     -0.472549     -1.217549
  H      -0.626681      1.190535     -0.625610
  H      -1.858142     -0.796675      0.910089
  O      -0.892205     -3.323161      3.468120
  C      -1.082910     -3.832908      2.448871
  O      -1.285739     -4.368476      1.445389
14
Coordinates from ORCA-job ./orca E -399.100000130073
  N       0.289114     -1.641806      0.981299
  C       0.477659     -0.264972      0.513380
  C      -0.716358      0.150518     -0.319716
  O      -1.928122      0.038945      0.428172
  H       0.991101     -1.867833      1.674107
  H       0.435622     -2.282484      0.210220
  H       1.387413     -0.130690     -0.081076
  H       0.549739      0.382810      1.388116
  H      -0.779475     -0.472036     -1.218108
  H      -0.626287      1.191110     -0.625962
  H      -1.858747     -0.796109      0.909017
  O      -0.889985     -3.325370      3.468785
  C      -1.081798     -3.834099      2.449256
  O      -1.285938     -4.368866      1.445591
14
Coordinates from ORCA-job ./orca E -399.099460047091
  N       0.283881     -1.653280      0.987204
  C       0.469908     -0.274078      0.517645
  C      -0.718648      0.150569     -0.318238
  O      -1.930246      0.044622      0.425767
  H       0.998020     -1.865784      1.676069
  H       0.440206     -2.285992      0.204537
  H       1.380379     -0.141895     -0.076188
  H       0.543108      0.372378      1.393271
  H      -0.782629     -0.469550     -1.218256
  H      -0.621770      1.191271     -0.622106
  H      -1.860163     -0.790831      0.901485
  O      -0.888736     -3.319609      3.467810
  C      -1.066658     -3.811901      2.437542
  O      -1.282714     -4.366800      1.446542
14
Coordinates from ORCA-job ./orca E -399.099651279511
  N       0.283382     -1.654360      0.987572
  C       0.470877     -0.274845      0.520273
  C      -0.718023      0.146199     -0.316845
  O      -1.933196      0.045603      0.426543
  H       0.996801     -1.870333      1.672024
  H       0.438225     -2.284320      0.209098
  H       1.382275     -0.142027     -0.071942
  H       0.541784      0.372071      1.395885
  H      -0.781514     -0.477406     -1.214725
  H      -0.618308      1.185140     -0.625682
  H      -1.870910     -0.789848      0.907202
  O      -0.878088     -3.310666      3.460120
  C      -1.071554     -3.811269      2.436356
  O      -1.277812     -4.354821      1.437203
14
Coordinates from ORCA-job ./orca E -399.099659103242
  N       0.285016     -1.654400      0.987532
  C       0.472076     -0.274521      0.521836
  C      -0.717720      0.143244     -0.315539
  O      -1.934051      0.044941      0.427969
  H       0.997964     -1.874313      1.670803
  H       0.437328     -2.285308      0.210432
  H       1.383544     -0.140185     -0.069854
  H       0.541489      0.372615      1.397381
  H      -0.781410     -0.482639     -1.211710
  H      -0.618306      1.181408     -0.627099
  H      -1.877357     -0.790858      0.909234
  O      -0.878068     -3.302206      3.454623
  C      -1.065404     -3.814504      2.435772
  O      -1.281161     -4.344155      1.431702
14
Coordinates from ORCA-job ./orca E -399.099687733403
  N       0.285350     -1.653821      0.987296
  C       0.472574     -0.274062      0.522066
  C      -0.717347      0.143173     -0.315339
  O      -1.933462      0.044184      0.428064
  H       0.998191     -1.875870      1.670742
  H       0.435509     -2.286260      0.209919
  H       1.384174     -0.139095     -0.069287
  H       0.541560      0.372874      1.397736
  H      -0.781020     -0.482708     -1.211388
  H      -0.619076      1.181575     -0.626503
  H      -1.878347     -0.792492      0.907296
  O      -0.874241     -3.303220      3.454767
  C      -1.070776     -3.810469      2.435355
  O      -1.279152     -4.344690      1.432358
14
Coordinates from ORCA-job ./orca E -399.099701768841
  N       0.286259     -1.653199      0.986972
  C       0.473044     -0.273701      0.522040
  C      -0.717143      0.143321     -0.315156
  O      -1.932772      0.043640      0.428434
  H       0.998395     -1.876965      1.670508
  H       0.434138     -2.286702      0.209971
  H       1.384612     -0.137903     -0.069260
  H       0.541830      0.372916      1.397951
  H      -0.780856     -0.482542     -1.211197
  H      -0.619981      1.181928     -0.625943
  H      -1.878692     -0.794383      0.905228
  O      -0.874049     -3.303338      3.455261
  C      -1.070753     -3.809182      2.435192
  O      -1.280093     -4.344773      1.433080
14
Coordinates from ORCA-job ./orca E -399.099086332554
  N       0.281020     -1.664613      0.992851
  C       0.465300     -0.282789      0.526272
  C      -0.719437      0.143341     -0.313648
  O      -1.934847      0.049263      0.426058
  H       1.005391     -1.874938      1.672521
  H       0.438643     -2.290242      0.204206
  H       1.377577     -0.149074     -0.064415
  H       0.535193      0.362511      1.403068
  H      -0.784041     -0.480076     -1.211335
  H      -0.615485      1.182036     -0.622019
  H      -1.880116     -0.789156      0.897716
  O      -0.872794     -3.297533      3.454254
  C      -1.055561     -3.786949      2.423462
  O      -1.276905     -4.342661      1.434090
14
Coordinates from ORCA-job ./orca E -399.099278245893
  N       0.281187     -1.665567      0.992683
  C       0.466537     -0.283481      0.528637
  C      -0.718804      0.139253     -0.312116
  O      -1.937540      0.049196      0.426909
  H       1.003888     -1.880027      1.668216
  H       0.436385     -2.289078      0.208817
  H       1.379621     -0.148660     -0.060514
  H       0.534201      0.361867      1.405716
  H      -0.782771     -0.486901     -1.208167
  H      -0.612809      1.176564     -0.624333
  H      -1.890357     -0.789699      0.902434
  O      -0.863622     -3.287636      3.446958
  C      -1.059150     -3.786081      2.422484
  O      -1.272826     -4.330630      1.425358
14
Coordinates from ORCA-job ./orca E -399.099306936945
  N       0.283173     -1.665451      0.991991
  C       0.467981     -0.283125      0.529998
  C      -0.718418      0.136679     -0.310680
  O      -1.938132      0.047453      0.428324
  H       1.004589     -1.884854      1.666971
  H       0.434542     -2.290852      0.209753
  H       1.381120     -0.146277     -0.058568
  H       0.534154      0.361945      1.407368
  H      -0.782323     -0.490875     -1.205625
  H      -0.613482      1.173657     -0.624368
  H      -1.896325     -0.792352      0.903130
  O      -0.862772     -3.279013      3.442026
  C      -1.055407     -3.786968      2.421950
  O      -1.274760     -4.320848      1.420811
14
Coordinates from ORCA-job ./orca E -399.099322974726
  N       0.284560     -1.664694      0.991057
  C       0.469313     -0.282516      0.530803
  C      -0.717785      0.135549     -0.309716
  O      -1.937678      0.045372      0.429158
  H       1.004691     -1.889221      1.666191
  H       0.431079     -2.292862      0.209593
  H       1.382628     -0.143757     -0.057088
  H       0.534317      0.361955      1.408638
  H      -0.781481     -0.492297     -1.204299
  H      -0.614799      1.172789     -0.623195
  H      -1.899955     -0.796161      0.900829
  O      -0.857640     -3.275987      3.440068
  C      -1.060787     -3.781755      2.421268
  O      -1.272523     -4.317295      1.419775
14
Coordinates from ORCA-job ./orca E -399.099349295277
  N       0.285578     -1.664037      0.990429
  C       0.469729     -0.282218      0.530463
  C      -0.717673      0.136190     -0.309580
  O      -1.936745      0.044508      0.429608
  H       1.004546     -1.890080      1.666202
  H       0.429671     -2.293403      0.209315
  H       1.382880     -0.142493     -0.057592
  H       0.534806      0.361741      1.408666
  H      -0.781336     -0.491082     -1.204576
  H      -0.616000      1.173858     -0.622019
  H      -1.899016     -0.798622      0.898145
  O      -0.858993     -3.276213      3.441310
  C      -1.059680     -3.780681      2.421342
  O      -1.273829     -4.318350      1.421369
14
Coordinates from ORCA-job ./orca E -399.099340933262
  N       0.287595     -1.662913      0.989040
  C       0.470807     -0.281764      0.530380
  C      -0.717360      0.136616     -0.308838
  O      -1.935536      0.042714      0.430859
  H       1.003841     -1.893207      1.666034
  H       0.425742     -2.294958      0.209053
  H       1.383768     -0.139744     -0.057704
  H       0.535583      0.361209      1.409358
  H      -0.780653     -0.490085     -1.204282
  H      -0.617776      1.174787     -0.620131
  H      -1.899259     -0.803694      0.893457
  O      -0.859518     -3.274058      3.441901
  C      -1.058322     -3.778213      2.421320
  O      -1.274973     -4.317571      1.422636
14
Coordinates from ORCA-job ./orca E -399.099350214138
  N       0.287771     -1.662746      0.988674
  C       0.470980     -0.281779      0.530425
  C      -0.717306      0.136757     -0.308640
  O      -1.935445      0.042544      0.431161
  H       1.003027     -1.894047      1.666268
  H       0.424267     -2.295436      0.209022
  H       1.383910     -0.139273     -0.057671
  H       0.535755      0.361012      1.409565
  H      -0.780374     -0.489877     -1.204173
  H      -0.617780      1.174928     -0.619917
  H      -1.899250     -0.804599      0.892512
  O      -0.859235     -3.273242      3.441792
  C      -1.058016     -3.777831      2.421394
  O      -1.274364     -4.317292      1.422670
14
Coordinates from ORCA-job ./orca E -399.098737797039
  N       0.282563     -1.674079      0.994520
  C       0.463277     -0.290835      0.534628
  C      -0.719604      0.136738     -0.307076
  O      -1.937522      0.048042      0.428805
  H       1.010149     -1.892119      1.668294
  H       0.428709     -2.299084      0.203184
  H       1.376898     -0.150355     -0.052887
  H       0.529120      0.350639      1.414652
  H      -0.783573     -0.487425     -1.204275
  H      -0.613342      1.175006     -0.615874
  H      -1.900740     -0.799455      0.884960
  O      -0.857993     -3.267333      3.440730
  C      -1.042755     -3.755520      2.409637
  O      -1.271248     -4.315100      1.423783
14
Coordinates from ORCA-job ./orca E -399.098924048329
  N       0.282056     -1.675286      0.994543
  C       0.464276     -0.291646      0.536968
  C      -0.719105      0.132653     -0.305722
  O      -1.940491      0.048396      0.429475
  H       1.008007     -1.896363      1.664304
  H       0.427285     -2.297474      0.207850
  H       1.378673     -0.150764     -0.049126
  H       0.528172      0.350147      1.417027
  H      -0.782542     -0.494328     -1.201221
  H      -0.610167      1.169371     -0.618695
  H      -1.910280     -0.798677      0.891009
  O      -0.848439     -3.258305      3.433385
  C      -1.048086     -3.754450      2.408480
  O      -1.265421     -4.304154      1.414803
14
Coordinates from ORCA-job ./orca E -399.098928845679
  N       0.283646     -1.675620      0.994085
  C       0.465475     -0.291527      0.538228
  C      -0.718988      0.129880     -0.304392
  O      -1.941493      0.047178      0.430964
  H       1.008322     -1.900142      1.663414
  H       0.427165     -2.298657      0.209097
  H       1.379766     -0.149323     -0.047603
  H       0.528258      0.350315      1.418297
  H      -0.782648     -0.498703     -1.198647
  H      -0.610354      1.166036     -0.619368
  H      -1.915661     -0.799681      0.893857
  O      -0.850068     -3.248856      3.427850
  C      -1.041800     -3.757831      2.407949
  O      -1.267682     -4.293950      1.409350
14
Coordinates from ORCA-job ./orca E -399.098959639772
  N       0.283848     -1.675153      0.993677
  C       0.465892     -0.291184      0.538202
  C      -0.718723      0.130049     -0.304255
  O      -1.940872      0.046210      0.431086
  H       1.008200     -1.901386      1.663726
  H       0.425778     -2.299696      0.208310
  H       1.380219     -0.148502     -0.047468
  H       0.528504      0.350392      1.418416
  H      -0.782400     -0.498123     -1.198674
  H      -0.611252      1.166598     -0.618381
  H      -1.915724     -0.801208      0.892225
  O      -0.847246     -3.249861      3.428233
  C      -1.047142     -3.753770      2.407623
  O      -1.265143     -4.295247      1.410361
14
Coordinates from ORCA-job ./orca E -399.098961100376
  N       0.284654     -1.674667      0.993074
  C       0.466419     -0.290931      0.538028
  C      -0.718573      0.130216     -0.303995
  O      -1.940205      0.045196      0.431618
  H       1.007925     -1.902597      1.663660
  H       0.424727     -2.300303      0.208169
  H       1.380624     -0.147462     -0.047716
  H       0.528978      0.350243      1.418521
  H      -0.782302     -0.497574     -1.198650
  H      -0.612307      1.167120     -0.617342
  H      -1.915625     -0.803301      0.890617
  O      -0.847736     -3.249194      3.428533
  C      -1.047358     -3.752296      2.407507
  O      -1.265283     -4.295332      1.411059
14
Coordinates from ORCA-job ./orca E -399.098985375758
  N       0.286725     -1.673592      0.991384
  C       0.467848     -0.290455      0.537866
  C      -0.718249      0.130236     -0.303028
  O      -1.938949      0.042635      0.433331
  H       1.006782     -1.906380      1.663552
  H       0.421521     -2.302103      0.207922
  H       1.381768     -0.144777     -0.047998
  H       0.530134      0.349709      1.419113
  H      -0.781875     -0.496892     -1.198129
  H      -0.614588      1.167791     -0.615007
  H      -1.916197     -0.808692      0.887049
  O      -0.848690     -3.245514      3.428216
  C      -1.047230     -3.749038      2.407191
  O      -1.265061     -4.293809      1.411622
14
Coordinates from ORCA-job ./orca E -399.098973578243
  N       0.286894     -1.673483      0.990946
  C       0.468050     -0.290500      0.537803
  C      -0.718243      0.130419     -0.302789
  O      -1.938844      0.042215      0.433738
  H       1.005964     -1.907150      1.663744
  H       0.420453     -2.302524      0.207828
  H       1.381886     -0.144435     -0.048159
  H       0.530445      0.349461      1.419212
  H      -0.781663     -0.496435     -1.198118
  H      -0.614759      1.168057     -0.614501
  H      -1.915961     -0.809826      0.886224
  O      -0.849031     -3.244372      3.428118
  C      -1.046803     -3.748717      2.407308
  O      -1.264449     -4.293592      1.411727
14
Coordinates from ORCA-job ./orca E -399.098329817591
  N       0.281700     -1.684743      0.996769
  C       0.460374     -0.299524      0.541982
  C      -0.720548      0.130369     -0.301181
  O      -1.940917      0.047629      0.431402
  H       1.013181     -1.905283      1.665811
  H       0.424841     -2.306259      0.201923
  H       1.374884     -0.155449     -0.043425
  H       0.523812      0.339124      1.424270
  H      -0.784875     -0.494001     -1.198186
  H      -0.610366      1.168095     -0.610375
  H      -1.917492     -0.804743      0.878661
  O      -0.847797     -3.238395      3.426992
  C      -1.031476     -3.726363      2.395509
  O      -1.261382     -4.291341      1.412930
14
Coordinates from ORCA-job ./orca E -399.098510853348
  N       0.281379     -1.685869      0.996808
  C       0.461394     -0.300237      0.544348
  C      -0.720104      0.126216     -0.299833
  O      -1.943801      0.048023      0.432210
  H       1.011103     -1.909378      1.661716
  H       0.423703     -2.304405      0.206687
  H       1.376646     -0.155785     -0.039682
  H       0.522903      0.338774      1.426630
  H      -0.783958     -0.501174     -1.194998
  H      -0.607308      1.162307     -0.613451
  H      -1.926797     -0.803856      0.884908
  O      -0.838777     -3.229535      3.419717
  C      -1.036495     -3.725406      2.394168
  O      -1.255947     -4.280555      1.403854
14
Coordinates from ORCA-job ./orca E -399.098520541408
  N       0.283036     -1.686153      0.996388
  C       0.462562     -0.300066      0.545581
  C      -0.720029      0.123509     -0.298541
  O      -1.944690      0.046887      0.433771
  H       1.011578     -1.912964      1.660899
  H       0.423751     -2.305491      0.207788
  H       1.377696     -0.154335     -0.038213
  H       0.523008      0.339018      1.427842
  H      -0.784155     -0.505555     -1.192405
  H      -0.607601      1.159021     -0.614249
  H      -1.931854     -0.804730      0.887713
  O      -0.840386     -3.220654      3.414405
  C      -1.030962     -3.728351      2.393509
  O      -1.258016     -4.271019      1.398595
14
Coordinates from ORCA-job ./orca E -399.098545921607
  N       0.283377     -1.685737      0.995993
  C       0.463050     -0.299736      0.545649
  C      -0.719780      0.123446     -0.298305
  O      -1.944159      0.045909      0.434055
  H       1.011564     -1.914394      1.661128
  H       0.422469     -2.306516      0.207114
  H       1.378211     -0.153444     -0.037973
  H       0.523246      0.339110      1.428039
  H      -0.783958     -0.505394     -1.192200
  H      -0.608484      1.159276     -0.613417
  H      -1.932304     -0.806214      0.886393
  O      -0.837657     -3.221063      3.414360
  C      -1.036072     -3.724451      2.393066
  O      -1.255563     -4.271674      1.399179
14
Coordinates from ORCA-job ./orca E -399.098558765958
  N       0.284241     -1.685275      0.995433
  C       0.463556     -0.299505      0.545450
  C      -0.719659      0.123611     -0.298037
  O      -1.943480      0.044961      0.434657
  H       1.011444     -1.915453      1.661059
  H       0.421595     -2.307050      0.206955
  H       1.378571     -0.152428     -0.038282
  H       0.523727      0.338957      1.428106
  H      -0.783930     -0.504884     -1.192143
  H      -0.609538      1.159779     -0.612427
  H      -1.932161     -0.808225      0.884816
  O      -0.838365     -3.220454      3.414678
  C      -1.036244     -3.723038      2.392914
  O      -1.255817     -4.271878      1.399902
14
Coordinates from ORCA-job ./orca E -399.098566617870
  N       0.286486     -1.684301      0.993914
  C       0.464958     -0.299073      0.545294
  C      -0.719414      0.123508     -0.297004
  O      -1.942276      0.042547      0.436562
  H       1.010876     -1.918871      1.660872
  H       0.418951     -2.308640      0.206695
  H       1.379620     -0.149834     -0.038653
  H       0.524912      0.338471      1.428630
  H      -0.783696     -0.504477     -1.191443
  H      -0.611783      1.160255     -0.610258
  H      -1.932910     -0.813367      0.881442
  O      -0.839680     -3.216798      3.414231
  C      -1.036278     -3.719859      2.392454
  O      -1.255827     -4.270441      1.400346
14
Coordinates from ORCA-job ./orca E -399.098556160271
  N       0.286766     -1.684221      0.993538
  C       0.465170     -0.299119      0.545267
  C      -0.719433      0.123600     -0.296724
  O      -1.942200      0.042173      0.437042
  H       1.010344     -1.919568      1.660998
  H       0.418084     -2.309027      0.206614
  H       1.379726     -0.149483     -0.038802
  H       0.525225      0.338255      1.428743
  H      -0.783567     -0.504200     -1.191327
  H      -0.611952      1.160397     -0.609830
  H      -1.932876     -0.814432      0.880700
  O      -0.840064     -3.215613      3.414031
  C      -1.035994     -3.719497      2.392493
  O      -1.255292     -4.270145      1.400337
14
Coordinates from ORCA-job ./orca E -399.097825433560
  N       0.281180     -1.695747      0.999965
  C       0.457532     -0.308506      0.549853
  C      -0.721611      0.124871     -0.294832
  O      -1.945464      0.048013      0.430984
  H       1.018288     -1.919270      1.662433
  H       0.419817     -2.312760      0.201052
  H       1.371967     -0.160019     -0.034700
  H       0.518492      0.326581      1.434917
  H      -0.786585     -0.498891     -1.192208
  H      -0.606291      1.162380     -0.602888
  H      -1.935427     -0.810634      0.865448
  O      -0.834519     -3.212261      3.416084
  C      -1.019561     -3.697250      2.382915
  O      -1.253879     -4.267388      1.404058
14
Coordinates from ORCA-job ./orca E -399.098029107854
  N       0.281540     -1.696472      0.999267
  C       0.458691     -0.308876      0.551736
  C      -0.721424      0.119334     -0.293458
  O      -1.947329      0.047866      0.435459
  H       1.015410     -1.921825      1.659055
  H       0.421525     -2.311055      0.205534
  H       1.373966     -0.160203     -0.031290
  H       0.517846      0.327168      1.436364
  H      -0.786351     -0.509075     -1.187858
  H      -0.603952      1.154581     -0.608200
  H      -1.943261     -0.808790      0.879045
  O      -0.831435     -3.200007      3.405673
  C      -1.024199     -3.696706      2.379339
  O      -1.247087     -4.256821      1.392415
14
Coordinates from ORCA-job ./orca E -399.098054378778
  N       0.283160     -1.696513      0.998494
  C       0.459859     -0.308533      0.552366
  C      -0.721469      0.116823     -0.292414
  O      -1.947268      0.045969      0.438286
  H       1.015563     -1.924603      1.659009
  H       0.422261     -2.312483      0.206053
  H       1.375261     -0.158993     -0.030202
  H       0.518351      0.327806      1.436748
  H      -0.786775     -0.513064     -1.185556
  H      -0.605567      1.151668     -0.609051
  H      -1.945965     -0.809743      0.883756
  O      -0.833955     -3.191825      3.400173
  C      -1.023235     -3.696924      2.377688
  O      -1.246282     -4.250467      1.387730
14
Coordinates from ORCA-job ./orca E -399.098056628706
  N       0.284004     -1.696214      0.997867
  C       0.460836     -0.308158      0.552884
  C      -0.721062      0.115999     -0.291770
  O      -1.946949      0.044075      0.439059
  H       1.015513     -1.927851      1.658494
  H       0.420176     -2.313896      0.206035
  H       1.376547     -0.157868     -0.029024
  H       0.518803      0.328036      1.437319
  H      -0.786130     -0.513752     -1.184838
  H      -0.607084      1.151170     -0.608027
  H      -1.948516     -0.812295      0.882770
  O      -0.830485     -3.189154      3.398369
  C      -1.028018     -3.692912      2.377101
  O      -1.243696     -4.248061      1.386842
14
Coordinates from ORCA-job ./orca E -399.098071111383
  N       0.284508     -1.695892      0.997580
  C       0.461013     -0.308082      0.552593
  C      -0.721005      0.116644     -0.291698
  O      -1.946496      0.043596      0.438948
  H       1.015570     -1.928098      1.658316
  H       0.419426     -2.313978      0.205824
  H       1.376562     -0.157359     -0.029520
  H       0.519154      0.327737      1.437306
  H      -0.786030     -0.512427     -1.185296
  H      -0.607716      1.152195     -0.606932
  H      -1.947787     -0.813869      0.880500
  O      -0.831880     -3.189463      3.399653
  C      -1.026036     -3.693051      2.377551
  O      -1.245343     -4.248833      1.388257
14
Coordinates from ORCA-job ./orca E -399.098075687380
  N       0.285466     -1.695355      0.996843
  C       0.461630     -0.307883      0.552525
  C      -0.720782      0.116999     -0.291228
  O      -1.945913      0.042287      0.439388
  H       1.015406     -1.929868      1.657860
  H       0.417279     -2.314627      0.205516
  H       1.377079     -0.156158     -0.029593
  H       0.519716      0.327366      1.437673
  H      -0.785521     -0.511336     -1.185392
  H      -0.608795      1.153013     -0.605353
  H      -1.948066     -0.816979      0.877417
  O      -0.832303     -3.188131      3.400253
  C      -1.025076     -3.691794      2.377858
  O      -1.246182     -4.248415      1.389315
14
Coordinates from ORCA-job ./orca E -399.098075423768
  N       0.286074     -1.694967      0.996156
  C       0.462122     -0.307762      0.552629
  C      -0.720567      0.117208     -0.290771
  O      -1.945565      0.041288      0.439834
  H       1.014931     -1.931679      1.657471
  H       0.414893     -2.315264      0.205212
  H       1.377525     -0.155114     -0.029433
  H       0.520088      0.327009      1.438155
  H      -0.784913     -0.510633     -1.185329
  H      -0.609341      1.153492     -0.604230
  H      -1.948584     -0.819518      0.874864
  O      -0.831911     -3.186654      3.400456
  C      -1.024766     -3.690536      2.378145
  O      -1.246046     -4.247750      1.389922
14
Coordinates from ORCA-job ./orca E -399.097254711228
  N       0.280501     -1.706391      1.002546
  C       0.454531     -0.317096      0.557185
  C      -0.722761      0.118395     -0.288821
  O      -1.948819      0.047015      0.433871
  H       1.022955     -1.931417      1.658935
  H       0.416575     -2.319043      0.199565
  H       1.369802     -0.165575     -0.025380
  H       0.513383      0.315420      1.444270
  H      -0.787939     -0.505452     -1.186123
  H      -0.603776      1.155363     -0.597267
  H      -1.951144     -0.815754      0.859742
  O      -0.826413     -3.183195      3.402390
  C      -1.008281     -3.668235      2.368475
  O      -1.244674     -4.244915      1.393694
14
Coordinates from ORCA-job ./orca E -399.097459104972
  N       0.280736     -1.707205      1.001803
  C       0.455619     -0.317488      0.559162
  C      -0.722436      0.113194     -0.287530
  O      -1.950747      0.046866      0.437804
  H       1.019994     -1.934277      1.655094
  H       0.417645     -2.317370      0.204067
  H       1.371800     -0.165697     -0.021726
  H       0.512568      0.315811      1.445944
  H      -0.787305     -0.514873     -1.182159
  H      -0.601190      1.148057     -0.602079
  H      -1.959440     -0.814332      0.871885
  O      -0.821965     -3.171769      3.392753
  C      -1.013588     -3.667078      2.365319
  O      -1.237751     -4.234719      1.382744
14
Coordinates from ORCA-job ./orca E -399.097476234196
  N       0.282711     -1.707404      1.000801
  C       0.456864     -0.317201      0.559879
  C      -0.722535      0.110339     -0.286339
  O      -1.950739      0.044952      0.441079
  H       1.020246     -1.937237      1.654813
  H       0.418813     -2.318865      0.204620
  H       1.373139     -0.164217     -0.020512
  H       0.512981      0.316284      1.446516
  H      -0.787872     -0.519445     -1.179542
  H      -0.602739      1.144687     -0.603117
  H      -1.962558     -0.815268      0.877310
  O      -0.825945     -3.162026      3.386577
  C      -1.010802     -3.668282      2.363639
  O      -1.237625     -4.227199      1.377358
14
Coordinates from ORCA-job ./orca E -399.097487332191
  N       0.283249     -1.707233      1.000267
  C       0.457541     -0.316939      0.560341
  C      -0.722131      0.110007     -0.285901
  O      -1.950487      0.043545      0.441233
  H       1.020390     -1.940016      1.654297
  H       0.416621     -2.320141      0.204209
  H       1.374113     -0.163246     -0.019428
  H       0.513167      0.316264      1.447135
  H      -0.787153     -0.519332     -1.179271
  H      -0.603825      1.144759     -0.601911
  H      -1.964755     -0.817444      0.875202
  O      -0.822018     -3.160867      3.385928
  C      -1.015489     -3.664373      2.363512
  O      -1.235286     -4.225866      1.377469
14
Coordinates from ORCA-job ./orca E -399.097504981468
  N       0.283897     -1.706892      0.999797
  C       0.457867     -0.316838      0.560143
  C      -0.721968      0.110651     -0.285720
  O      -1.949967      0.042778      0.441110
  H       1.020500     -1.940892      1.653854
  H       0.415316     -2.320434      0.203832
  H       1.374336     -0.162466     -0.019683
  H       0.513534      0.315851      1.447308
  H      -0.786866     -0.517846     -1.179720
  H      -0.604661      1.145899     -0.600453
  H      -1.964534     -0.819602      0.872161
  O      -0.822455     -3.161099      3.387296
  C      -1.014657     -3.663475      2.364015
  O      -1.236401     -4.226517      1.379140
14
Coordinates from ORCA-job ./orca E -399.097496572947
  N       0.285482     -1.706344      0.998468
  C       0.458812     -0.316631      0.560206
  C      -0.721605      0.111010     -0.284909
  O      -1.949193      0.040819      0.441823
  H       1.020555     -1.943934      1.652738
  H       0.412213     -2.321494      0.203053
  H       1.375193     -0.160454     -0.019439
  H       0.514155      0.315050      1.448138
  H      -0.786076     -0.516407     -1.179716
  H      -0.606189      1.146939     -0.598023
  H      -1.965662     -0.824211      0.867408
  O      -0.822718     -3.158650      3.388083
  C      -1.013768     -3.661148      2.364573
  O      -1.237260     -4.225426      1.380678
14
Coordinates from ORCA-job ./orca E -399.097505685274
  N       0.286055     -1.706235      0.997725
  C       0.459174     -0.316611      0.560422
  C      -0.721444      0.111053     -0.284455
  O      -1.949030      0.040108      0.442288
  H       1.020306     -1.945639      1.652166
  H       0.410363     -2.322047      0.202531
  H       1.375539     -0.159466     -0.019079
  H       0.514265      0.314576      1.448747
  H      -0.785570     -0.516063     -1.179506
  H      -0.606432      1.147127     -0.597210
  H      -1.966473     -0.826126      0.865435
  O      -0.822423     -3.156962      3.388099
  C      -1.013534     -3.660075      2.364886
  O      -1.236856     -4.224523      1.381033
14
Coordinates from ORCA-job ./orca E -399.097503283127
  N       0.286028     -1.706336      0.997256
  C       0.459215     -0.316702      0.560612
  C      -0.721346      0.111246     -0.284246
  O      -1.949091      0.039998      0.442352
  H       1.019861     -1.946605      1.651791
  H       0.408992     -2.322303      0.202051
  H       1.375576     -0.159067     -0.018819
  H       0.514209      0.314166      1.449183
  H      -0.785161     -0.515625     -1.179498
  H      -0.606105      1.147351     -0.596790
  H      -1.966888     -0.826933      0.864120
  O      -0.822043     -3.156086      3.388287
  C      -1.013240     -3.659736      2.365351
  O      -1.236066     -4.224250      1.381431
14
Coordinates from ORCA-job ./orca E -399.096659167523
  N       0.280479     -1.717644      1.003602
  C       0.451690     -0.325976      0.565141
  C      -0.723556      0.112330     -0.282211
  O      -1.952345      0.045567      0.436490
  H       1.027979     -1.946402      1.653256
  H       0.410605     -2.326147      0.196306
  H       1.367901     -0.169422     -0.014822
  H       0.507540      0.302664      1.455240
  H      -0.788181     -0.510586     -1.180175
  H      -0.600661      1.149089     -0.589765
  H      -1.969448     -0.823226      0.849104
  O      -0.816597     -3.152465      3.390093
  C      -0.996706     -3.637352      2.355568
  O      -1.234759     -4.221313      1.385255
14
Coordinates from ORCA-job ./orca E -399.096850564212
  N       0.280984     -1.718511      1.002759
  C       0.452795     -0.326317      0.567022
  C      -0.723275      0.107235     -0.280985
  O      -1.954150      0.045356      0.440400
  H       1.025166     -1.949085      1.649251
  H       0.412319     -2.324356      0.200822
  H       1.369879     -0.169522     -0.011267
  H       0.506785      0.303041      1.456847
  H      -0.787726     -0.519776     -1.176349
  H      -0.598360      1.141983     -0.594418
  H      -1.977452     -0.821833      0.861232
  O      -0.813040     -3.141326      3.380806
  C      -1.001758     -3.636172      2.352369
  O      -1.228228     -4.211598      1.374592
14
Coordinates from ORCA-job ./orca E -399.096874720555
  N       0.283132     -1.718812      1.001671
  C       0.454024     -0.326049      0.567674
  C      -0.723434      0.104407     -0.279818
  O      -1.954085      0.043435      0.443718
  H       1.025698     -1.951885      1.648938
  H       0.414080     -2.325794      0.201135
  H       1.371198     -0.168047     -0.010101
  H       0.507168      0.303419      1.457397
  H      -0.788482     -0.524271     -1.173787
  H      -0.600089      1.138687     -0.595395
  H      -1.980315     -0.822647      0.866853
  O      -0.817239     -3.131933      3.374849
  C      -0.999941     -3.636755      2.350565
  O      -1.227775     -4.204636      1.369382
14
Coordinates from ORCA-job ./orca E -399.096878092139
  N       0.284095     -1.718769      1.000940
  C       0.454825     -0.325806      0.568128
  C      -0.723134      0.103709     -0.279226
  O      -1.953796      0.041765      0.444403
  H       1.026147     -1.954739      1.648319
  H       0.412696     -2.327085      0.200591
  H       1.372261     -0.166893     -0.009011
  H       0.507368      0.303334      1.458038
  H      -0.788038     -0.524730     -1.173199
  H      -0.601501      1.138342     -0.594297
  H      -1.982494     -0.824816      0.865736
  O      -0.814369     -3.129752      3.373614
  C      -1.004777     -3.632645      2.350081
  O      -1.225343     -4.202795      1.368963
14
Coordinates from ORCA-job ./orca E -399.096896467957
  N       0.284898     -1.718530      1.000432
  C       0.455143     -0.325755      0.567864
  C      -0.723075      0.104233     -0.278990
  O      -1.953290      0.040923      0.444521
  H       1.026480     -1.955359      1.647902
  H       0.412003     -2.327296      0.200105
  H       1.372399     -0.166098     -0.009421
  H       0.507735      0.302871      1.458148
  H      -0.787947     -0.523449     -1.173528
  H      -0.602424      1.139323     -0.592925
  H      -1.981934     -0.826846      0.863286
  O      -0.815579     -3.129666      3.374794
  C      -1.003921     -3.631829      2.350443
  O      -1.226548     -4.203404      1.370451
14
Coordinates from ORCA-job ./orca E -399.096886710487
  N       0.286930     -1.718269      0.998989
  C       0.456092     -0.325651      0.567795
  C      -0.722959      0.104276     -0.278044
  O      -1.952562      0.038654      0.445777
  H       1.027221     -1.957857      1.646741
  H       0.410528     -2.328163      0.199021
  H       1.373094     -0.164055     -0.009479
  H       0.508357      0.301953      1.458847
  H      -0.787617     -0.522468     -1.173273
  H      -0.604277      1.139997     -0.590590
  H      -1.982335     -0.831251      0.859963
  O      -0.817403     -3.126555      3.375151
  C      -1.003715     -3.629209      2.350595
  O      -1.227414     -4.202282      1.371589
14
Coordinates from ORCA-job ./orca E -399.096898919000
  N       0.288261     -1.718299      0.997870
  C       0.456679     -0.325664      0.567939
  C      -0.722931      0.104098     -0.277276
  O      -1.952301      0.037078      0.446832
  H       1.027688     -1.959777      1.645800
  H       0.409433     -2.328778      0.198067
  H       1.373503     -0.162604     -0.009300
  H       0.508628      0.301222      1.459542
  H      -0.787274     -0.522148     -1.172887
  H      -0.605203      1.140106     -0.589198
  H      -1.982796     -0.834190      0.858134
  O      -0.818335     -3.123720      3.374945
  C      -1.004141     -3.627199      2.350678
  O      -1.227272     -4.201006      1.371937
14
Coordinates from ORCA-job ./orca E -399.096895527248
  N       0.288941     -1.718549      0.997053
  C       0.456922     -0.325788      0.568094
  C      -0.722964      0.104063     -0.276754
  O      -1.952316      0.036050      0.447439
  H       1.027962     -1.960959      1.645033
  H       0.408725     -2.329104      0.197183
  H       1.373586     -0.161771     -0.009189
  H       0.508725      0.300575      1.460087
  H      -0.786951     -0.521705     -1.172732
  H      -0.605504      1.140246     -0.588175
  H      -1.982889     -0.836096      0.856934
  O      -0.818980     -3.121656      3.374869
  C      -1.004545     -3.625944      2.350948
  O      -1.226775     -4.200245      1.372292
14
Coordinates from ORCA-job ./orca E -399.095976185548
  N       0.282744     -1.730284      1.003372
  C       0.447671     -0.334984      0.571888
  C      -0.725425      0.105926     -0.275994
  O      -1.954286      0.045080      0.443441
  H       1.034451     -1.959600      1.648439
  H       0.412534     -2.334846      0.190300
  H       1.365328     -0.173682     -0.004589
  H       0.500715      0.290025      1.464760
  H      -0.790700     -0.516905     -1.173931
  H      -0.599522      1.142046     -0.584440
  H      -1.984425     -0.827069      0.846571
  O      -0.816530     -3.118920      3.377234
  C      -0.987397     -3.605506      2.340161
  O      -1.221218     -4.202164      1.375869
14
Coordinates from ORCA-job ./orca E -399.096206447828
  N       0.283682     -1.730383      1.002489
  C       0.450483     -0.335135      0.574189
  C      -0.724827      0.100379     -0.273465
  O      -1.956933      0.039339      0.446021
  H       1.033088     -1.963250      1.642154
  H       0.411479     -2.330696      0.196266
  H       1.368367     -0.173239     -0.001559
  H       0.501771      0.289955      1.467206
  H      -0.788495     -0.524199     -1.170558
  H      -0.599002      1.135685     -0.584505
  H      -1.992450     -0.833777      0.853008
  O      -0.810011     -3.106210      3.367702
  C      -0.992202     -3.602492      2.338171
  O      -1.221011     -4.186859      1.365962
14
Coordinates from ORCA-job ./orca E -399.096220844567
  N       0.285563     -1.730296      1.001648
  C       0.452038     -0.334613      0.575163
  C      -0.724754      0.097918     -0.272161
  O      -1.957058      0.035507      0.447987
  H       1.034275     -1.966257      1.641167
  H       0.411499     -2.331737      0.195874
  H       1.369717     -0.171196     -0.000385
  H       0.502368      0.290325      1.468264
  H      -0.788197     -0.527372     -1.168587
  H      -0.601178      1.133338     -0.583827
  H      -1.994274     -0.837411      0.855289
  O      -0.810191     -3.099350      3.363340
  C      -0.993892     -3.600196      2.337008
  O      -1.221976     -4.179543      1.362300
14
Coordinates from ORCA-job ./orca E -399.096236267357
  N       0.287404     -1.730143      1.000656
  C       0.453071     -0.334205      0.575692
  C      -0.724631      0.096676     -0.271418
  O      -1.956616      0.033139      0.449237
  H       1.035262     -1.969024      1.640287
  H       0.410999     -2.332826      0.195125
  H       1.370666     -0.168947      0.000527
  H       0.502488      0.290206      1.469141
  H      -0.788075     -0.529037     -1.167410
  H      -0.603153      1.132329     -0.583189
  H      -1.995046     -0.839941      0.855689
  O      -0.809555     -3.096190      3.361579
  C      -0.997531     -3.596305      2.335984
  O      -1.221344     -4.176613      1.361182
14
Coordinates from ORCA-job ./orca E -399.096250810880
  N       0.289893     -1.729944      0.999352
  C       0.454113     -0.333887      0.575753
  C      -0.724703      0.095767     -0.270560
  O      -1.955873      0.030261      0.451017
  H       1.036564     -1.971279      1.639473
  H       0.411214     -2.333765      0.194166
  H       1.371369     -0.166475      0.000593
  H       0.502914      0.289767      1.469726
  H      -0.788167     -0.529934     -1.166491
  H      -0.605686      1.131833     -0.581889
  H      -1.994438     -0.843471      0.855779
  O      -0.812794     -3.091984      3.360412
  C      -0.997309     -3.594141      2.335242
  O      -1.223160     -4.173630      1.360508
14
Coordinates from ORCA-job ./orca E -399.096255035654
  N       0.291651     -1.729932      0.998203
  C       0.454555     -0.333944      0.575572
  C      -0.724845      0.095641     -0.269981
  O      -1.955480      0.028788      0.452174
  H       1.037408     -1.972496      1.638738
  H       0.411198     -2.334203      0.193271
  H       1.371577     -0.164888      0.000393
  H       0.503037      0.288941      1.470135
  H      -0.788163     -0.529728     -1.166206
  H      -0.606924      1.131965     -0.580773
  H      -1.993658     -0.845865      0.855088
  O      -0.815149     -3.089832      3.360601
  C      -0.997682     -3.592077      2.334899
  O      -1.223587     -4.173251      1.360968
14
Coordinates from ORCA-job ./orca E -399.096254018653
  N       0.293359     -1.730185      0.996951
  C       0.454918     -0.334158      0.575469
  C      -0.725069      0.095496     -0.269253
  O      -1.955349      0.027208      0.453360
  H       1.038343     -1.973680      1.637839
  H       0.411223     -2.334672      0.192117
  H       1.371650     -0.163444      0.000202
  H       0.503144      0.287926      1.470656
  H      -0.788097     -0.529322     -1.165937
  H      -0.607877      1.132068     -0.579416
  H      -1.992911     -0.848408      0.854369
  O      -0.817396     -3.087159      3.360599
  C      -0.998635     -3.589743      2.334680
  O      -1.223362     -4.172809      1.361445
14
Coordinates from ORCA-job ./orca E -399.096250476716
  N       0.294356     -1.730602      0.996084
  C       0.455079     -0.334411      0.575438
  C      -0.725278      0.095422     -0.268699
  O      -1.955426      0.026012      0.454088
  H       1.039076     -1.974322      1.637097
  H       0.411460     -2.334948      0.191126
  H       1.371559     -0.162711      0.000012
  H       0.503258      0.287138      1.471025
  H      -0.788050     -0.528753     -1.165875
  H      -0.608355      1.132212     -0.578217
  H      -1.992301     -0.850198      0.853936
  O      -0.819125     -3.084949      3.360484
  C      -0.999399     -3.588277      2.334726
  O      -1.222911     -4.172495      1.361859
14
Coordinates from ORCA-job ./orca E -399.095293287119
  N       0.287770     -1.743662      1.002580
  C       0.445199     -0.344697      0.579747
  C      -0.728034      0.096963     -0.267463
  O      -1.957776      0.034636      0.450101
  H       1.046389     -1.973402      1.640077
  H       0.415642     -2.341149      0.184299
  H       1.362871     -0.175518      0.005466
  H       0.494427      0.275109      1.476488
  H      -0.792012     -0.523752     -1.166962
  H      -0.602325      1.133837     -0.573380
  H      -1.994181     -0.841708      0.842828
  O      -0.813807     -3.076756      3.362683
  C      -0.984245     -3.567774      2.324481
  O      -1.215979     -4.173010      1.362137
14
Coordinates from ORCA-job ./orca E -399.095478104461
  N       0.290293     -1.742182      1.000553
  C       0.449034     -0.343152      0.580813
  C      -0.727205      0.092457     -0.265453
  O      -1.959923      0.029048      0.452800
  H       1.045560     -1.975392      1.633217
  H       0.416068     -2.336030      0.189124
  H       1.366444     -0.173162      0.006606
  H       0.496851      0.276827      1.477622
  H      -0.789713     -0.529759     -1.164261
  H      -0.602365      1.128695     -0.573731
  H      -2.001489     -0.848476      0.849208
  O      -0.813577     -3.072589      3.355766
  C      -0.986843     -3.563431      2.321464
  O      -1.219196     -4.163735      1.359352
14
Coordinates from ORCA-job ./orca E -399.095512807779
  N       0.292952     -1.741785      0.999249
  C       0.451013     -0.342248      0.581768
  C      -0.727080      0.089780     -0.263992
  O      -1.960162      0.024381      0.454928
  H       1.047477     -1.978572      1.631322
  H       0.416506     -2.336530      0.188624
  H       1.368110     -0.170610      0.007755
  H       0.497735      0.277425      1.478740
  H      -0.789118     -0.532966     -1.162272
  H      -0.604903      1.126234     -0.572703
  H      -2.003795     -0.853148      0.851503
  O      -0.814214     -3.066582      3.351706
  C      -0.989406     -3.559568      2.319876
  O      -1.221175     -4.156693      1.356578
14
Coordinates from ORCA-job ./orca E -399.095545750282
  N       0.297612     -1.741973      0.997171
  C       0.453218     -0.341772      0.583040
  C      -0.727189      0.086524     -0.261742
  O      -1.959581      0.017167      0.458274
  H       1.051075     -1.984131      1.628822
  H       0.416990     -2.338552      0.186907
  H       1.369844     -0.166395      0.009462
  H       0.498192      0.276597      1.480853
  H      -0.788702     -0.536261     -1.159779
  H      -0.609863      1.123770     -0.569784
  H      -2.004853     -0.861100      0.852537
  O      -0.815562     -3.055219      3.346675
  C      -0.993521     -3.553227      2.318219
  O      -1.223722     -4.146308      1.352427
14
Coordinates from ORCA-job ./orca E -399.095565508650
  N       0.300033     -1.742650      0.996023
  C       0.453632     -0.342327      0.583293
  C      -0.727509      0.085724     -0.260639
  O      -1.959026      0.014201      0.460010
  H       1.052953     -1.986428      1.627829
  H       0.417276     -2.339816      0.185559
  H       1.369984     -0.164429      0.009865
  H       0.497906      0.274909      1.481943
  H      -0.788787     -0.536482     -1.159104
  H      -0.612147      1.123470     -0.567667
  H      -2.003741     -0.865109      0.851658
  O      -0.817086     -3.049092      3.345191
  C      -0.995380     -3.550197      2.317958
  O      -1.224170     -4.142655      1.351164
14
Coordinates from ORCA-job ./orca E -399.095572620218
  N       0.302046     -1.743548      0.994864
  C       0.453703     -0.343147      0.583242
  C      -0.727942      0.085493     -0.259654
  O      -1.958716      0.012014      0.461527
  H       1.054582     -1.987660      1.626960
  H       0.417782     -2.340672      0.184016
  H       1.369690     -0.162897      0.009741
  H       0.497623      0.272983      1.482758
  H      -0.788911     -0.535792     -1.158866
  H      -0.613586      1.123655     -0.565548
  H      -2.002024     -0.868507      0.850476
  O      -0.819354     -3.044191      3.344532
  C      -0.996837     -3.547721      2.318003
  O      -1.224117     -4.140891      1.351030
14
Coordinates from ORCA-job ./orca E -399.095576331027
  N       0.304140     -1.744578      0.993433
  C       0.453870     -0.343936      0.583124
  C      -0.728435      0.085283     -0.258546
  O      -1.958655      0.009506      0.463117
  H       1.056447     -1.988521      1.625744
  H       0.418795     -2.341232      0.182101
  H       1.369331     -0.161358      0.009353
  H       0.497611      0.271084      1.483496
  H      -0.788982     -0.534760     -1.158731
  H      -0.614869      1.123902     -0.563105
  H      -2.000173     -0.872236      0.849513
  O      -0.822550     -3.039372      3.344005
  C      -0.998460     -3.544979      2.318053
  O      -1.224129     -4.139687      1.351524
14
Coordinates from ORCA-job ./orca E -399.095595386410
  N       0.308553     -1.746679      0.990182
  C       0.454517     -0.345218      0.582985
  C      -0.729409      0.084581     -0.256168
  O      -1.958749      0.003523      0.466327
  H       1.060743     -1.990247      1.622541
  H       0.421691     -2.341972      0.177772
  H       1.368788     -0.158172      0.008552
  H       0.497960      0.267573      1.485005
  H      -0.788985     -0.532658     -1.158452
  H      -0.617739      1.124259     -0.557729
  H      -1.996605     -0.880394      0.848254
  O      -0.829901     -3.029443      3.342836
  C      -1.002174     -3.538806      2.318002
  O      -1.224750     -4.137229      1.352974
14
Coordinates from ORCA-job ./orca E -399.095567707841
  N       0.316988     -1.750582      0.983706
  C       0.456108     -0.347132      0.582952
  C      -0.731130      0.082816     -0.251620
  O      -1.959022     -0.009128      0.472116
  H       1.069577     -1.993909      1.615370
  H       0.428298     -2.342930      0.169148
  H       1.368143     -0.152206      0.007382
  H       0.498894      0.261394      1.487985
  H      -0.788729     -0.528774     -1.157963
  H      -0.623901      1.124743     -0.546928
  H      -1.990267     -0.896510      0.846777
  O      -0.844273     -3.010245      3.340334
  C      -1.009720     -3.526288      2.317703
  O      -1.227027     -4.132131      1.356120
14
Coordinates from ORCA-job ./orca E -399.095579571230
  N       0.326195     -1.754786      0.976272
  C       0.458092     -0.348673      0.583335
  C      -0.732823      0.080342     -0.246713
  O      -1.959397     -0.024308      0.477799
  H       1.080158     -1.998498      1.605983
  H       0.436802     -2.343243      0.159002
  H       1.367884     -0.145719      0.006965
  H       0.499697      0.254986      1.491668
  H      -0.787956     -0.524865     -1.157479
  H      -0.631453      1.124923     -0.534685
  H      -1.983780     -0.914588      0.846274
  O      -0.859797     -2.988958      3.337423
  C      -1.018446     -3.511662      2.317227
  O      -1.231236     -4.125833      1.360010
14
Coordinates from ORCA-job ./orca E -399.095596922908
  N       0.334525     -1.758619      0.969005
  C       0.460112     -0.349410      0.584272
  C      -0.734091      0.077354     -0.242428
  O      -1.959808     -0.039591      0.482098
  H       1.091086     -2.003461      1.595248
  H       0.446493     -2.342318      0.148562
  H       1.368284     -0.139816      0.007954
  H       0.499810      0.249423      1.495725
  H      -0.786578     -0.522015     -1.157068
  H      -0.639364      1.124535     -0.523285
  H      -1.978535     -0.931267      0.847684
  O      -0.873623     -2.969063      3.334608
  C      -1.027034     -3.497263      2.316635
  O      -1.237338     -4.119370      1.364072
14
Coordinates from ORCA-job ./orca E -399.095612723261
  N       0.342273     -1.762355      0.961937
  C       0.461879     -0.349767      0.585832
  C      -0.735008      0.073869     -0.238685
  O      -1.960052     -0.054684      0.485246
  H       1.102433     -2.009278      1.583342
  H       0.456924     -2.340331      0.137597
  H       1.369229     -0.134040      0.010833
  H       0.498467      0.243946      1.500547
  H      -0.784543     -0.520507     -1.156560
  H      -0.647763      1.123493     -0.512936
  H      -1.974174     -0.946587      0.850421
  O      -0.884852     -2.949494      3.331525
  C      -1.035529     -3.483071      2.316053
  O      -1.245344     -4.112075      1.367929
14
Coordinates from ORCA-job ./orca E -399.095622606495
  N       0.350604     -1.766769      0.954561
  C       0.463157     -0.351015      0.587437
  C      -0.736192      0.070579     -0.234514
  O      -1.960205     -0.069816      0.488765
  H       1.113905     -2.015540      1.571630
  H       0.466769     -2.338916      0.126094
  H       1.369655     -0.127569      0.014197
  H       0.496260      0.236904      1.505951
  H      -0.782499     -0.518448     -1.155950
  H      -0.656102      1.122544     -0.501919
  H      -1.968908     -0.962811      0.851227
  O      -0.895160     -2.927778      3.327819
  C      -1.044014     -3.468263      2.315735
  O      -1.253331     -4.103983      1.372048
14
Coordinates from ORCA-job ./orca E -399.095635431398
  N       0.358485     -1.771589      0.947143
  C       0.463907     -0.352700      0.589552
  C      -0.737226      0.067198     -0.230478
  O      -1.960542     -0.084362      0.491509
  H       1.125316     -2.021917      1.559433
  H       0.476406     -2.336537      0.113639
  H       1.370049     -0.120869      0.019189
  H       0.492558      0.228917      1.512232
  H      -0.779757     -0.516799     -1.155325
  H      -0.663862      1.121241     -0.491481
  H      -1.964116     -0.978469      0.851248
  O      -0.902302     -2.905644      3.323993
  C      -1.052092     -3.453726      2.315910
  O      -1.262883     -4.095626      1.376519
14
Coordinates from ORCA-job ./orca E -399.095656774660
  N       0.370622     -1.779730      0.935452
  C       0.464440     -0.356153      0.593109
  C      -0.738976      0.062369     -0.224036
  O      -1.961423     -0.106074      0.495277
  H       1.142200     -2.031509      1.541348
  H       0.490547     -2.333372      0.094251
  H       1.369866     -0.110217      0.027573
  H       0.486143      0.215322      1.522407
  H      -0.775462     -0.513298     -1.154459
  H      -0.674676      1.119400     -0.475003
  H      -1.956923     -1.002796      0.848232
  O      -0.910466     -2.871199      3.317825
  C      -1.063698     -3.431312      2.316696
  O      -1.278254     -4.082314      1.384410
14
Coordinates from ORCA-job ./orca E -399.095683776201
  N       0.384964     -1.790454      0.920303
  C       0.464439     -0.361230      0.598353
  C      -0.740963      0.056576     -0.215994
  O      -1.963307     -0.132273      0.498404
  H       1.162025     -2.042781      1.518988
  H       0.507440     -2.329008      0.069409
  H       1.368951     -0.096987      0.039632
  H       0.477156      0.196987      1.535991
  H      -0.769418     -0.507917     -1.153667
  H      -0.686146      1.117049     -0.454178
  H      -1.949734     -1.033025      0.840812
  O      -0.915623     -2.829003      3.310514
  C      -1.076555     -3.403411      2.318574
  O      -1.299290     -4.065406      1.395939
14
Coordinates from ORCA-job ./orca E -399.095719238693
  N       0.411756     -1.810891      0.889965
  C       0.464070     -0.371728      0.608799
  C      -0.744856      0.045846     -0.200212
  O      -1.967050     -0.183026      0.502781
  H       1.198058     -2.064635      1.476117
  H       0.539080     -2.323269      0.023271
  H       1.366211     -0.073157      0.063698
  H       0.460554      0.159792      1.562026
  H      -0.758345     -0.494579     -1.152412
  H      -0.707697      1.112763     -0.411360
  H      -1.937302     -1.091648      0.822514
  O      -0.924300     -2.747886      3.295841
  C      -1.098721     -3.347543      2.321744
  O      -1.337518     -4.030919      1.420309
14
Coordinates from ORCA-job ./orca E -399.095724001325
  N       0.433167     -1.836740      0.853947
  C       0.458044     -0.387869      0.628852
  C      -0.745229      0.034124     -0.185956
  O      -1.978151     -0.229903      0.490468
  H       1.229836     -2.084125      1.427882
  H       0.567591     -2.303734     -0.036333
  H       1.360194     -0.046862      0.108885
  H       0.428589      0.110167      1.599772
  H      -0.735095     -0.478794     -1.153424
  H      -0.715441      1.106318     -0.369640
  H      -1.944691     -1.151038      0.775570
  O      -0.881457     -2.672414      3.287582
  C      -1.109808     -3.291239      2.336003
  O      -1.403610     -3.988773      1.459473
14
Coordinates from ORCA-job ./orca E -399.095750752223
  N       0.447179     -1.846052      0.836551
  C       0.459248     -0.393558      0.633916
  C      -0.747324      0.029009     -0.175940
  O      -1.978241     -0.265038      0.491201
  H       1.248563     -2.100768      1.401452
  H       0.581685     -2.304043     -0.058765
  H       1.359761     -0.037316      0.121575
  H       0.423476      0.088276      1.612606
  H      -0.728829     -0.463926     -1.153403
  H      -0.733012      1.105273     -0.336428
  H      -1.936848     -1.191047      0.758264
  O      -0.890274     -2.624121      3.279819
  C      -1.120745     -3.254087      2.337178
  O      -1.420698     -3.963483      1.475053
14
Coordinates from ORCA-job ./orca E -399.095765770596
  N       0.432857     -1.829204      0.863991
  C       0.462654     -0.381596      0.622969
  C      -0.744684      0.040322     -0.187049
  O      -1.972826     -0.238714      0.486735
  H       1.227122     -2.095427      1.432949
  H       0.554035     -2.310782     -0.019376
  H       1.363478     -0.054721      0.092162
  H       0.444091      0.123966      1.589703
  H      -0.736352     -0.462357     -1.159053
  H      -0.727523      1.115573     -0.354619
  H      -1.943647     -1.162857      0.755868
  O      -0.891894     -2.686069      3.300770
  C      -1.107976     -3.292806      2.339300
  O      -1.395395     -3.986208      1.458733
14
Coordinates from ORCA-job ./orca E -399.095819306120
  N       0.445594     -1.844675      0.839811
  C       0.458830     -0.392231      0.636763
  C      -0.744475      0.032987     -0.177171
  O      -1.979449     -0.273071      0.475483
  H       1.245717     -2.110677      1.400308
  H       0.568384     -2.300357     -0.057306
  H       1.360059     -0.038563      0.123801
  H       0.423151      0.090274      1.614921
  H      -0.718519     -0.447526     -1.160127
  H      -0.735038      1.111510     -0.322272
  H      -1.950605     -1.206639      0.713848
  O      -0.857053     -2.638544      3.297505
  C      -1.112506     -3.252887      2.350472
  O      -1.440149     -3.950483      1.487046
14
Coordinates from ORCA-job ./orca E -399.095798998181
  N       0.468994     -1.873325      0.791043
  C       0.449855     -0.414665      0.664074
  C      -0.744416      0.018915     -0.158104
  O      -1.990596     -0.341636      0.449062
  H       1.278439     -2.143491      1.336182
  H       0.595398     -2.284007     -0.127970
  H       1.352107     -0.011378      0.190459
  H       0.380362      0.019479      1.663056
  H      -0.683364     -0.413746     -1.161396
  H      -0.753901      1.102785     -0.254523
  H      -1.964906     -1.290936      0.621748
  O      -0.783670     -2.549839      3.290536
  C      -1.115941     -3.169869      2.372115
  O      -1.524420     -3.869169      1.546799
14
Coordinates from ORCA-job ./orca E -399.095849945901
  N       0.456089     -1.858784      0.819969
  C       0.451179     -0.402582      0.649224
  C      -0.744922      0.028183     -0.171613
  O      -1.986150     -0.291136      0.460999
  H       1.258468     -2.123541      1.377895
  H       0.584274     -2.293591     -0.087215
  H       1.353342     -0.025559      0.154398
  H       0.398252      0.058796      1.636879
  H      -0.704432     -0.436781     -1.161547
  H      -0.737129      1.108621     -0.301117
  H      -1.962100     -1.231067      0.670857
  O      -0.813207     -2.610473      3.298031
  C      -1.109576     -3.223705      2.362213
  O      -1.480147     -3.919263      1.514109
14
Coordinates from ORCA-job ./orca E -399.095861318431
  N       0.456889     -1.859284      0.817791
  C       0.451086     -0.402902      0.650089
  C      -0.744812      0.028024     -0.170935
  O      -1.986289     -0.295484      0.459054
  H       1.259053     -2.127372      1.374456
  H       0.585694     -2.293300     -0.089671
  H       1.353958     -0.024578      0.157535
  H       0.396309      0.055601      1.638892
  H      -0.702140     -0.433901     -1.162190
  H      -0.739533      1.108987     -0.296686
  H      -1.964060     -1.236680      0.664247
  O      -0.808451     -2.607283      3.299490
  C      -1.109176     -3.219154      2.364086
  O      -1.484587     -3.913555      1.516924
14
Coordinates from ORCA-job ./orca E -399.095876882618
  N       0.461195     -1.864322      0.808456
  C       0.448007     -0.406787      0.654081
  C      -0.745466      0.026508     -0.168935
  O      -1.988405     -0.302978      0.453735
  H       1.261894     -2.135908      1.365785
  H       0.596255     -2.292759     -0.100896
  H       1.352284     -0.019566      0.171036
  H       0.385041      0.040759      1.647385
  H      -0.697065     -0.429128     -1.162834
  H      -0.742622      1.108323     -0.287634
  H      -1.969960     -1.246486      0.647293
  O      -0.790330     -2.595848      3.300120
  C      -1.107231     -3.205526      2.368599
  O      -1.499659     -3.897163      1.526891
14
Coordinates from ORCA-job ./orca E -399.095880634415
  N       0.461063     -1.864950      0.807129
  C       0.447226     -0.407304      0.654091
  C      -0.745682      0.026668     -0.169402
  O      -1.988890     -0.301606      0.453015
  H       1.259861     -2.136780      1.367116
  H       0.599980     -2.292774     -0.101935
  H       1.352006     -0.018984      0.172911
  H       0.382724      0.038667      1.648032
  H      -0.697182     -0.429439     -1.163089
  H      -0.742109      1.108424     -0.288499
  H      -1.971635     -1.245183      0.646035
  O      -0.785816     -2.596885      3.300694
  C      -1.106008     -3.205308      2.369358
  O      -1.501600     -3.895426      1.527627
14
Coordinates from ORCA-job ./orca E -399.095888014276
  N       0.460378     -1.867548      0.801816
  C       0.444790     -0.409383      0.653921
  C      -0.746464      0.027073     -0.170796
  O      -1.990480     -0.298286      0.451027
  H       1.251136     -2.139575      1.372977
  H       0.614438     -2.292029     -0.106372
  H       1.350954     -0.017099      0.178754
  H       0.375512      0.031543      1.649886
  H      -0.698011     -0.429865     -1.164132
  H      -0.740719      1.108694     -0.290540
  H      -1.975516     -1.242000      0.642921
  O      -0.770816     -2.599371      3.301585
  C      -1.102449     -3.204046      2.371585
  O      -1.508812     -3.888990      1.530450
14
Coordinates from ORCA-job ./orca E -399.095892592356
  N       0.458529     -1.866974      0.801740
  C       0.445285     -0.408915      0.651445
  C      -0.746984      0.027964     -0.171705
  O      -1.989837     -0.295709      0.453558
  H       1.244389     -2.138658      1.379725
  H       0.620025     -2.292518     -0.104626
  H       1.351453     -0.018565      0.174825
  H       0.377827      0.033591      1.646840
  H      -0.701417     -0.430547     -1.164449
  H      -0.740528      1.109397     -0.292953
  H      -1.972626     -1.238429      0.650263
  O      -0.774808     -2.601673      3.300798
  C      -1.102566     -3.207195      2.370059
  O      -1.504804     -3.892652      1.527563
14
Coordinates from ORCA-job ./orca E -399.095875114221
  N       0.455272     -1.866480      0.800130
  C       0.446351     -0.408539      0.648564
  C      -0.747336      0.029127     -0.172198
  O      -1.988828     -0.296678      0.455986
  H       1.233296     -2.138321      1.388383
  H       0.627266     -2.291632     -0.104441
  H       1.352275     -0.021052      0.169230
  H       0.382182      0.036161      1.643135
  H      -0.704353     -0.428135     -1.165595
  H      -0.741575      1.110716     -0.292094
  H      -1.966435     -1.238470      0.658014
  O      -0.779748     -2.601310      3.299060
  C      -1.103262     -3.209376      2.368708
  O      -1.501164     -3.896892      1.526200
14
Coordinates from ORCA-job ./orca E -399.095907578929
  N       0.454308     -1.867201      0.797643
  C       0.446378     -0.409031      0.648432
  C      -0.747411      0.029551     -0.171690
  O      -1.988688     -0.300412      0.455204
  H       1.229018     -2.140024      1.389664
  H       0.630143     -2.290766     -0.106900
  H       1.352160     -0.021679      0.168676
  H       0.382951      0.035042      1.643237
  H      -0.703589     -0.424334     -1.166570
  H      -0.743107      1.111556     -0.288145
  H      -1.962779     -1.242107      0.657875
  O      -0.779834     -2.596905      3.297589
  C      -1.103606     -3.207431      2.369113
  O      -1.502005     -3.897141      1.528954
14
Coordinates from ORCA-job ./orca E -399.095914432247
  N       0.453162     -1.868442      0.794200
  C       0.445639     -0.409864      0.649558
  C      -0.747165      0.030201     -0.171188
  O      -1.989122     -0.305597      0.451424
  H       1.225229     -2.143456      1.388518
  H       0.631365     -2.289199     -0.111129
  H       1.351669     -0.021745      0.170817
  H       0.381520      0.032023      1.645169
  H      -0.700219     -0.418567     -1.168225
  H      -0.744728      1.112790     -0.282469
  H      -1.959636     -1.247414      0.653592
  O      -0.775295     -2.591009      3.296462
  C      -1.102948     -3.204244      2.371219
  O      -1.505533     -3.896358      1.535132
14
Coordinates from ORCA-job ./orca E -399.095909606844
  N       0.451482     -1.871711      0.786538
  C       0.443476     -0.412229      0.652128
  C      -0.746864      0.031564     -0.170204
  O      -1.990332     -0.315218      0.443040
  H       1.219645     -2.151002      1.383774
  H       0.633924     -2.286882     -0.120483
  H       1.350448     -0.020994      0.177677
  H       0.376267      0.023234      1.650193
  H      -0.693111     -0.407161     -1.171365
  H      -0.747776      1.115219     -0.271220
  H      -1.953788     -1.256962      0.644874
  O      -0.765920     -2.576988      3.293645
  C      -1.101318     -3.196873      2.375748
  O      -1.512194     -3.894878      1.548734
14
Coordinates from ORCA-job ./orca E -399.095914953503
  N       0.449643     -1.871408      0.786662
  C       0.442913     -0.411935      0.652028
  C      -0.746547      0.032878     -0.171042
  O      -1.990434     -0.314610      0.440438
  H       1.217551     -2.152280      1.383455
  H       0.631182     -2.287055     -0.120244
  H       1.350495     -0.021459      0.178171
  H       0.375383      0.023173      1.650246
  H      -0.691545     -0.405031     -1.172535
  H      -0.747309      1.116610     -0.271110
  H      -1.951839     -1.255612      0.645181
  O      -0.765360     -2.576507      3.293676
  C      -1.100118     -3.198747      2.377021
  O      -1.510075     -3.898898      1.551135
14
Coordinates from ORCA-job ./orca E -399.095918374483
  N       0.446731     -1.871665      0.785843
  C       0.441568     -0.412193      0.652017
  C      -0.746029      0.034998     -0.172442
  O      -1.990801     -0.313039      0.436029
  H       1.215031     -2.154405      1.381402
  H       0.627019     -2.287817     -0.121156
  H       1.350606     -0.021502      0.181277
  H       0.372061      0.020851      1.651129
  H      -0.688998     -0.401803     -1.174394
  H      -0.745986      1.118822     -0.270974
  H      -1.949357     -1.252908      0.644964
  O      -0.764127     -2.574328      3.293879
  C      -1.097781     -3.200967      2.379666
  O      -1.505997     -3.904926      1.555842
14
Coordinates from ORCA-job ./orca E -399.095916573799
  N       0.444980     -1.872680      0.783655
  C       0.440579     -0.413043      0.652510
  C      -0.745598      0.036122     -0.172891
  O      -1.991168     -0.314109      0.432640
  H       1.212936     -2.156701      1.379071
  H       0.625686     -2.287551     -0.123916
  H       1.350694     -0.021226      0.184862
  H       0.369101      0.017615      1.652584
  H      -0.686653     -0.398309     -1.175785
  H      -0.745724      1.120169     -0.268683
  H      -1.947991     -1.253798      0.642143
  O      -0.761520     -2.570780      3.294136
  C      -1.096213     -3.200194      2.382174
  O      -1.505168     -3.906396      1.560580
14
Coordinates from ORCA-job ./orca E -399.095917935860
  N       0.442078     -1.874466      0.779976
  C       0.439100     -0.414484      0.653440
  C      -0.744763      0.037875     -0.173448
  O      -1.991614     -0.316363      0.427329
  H       1.209572     -2.160645      1.374933
  H       0.623168     -2.286759     -0.128753
  H       1.350955     -0.021093      0.190596
  H       0.364671      0.012700      1.654872
  H      -0.682910     -0.392274     -1.178017
  H      -0.745429      1.122316     -0.264326
  H      -1.945996     -1.256094      0.636393
  O      -0.757877     -2.564979      3.295215
  C      -1.093679     -3.198543      2.386557
  O      -1.503336     -3.908073      1.568315
14
Coordinates from ORCA-job ./orca E -399.095917737436
  N       0.439901     -1.875784      0.777399
  C       0.438110     -0.415484      0.654301
  C      -0.744063      0.039102     -0.173697
  O      -1.991883     -0.318172      0.423566
  H       1.207161     -2.163645      1.371839
  H       0.620998     -2.285734     -0.132390
  H       1.351146     -0.021468      0.194323
  H       0.361979      0.009695      1.656466
  H      -0.680206     -0.387678     -1.179554
  H      -0.745236      1.123846     -0.260831
  H      -1.944937     -1.258208      0.631153
  O      -0.755669     -2.561065      3.296626
  C      -1.091779     -3.197279      2.389987
  O      -1.501582     -3.909007      1.573894
14
Coordinates from ORCA-job ./orca E -399.095922150556
  N       0.439015     -1.876312      0.776599
  C       0.437771     -0.415818      0.654845
  C      -0.743713      0.039595     -0.173637
  O      -1.991982     -0.318728      0.422178
  H       1.206521     -2.165010      1.370307
  H       0.619493     -2.285052     -0.133815
  H       1.351180     -0.022038      0.195366
  H       0.361373      0.008977      1.657110
  H      -0.679143     -0.385791     -1.180012
  H      -0.745044      1.124467     -0.259324
  H      -1.945103     -1.259158      0.627976
  O      -0.755505     -2.559758      3.297859
  C      -1.090908     -3.196862      2.391627
  O      -1.500014     -3.909395      1.576003
14
Coordinates from ORCA-job ./orca E -399.094972731226
  N       0.431658     -1.885263      0.786367
  C       0.432705     -0.420630      0.660517
  C      -0.745950      0.037412     -0.171065
  O      -1.996096     -0.312729      0.421269
  H       1.213963     -2.165998      1.376473
  H       0.621830     -2.288917     -0.141308
  H       1.346864     -0.031147      0.198847
  H       0.357940      0.011713      1.658882
  H      -0.682112     -0.391433     -1.176026
  H      -0.741857      1.122067     -0.259582
  H      -1.949895     -1.252147      0.626626
  O      -0.753639     -2.556031      3.296469
  C      -1.075348     -3.180732      2.374863
  O      -1.496124     -3.907047      1.570749
14
Coordinates from ORCA-job ./orca E -399.095233153820
  N       0.431858     -1.884275      0.784830
  C       0.433187     -0.421724      0.660487
  C      -0.745017      0.036315     -0.171185
  O      -1.996579     -0.314781      0.421183
  H       1.209753     -2.165216      1.369003
  H       0.617939     -2.282804     -0.128860
  H       1.347897     -0.033325      0.199807
  H       0.358040      0.007819      1.660672
  H      -0.679760     -0.391103     -1.176765
  H      -0.740226      1.121079     -0.258826
  H      -1.954612     -1.255833      0.624870
  O      -0.749804     -2.554089      3.292887
  C      -1.074333     -3.179843      2.374018
  O      -1.494404     -3.903101      1.570961
14
Coordinates from ORCA-job ./orca E -399.095255664098
  N       0.432663     -1.884099      0.784452
  C       0.433051     -0.421965      0.661223
  C      -0.744860      0.035952     -0.170822
  O      -1.996724     -0.315872      0.421185
  H       1.210084     -2.166628      1.368505
  H       0.615871     -2.284160     -0.128988
  H       1.348087     -0.033244      0.201361
  H       0.357140      0.005971      1.662125
  H      -0.678850     -0.390719     -1.176581
  H      -0.740644      1.120742     -0.257912
  H      -1.956782     -1.257360      0.623183
  O      -0.747678     -2.550849      3.290914
  C      -1.074155     -3.178446      2.374041
  O      -1.493263     -3.900204      1.570395
14
Coordinates from ORCA-job ./orca E -399.095296899787
  N       0.435165     -1.884055      0.783362
  C       0.432886     -0.422726      0.663404
  C      -0.744494      0.034825     -0.169362
  O      -1.996760     -0.318731      0.421172
  H       1.211096     -2.171243      1.367159
  H       0.609677     -2.288939     -0.130131
  H       1.348341     -0.031501      0.206081
  H       0.354448      0.000825      1.665996
  H      -0.676794     -0.390099     -1.175604
  H      -0.742271      1.119694     -0.254930
  H      -1.961466     -1.261425      0.617519
  O      -0.741736     -2.540834      3.285630
  C      -1.073712     -3.174045      2.374539
  O      -1.490441     -3.892628      1.568249
14
Coordinates from ORCA-job ./orca E -399.095300893771
  N       0.435673     -1.884234      0.783030
  C       0.433019     -0.423014      0.663786
  C      -0.744466      0.034575     -0.168859
  O      -1.996677     -0.319154      0.421219
  H       1.211311     -2.172289      1.366687
  H       0.608192     -2.289875     -0.130462
  H       1.348214     -0.030404      0.207038
  H       0.354007     -0.000095      1.666592
  H      -0.676649     -0.390228     -1.175185
  H      -0.742497      1.119473     -0.254208
  H      -1.961572     -1.262188      0.615922
  O      -0.740983     -2.538717      3.284833
  C      -1.073605     -3.173018      2.374803
  O      -1.490027     -3.891713      1.567885
14
Coordinates from ORCA-job ./orca E -399.095296882504
  N       0.435995     -1.884418      0.782687
  C       0.433196     -0.423328      0.664016
  C      -0.744471      0.034443     -0.168397
  O      -1.996639     -0.319497      0.421294
  H       1.211515     -2.173036      1.366119
  H       0.606967     -2.290392     -0.130898
  H       1.348032     -0.029347      0.207656
  H       0.353865     -0.000673      1.666926
  H      -0.676602     -0.390268     -1.174811
  H      -0.742485      1.119372     -0.253532
  H      -1.961232     -1.262850      0.614472
  O      -0.741027     -2.537182      3.284490
  C      -1.073510     -3.172205      2.375051
  O      -1.489665     -3.891501      1.568008
14
Coordinates from ORCA-job ./orca E -399.095300699007
  N       0.436113     -1.884492      0.782486
  C       0.433269     -0.423498      0.664102
  C      -0.744468      0.034447     -0.168197
  O      -1.996648     -0.319731      0.421325
  H       1.211671     -2.173362      1.365710
  H       0.606390     -2.290496     -0.131191
  H       1.347952     -0.028980      0.207858
  H       0.353905     -0.000916      1.667058
  H      -0.676537     -0.390096     -1.174690
  H      -0.742416      1.119392     -0.253105
  H      -1.961052     -1.263243      0.613759
  O      -0.741431     -2.536445      3.284460
  C      -1.073460     -3.171827      2.375152
  O      -1.489349     -3.891635      1.568355
14
Coordinates from ORCA-job ./orca E -399.094322115435
  N       0.431146     -1.893342      0.791996
  C       0.429488     -0.428421      0.670271
  C      -0.746752      0.031098     -0.165083
  O      -2.004058     -0.312699      0.419992
  H       1.221047     -2.174747      1.372163
  H       0.611532     -2.294380     -0.138887
  H       1.345076     -0.038242      0.212089
  H       0.352114      0.002379      1.669027
  H      -0.678932     -0.397794     -1.169749
  H      -0.738299      1.115702     -0.254191
  H      -1.976630     -1.255313      0.615606
  O      -0.739720     -2.532018      3.281652
  C      -1.057386     -3.154920      2.356860
  O      -1.484687     -3.888185      1.561333
14
Coordinates from ORCA-job ./orca E -399.094577042188
  N       0.430997     -1.892667      0.790482
  C       0.428958     -0.429784      0.669981
  C      -0.745793      0.030215     -0.165613
  O      -2.002156     -0.314122      0.420769
  H       1.216495     -2.173729      1.364490
  H       0.607138     -2.288612     -0.126351
  H       1.344815     -0.039758      0.213133
  H       0.350640     -0.002233      1.670791
  H      -0.677838     -0.397663     -1.170701
  H      -0.737116      1.114888     -0.253493
  H      -1.976114     -1.257828      0.612723
  O      -0.736405     -2.530335      3.278529
  C      -1.056557     -3.154339      2.356200
  O      -1.483126     -3.884914      1.562140
14
Coordinates from ORCA-job ./orca E -399.094601456297
  N       0.431614     -1.892566      0.790018
  C       0.428533     -0.430092      0.670642
  C      -0.745652      0.029999     -0.165335
  O      -2.001728     -0.315088      0.421186
  H       1.216901     -2.174986      1.363680
  H       0.604531     -2.290035     -0.126706
  H       1.344745     -0.039316      0.214919
  H       0.349059     -0.004501      1.672291
  H      -0.677260     -0.397220     -1.170633
  H      -0.737330      1.114726     -0.252680
  H      -1.976437     -1.259381      0.610411
  O      -0.734550     -2.527084      3.276849
  C      -1.056393     -3.152941      2.356348
  O      -1.482095     -3.882397      1.562092
14
Coordinates from ORCA-job ./orca E -399.094633289586
  N       0.433678     -1.892588      0.788522
  C       0.428067     -0.430938      0.672769
  C      -0.745284      0.029263     -0.163857
  O      -2.001042     -0.318741      0.421742
  H       1.218293     -2.179446      1.360884
  H       0.596330     -2.294839     -0.128412
  H       1.344901     -0.036982      0.220455
  H       0.345187     -0.010685      1.676447
  H      -0.675316     -0.395665     -1.169936
  H      -0.738617      1.114148     -0.249256
  H      -1.977520     -1.264679      0.602615
  O      -0.729111     -2.516347      3.272234
  C      -1.055954     -3.148004      2.357289
  O      -1.479672     -3.875378      1.561586
14
Coordinates from ORCA-job ./orca E -399.094634940570
  N       0.434187     -1.892764      0.788049
  C       0.428374     -0.431211      0.673280
  C      -0.745190      0.029101     -0.163176
  O      -2.001102     -0.320144      0.421377
  H       1.218766     -2.180830      1.359763
  H       0.594018     -2.295882     -0.128938
  H       1.345005     -0.036020      0.221640
  H       0.344958     -0.011726      1.677230
  H      -0.674675     -0.394968     -1.169588
  H      -0.739249      1.114057     -0.247646
  H      -1.977588     -1.266472      0.600134
  O      -0.728325     -2.513440      3.271442
  C      -1.055879     -3.146438      2.357796
  O      -1.479361     -3.874144      1.561717
14
Coordinates from ORCA-job ./orca E -399.094635062286
  N       0.434562     -1.892980      0.787607
  C       0.428770     -0.431537      0.673659
  C      -0.745105      0.029028     -0.162488
  O      -2.001214     -0.321574      0.420816
  H       1.219316     -2.182006      1.358482
  H       0.592023     -2.296466     -0.129553
  H       1.345035     -0.035187      0.222322
  H       0.345278     -0.012281      1.677709
  H      -0.674029     -0.394087     -1.169284
  H      -0.739858      1.114068     -0.245812
  H      -1.977398     -1.268205      0.597908
  O      -0.728517     -2.511002      3.271123
  C      -1.055869     -3.145025      2.358308
  O      -1.479054     -3.873627      1.562283
14
Coordinates from ORCA-job ./orca E -399.094641697713
  N       0.434754     -1.893123      0.787323
  C       0.428958     -0.431785      0.673860
  C      -0.745051      0.029035     -0.162090
  O      -2.001242     -0.322493      0.420457
  H       1.219804     -2.182668      1.357482
  H       0.590833     -2.296601     -0.130041
  H       1.344983     -0.034823      0.222541
  H       0.345619     -0.012570      1.677954
  H      -0.673585     -0.393373     -1.169167
  H      -0.740182      1.114136     -0.244553
  H      -1.977117     -1.269279      0.596675
  O      -0.729269     -2.509501      3.271122
  C      -1.055909     -3.144187      2.358585
  O      -1.478658     -3.873648      1.562933
14
Coordinates from ORCA-job ./orca E -399.093637241518
  N       0.429752     -1.901837      0.796819
  C       0.425188     -0.436603      0.680052
  C      -0.747325      0.025653     -0.158989
  O      -2.008575     -0.315595      0.419159
  H       1.229256     -2.184235      1.364024
  H       0.595803     -2.300476     -0.137840
  H       1.342158     -0.043954      0.226856
  H       0.343754     -0.009148      1.679951
  H      -0.675927     -0.401141     -1.164230
  H      -0.736152      1.110404     -0.245672
  H      -1.992558     -1.261477      0.598604
  O      -0.727576     -2.505035      3.268265
  C      -1.039726     -3.127344      2.340202
  O      -1.474134     -3.870093      1.555880
14
Coordinates from ORCA-job ./orca E -399.093895574847
  N       0.429979     -1.901204      0.795370
  C       0.424641     -0.438013      0.679729
  C      -0.746460      0.024676     -0.159503
  O      -2.006715     -0.316614      0.420207
  H       1.224709     -2.182913      1.356325
  H       0.592027     -2.294747     -0.125137
  H       1.341804     -0.045561      0.227708
  H       0.342402     -0.013829      1.681688
  H      -0.675154     -0.401342     -1.165081
  H      -0.734866      1.109470     -0.245227
  H      -1.992312     -1.263440      0.596147
  O      -0.724899     -2.503437      3.265070
  C      -1.038926     -3.126815      2.339215
  O      -1.472289     -3.867113      1.556571
14
Coordinates from ORCA-job ./orca E -399.093919408884
  N       0.430870     -1.901138      0.794938
  C       0.424234     -0.438340      0.680353
  C      -0.746383      0.024385     -0.159173
  O      -2.006331     -0.317297      0.420892
  H       1.225446     -2.184038      1.355579
  H       0.589718     -2.296188     -0.125477
  H       1.341675     -0.045132      0.229313
  H       0.340948     -0.016099      1.683135
  H      -0.674827     -0.401154     -1.164896
  H      -0.734967      1.109219     -0.244570
  H      -1.992939     -1.264648      0.594109
  O      -0.723610     -2.500167      3.263341
  C      -1.038811     -3.125411      2.339108
  O      -1.471086     -3.864876      1.556429
14
Coordinates from ORCA-job ./orca E -399.093948374909
  N       0.433745     -1.901261      0.793517
  C       0.423896     -0.439260      0.682368
  C      -0.746168      0.023399     -0.157462
  O      -2.005713     -0.320276      0.422349
  H       1.227893     -2.188098      1.352747
  H       0.582267     -2.300968     -0.126987
  H       1.341691     -0.042821      0.234287
  H       0.337541     -0.022311      1.687152
  H      -0.673611     -0.400294     -1.163809
  H      -0.735935      1.108361     -0.241418
  H      -1.995028     -1.269184      0.586746
  O      -0.719875     -2.489215      3.258576
  C      -1.038546     -3.120337      2.339311
  O      -1.468217     -3.858617      1.555705
14
Coordinates from ORCA-job ./orca E -399.093950209828
  N       0.434587     -1.901475      0.792997
  C       0.424300     -0.439609      0.682963
  C      -0.746084      0.023118     -0.156556
  O      -2.005722     -0.321819      0.422340
  H       1.228835     -2.189592      1.351310
  H       0.579686     -2.302222     -0.127520
  H       1.341805     -0.041736      0.235552
  H       0.337382     -0.023630      1.688101
  H      -0.673085     -0.399648     -1.163265
  H      -0.736611      1.108155     -0.239529
  H      -1.995507     -1.271248      0.583618
  O      -0.719370     -2.485607      3.257554
  C      -1.038540     -3.118377      2.339706
  O      -1.467737     -3.857191      1.555811
14
Coordinates from ORCA-job ./orca E -399.093958928818
  N       0.435351     -1.901775      0.792465
  C       0.424916     -0.440068      0.683511
  C      -0.745987      0.022908     -0.155465
  O      -2.005773     -0.323740      0.422095
  H       1.230053     -2.191078      1.349368
  H       0.577028     -2.303094     -0.128224
  H       1.341891     -0.040655      0.236414
  H       0.337920     -0.024515      1.688833
  H      -0.672449     -0.398618     -1.162671
  H      -0.737443      1.108053     -0.236978
  H      -1.995774     -1.273732      0.579980
  O      -0.719846     -2.482027      3.257011
  C      -1.038632     -3.116260      2.340258
  O      -1.467315     -3.856281      1.556483
14
Coordinates from ORCA-job ./orca E -399.093958824701
  N       0.435832     -1.902012      0.792141
  C       0.425293     -0.440445      0.683834
  C      -0.745934      0.022834     -0.154726
  O      -2.005767     -0.325097      0.421940
  H       1.231159     -2.191957      1.347747
  H       0.575339     -2.303367     -0.128808
  H       1.341874     -0.040150      0.236680
  H       0.338559     -0.024976      1.689232
  H      -0.671994     -0.397690     -1.162332
  H      -0.737970      1.108065     -0.235036
  H      -1.995841     -1.275463      0.577478
  O      -0.720988     -2.479695      3.256976
  C      -1.038771     -3.114868      2.340621
  O      -1.466851     -3.856061      1.557334
14
Coordinates from ORCA-job ./orca E -399.093951342975
  N       0.436869     -1.902530      0.791533
  C       0.425879     -0.441220      0.684489
  C      -0.745842      0.022688     -0.153313
  O      -2.005714     -0.327570      0.421840
  H       1.233872     -2.193533      1.344127
  H       0.572163     -2.303611     -0.130115
  H       1.341749     -0.039480      0.237046
  H       0.339824     -0.025986      1.690075
  H      -0.671139     -0.395838     -1.161691
  H      -0.738812      1.108072     -0.231290
  H      -1.996110     -1.278678      0.572807
  O      -0.724200     -2.474981      3.257081
  C      -1.039126     -3.112175      2.341199
  O      -1.465475     -3.856039      1.559294
14
Coordinates from ORCA-job ./orca E -399.093957008186
  N       0.437994     -1.903096      0.791013
  C       0.426234     -0.441922      0.685131
  C      -0.745794      0.022492     -0.152070
  O      -2.005632     -0.329471      0.422081
  H       1.236962     -2.194778      1.340389
  H       0.569499     -2.303641     -0.131397
  H       1.341604     -0.039213      0.237381
  H       0.340754     -0.027195      1.690999
  H      -0.670500     -0.394317     -1.161107
  H      -0.739349      1.108005     -0.228160
  H      -1.996655     -1.281186      0.568971
  O      -0.727960     -2.470397      3.257146
  C      -1.039530     -3.109774      2.341533
  O      -1.463687     -3.856390      1.561173
14
Coordinates from ORCA-job ./orca E -399.093965280515
  N       0.438922     -1.903570      0.790739
  C       0.426275     -0.442310      0.685605
  C      -0.745797      0.022245     -0.151364
  O      -2.005603     -0.330006      0.422649
  H       1.239595     -2.195250      1.337681
  H       0.568258     -2.303492     -0.132283
  H       1.341518     -0.039366      0.237750
  H       0.340932     -0.028287      1.691770
  H      -0.670360     -0.393878     -1.160655
  H      -0.739334      1.107805     -0.226851
  H      -1.997552     -1.282040      0.567347
  O      -0.731015     -2.467316      3.256985
  C      -1.039860     -3.108415      2.341487
  O      -1.462039     -3.857002      1.562219
14
Coordinates from ORCA-job ./orca E -399.093962032918
  N       0.440282     -1.904311      0.790420
  C       0.426313     -0.442796      0.686212
  C      -0.745828      0.021802     -0.150437
  O      -2.005600     -0.330113      0.423803
  H       1.243285     -2.195575      1.334262
  H       0.567144     -2.303412     -0.133352
  H       1.341496     -0.039667      0.238426
  H       0.340875     -0.029949      1.692832
  H      -0.670578     -0.393854     -1.159906
  H      -0.739100      1.107391     -0.225668
  H      -1.999274     -1.282533      0.565815
  O      -0.735121     -2.463023      3.256239
  C      -1.040358     -3.106789      2.341231
  O      -1.459595     -3.858053      1.563205
14
Coordinates from ORCA-job ./orca E -399.093957805271
  N       0.440635     -1.904537      0.790463
  C       0.426262     -0.442827      0.686316
  C      -0.745859      0.021564     -0.150361
  O      -2.005652     -0.329309      0.424459
  H       1.244196     -2.195183      1.333854
  H       0.567723     -2.303329     -0.133436
  H       1.341561     -0.039832      0.238739
  H       0.340491     -0.030351      1.693050
  H      -0.671067     -0.394711     -1.159605
  H      -0.738721      1.107107     -0.226362
  H      -2.000204     -1.281711      0.566538
  O      -0.735865     -2.462413      3.255637
  C      -1.040526     -3.106842      2.340911
  O      -1.459034     -3.858505      1.562879
14
Coordinates from ORCA-job ./orca E -399.092950705793
  N       0.435460     -1.912837      0.799977
  C       0.423322     -0.447492      0.693260
  C      -0.748018      0.017959     -0.146718
  O      -2.014315     -0.323487      0.419994
  H       1.254018     -2.198430      1.339393
  H       0.570461     -2.306249     -0.141819
  H       1.339014     -0.047733      0.243571
  H       0.339035     -0.027480      1.696041
  H      -0.672567     -0.401831     -1.154464
  H      -0.734797      1.103273     -0.225413
  H      -2.017292     -1.275712      0.562942
  O      -0.730825     -2.458506      3.255522
  C      -1.023211     -3.089489      2.323748
  O      -1.456345     -3.852868      1.557046
14
Coordinates from ORCA-job ./orca E -399.093226788302
  N       0.436284     -1.912453      0.798708
  C       0.422315     -0.448971      0.692517
  C      -0.747305      0.016965     -0.147540
  O      -2.011844     -0.323094      0.423237
  H       1.248748     -2.195813      1.332917
  H       0.569293     -2.301376     -0.128437
  H       1.338214     -0.049700      0.244012
  H       0.337446     -0.031645      1.697160
  H      -0.672747     -0.403328     -1.155148
  H      -0.733137      1.102227     -0.226769
  H      -2.017337     -1.275601      0.563403
  O      -0.729542     -2.457511      3.250476
  C      -1.022672     -3.089612      2.321814
  O      -1.453776     -3.850969      1.556733
14
Coordinates from ORCA-job ./orca E -399.093254653451
  N       0.437618     -1.912447      0.798432
  C       0.421770     -0.449336      0.692901
  C      -0.747375      0.016510     -0.147322
  O      -2.011318     -0.322532      0.425351
  H       1.249543     -2.196148      1.333309
  H       0.568575     -2.303119     -0.128226
  H       1.338045     -0.049477      0.245397
  H       0.335934     -0.033643      1.698233
  H      -0.673314     -0.404316     -1.154703
  H      -0.732866      1.101699     -0.227466
  H      -2.018972     -1.275376      0.562952
  O      -0.728681     -2.454682      3.247676
  C      -1.022688     -3.088704      2.320941
  O      -1.452330     -3.849311      1.555606
14
Coordinates from ORCA-job ./orca E -399.093280076617
  N       0.441570     -1.912616      0.797647
  C       0.421380     -0.450275      0.694367
  C      -0.747545      0.014965     -0.145782
  O      -2.010683     -0.322098      0.430027
  H       1.252189     -2.198086      1.333592
  H       0.565474     -2.308286     -0.128196
  H       1.338143     -0.047620      0.249685
  H       0.332688     -0.038943      1.701298
  H      -0.674596     -0.406692     -1.152814
  H      -0.732779      1.100005     -0.227715
  H      -2.024792     -1.276113      0.558151
  O      -0.724902     -2.445836      3.241059
  C      -1.022556     -3.085159      2.319353
  O      -1.449652     -3.844127      1.552409
14
Coordinates from ORCA-job ./orca E -399.093305494350
  N       0.442875     -1.912812      0.797397
  C       0.421936     -0.450647      0.695005
  C      -0.747541      0.014411     -0.144714
  O      -2.010863     -0.322824      0.430656
  H       1.253400     -2.199288      1.332852
  H       0.563749     -2.309689     -0.128269
  H       1.338289     -0.046399      0.250942
  H       0.332590     -0.040280      1.702275
  H      -0.674770     -0.406921     -1.151883
  H      -0.733124      1.099488     -0.226336
  H      -2.027362     -1.277462      0.553600
  O      -0.723187     -2.442942      3.239995
  C      -1.022352     -3.083411      2.319540
  O      -1.449702     -3.842103      1.552021
14
Coordinates from ORCA-job ./orca E -399.093284061156
  N       0.444213     -1.913096      0.797229
  C       0.422805     -0.451158      0.695742
  C      -0.747498      0.013886     -0.143302
  O      -2.011192     -0.324100      0.430838
  H       1.255073     -2.200714      1.331398
  H       0.561693     -2.310678     -0.128467
  H       1.338330     -0.044978      0.251811
  H       0.333286     -0.041255      1.703207
  H      -0.674753     -0.406659     -1.150795
  H      -0.733594      1.099060     -0.223866
  H      -2.030530     -1.279563      0.546626
  O      -0.721562     -2.440417      3.239984
  C      -1.022019     -3.081318      2.320229
  O      -1.450313     -3.839889      1.552447
14
Coordinates from ORCA-job ./orca E -399.093286839305
  N       0.445468     -1.913384      0.797204
  C       0.423456     -0.451687      0.696328
  C      -0.747509      0.013463     -0.142086
  O      -2.011435     -0.325012      0.431261
  H       1.256945     -2.201694      1.329975
  H       0.560391     -2.311188     -0.128660
  H       1.338179     -0.044017      0.252084
  H       0.334230     -0.041862      1.703878
  H      -0.674852     -0.406418     -1.149846
  H      -0.733814      1.098711     -0.221681
  H      -2.033670     -1.281185      0.540246
  O      -0.720948     -2.438760      3.240442
  C      -1.021745     -3.079610      2.320790
  O      -1.450757     -3.838238      1.553147
14
Coordinates from ORCA-job ./orca E -399.093286756427
  N       0.448709     -1.914101      0.797305
  C       0.424639     -0.452938      0.697584
  C      -0.747666      0.012364     -0.139453
  O      -2.011887     -0.326239      0.433212
  H       1.261905     -2.203298      1.326829
  H       0.558600     -2.312068     -0.129008
  H       1.337657     -0.042349      0.252301
  H       0.336386     -0.043186      1.705300
  H      -0.675550     -0.406541     -1.147596
  H      -0.733880      1.097715     -0.217554
  H      -2.041647     -1.283779      0.526702
  O      -0.720833     -2.435425      3.241448
  C      -1.021246     -3.076033      2.321528
  O      -1.451246     -3.835003      1.554482
14
Coordinates from ORCA-job ./orca E -399.093290564411
  N       0.452219     -1.914853      0.797596
  C       0.425396     -0.454061      0.698632
  C      -0.747992      0.011098     -0.137256
  O      -2.012249     -0.325939      0.436290
  H       1.267298     -2.203872      1.324265
  H       0.558636     -2.312652     -0.129153
  H       1.337060     -0.041373      0.252231
  H       0.338121     -0.044387      1.706492
  H      -0.676999     -0.407988     -1.145333
  H      -0.733321      1.096438     -0.215389
  H      -2.049983     -1.284305      0.516525
  O      -0.722296     -2.432820      3.241942
  C      -1.021002     -3.073290      2.321326
  O      -1.450947     -3.832876      1.554914
14
Coordinates from ORCA-job ./orca E -399.093300558132
  N       0.458266     -1.916156      0.798266
  C       0.426244     -0.455671      0.700083
  C      -0.748680      0.008741     -0.134099
  O      -2.012642     -0.323772      0.442749
  H       1.276612     -2.203482      1.320791
  H       0.560726     -2.313468     -0.129121
  H       1.336194     -0.040518      0.252073
  H       0.340206     -0.046412      1.708223
  H      -0.680365     -0.412058     -1.141520
  H      -0.731815      1.093917     -0.214209
  H      -2.063891     -1.282772      0.504099
  O      -0.726250     -2.428933      3.241640
  C      -1.021028     -3.069698      2.319824
  O      -1.449638     -3.830599      1.554284
14
Coordinates from ORCA-job ./orca E -399.093308690617
  N       0.458289     -1.916250      0.798522
  C       0.425767     -0.455394      0.699731
  C      -0.748834      0.008686     -0.134683
  O      -2.012431     -0.321885      0.443942
  H       1.277023     -2.201932      1.321447
  H       0.562796     -2.313184     -0.128852
  H       1.336278     -0.041412      0.251854
  H       0.339455     -0.046267      1.707875
  H      -0.681341     -0.413572     -1.141551
  H      -0.731132      1.093728     -0.216697
  H      -2.063431     -1.280614      0.508779
  O      -0.728079     -2.429703      3.240787
  C      -1.021526     -3.070869      2.318756
  O      -1.448893     -3.832213      1.553173
14
Coordinates from ORCA-job ./orca E -399.092337022337
  N       0.452889     -1.924288      0.807977
  C       0.422724     -0.459822      0.706672
  C      -0.751073      0.005033     -0.131096
  O      -2.020799     -0.316348      0.439845
  H       1.287071     -2.205258      1.327240
  H       0.565175     -2.316052     -0.137312
  H       1.333769     -0.049173      0.256799
  H       0.337917     -0.043115      1.710865
  H      -0.682909     -0.420905     -1.136376
  H      -0.727577      1.089757     -0.216059
  H      -2.079244     -1.274721      0.505585
  O      -0.723192     -2.425703      3.240431
  C      -1.004077     -3.053681      2.301416
  O      -1.446734     -3.826606      1.547094
14
Coordinates from ORCA-job ./orca E -399.092627487998
  N       0.453688     -1.923850      0.806636
  C       0.421817     -0.461129      0.705671
  C      -0.750412      0.004078     -0.131965
  O      -2.017990     -0.316445      0.443335
  H       1.280741     -2.202052      1.320563
  H       0.564583     -2.311328     -0.123914
  H       1.333285     -0.051587      0.257004
  H       0.336387     -0.047455      1.711825
  H      -0.683295     -0.422210     -1.137177
  H      -0.726287      1.088759     -0.217405
  H      -2.077808     -1.274604      0.507821
  O      -0.723256     -2.424262      3.235000
  C      -1.003917     -3.053756      2.299062
  O      -1.443596     -3.825041      1.546626
14
Coordinates from ORCA-job ./orca E -399.092657169521
  N       0.454999     -1.923790      0.806311
  C       0.421346     -0.461335      0.705829
  C      -0.750551      0.003638     -0.131810
  O      -2.017278     -0.316295      0.445658
  H       1.281618     -2.202044      1.321130
  H       0.564058     -2.313090     -0.123699
  H       1.333323     -0.051622      0.258143
  H       0.334935     -0.049476      1.712729
  H      -0.684044     -0.423116     -1.136831
  H      -0.726322      1.088249     -0.218196
  H      -2.078243     -1.274446      0.509135
  O      -0.723450     -2.421053      3.231755
  C      -1.004364     -3.052783      2.297710
  O      -1.442084     -3.823717      1.545218
14
Coordinates from ORCA-job ./orca E -399.092683528163
  N       0.458545     -1.923777      0.805435
  C       0.421194     -0.461777      0.706614
  C      -0.750845      0.002186     -0.130563
  O      -2.016097     -0.317316      0.450534
  H       1.284163     -2.202965      1.321555
  H       0.561476     -2.317851     -0.123601
  H       1.333882     -0.050432      0.261450
  H       0.332138     -0.054314      1.715107
  H      -0.685544     -0.425134     -1.135357
  H      -0.727178      1.086672     -0.218605
  H      -2.079760     -1.275533      0.509881
  O      -0.722886     -2.411705      3.224360
  C      -1.005532     -3.049208      2.294905
  O      -1.439618     -3.819729      1.541367
14
Coordinates from ORCA-job ./orca E -399.092681814007
  N       0.459644     -1.923857      0.805114
  C       0.421766     -0.461990      0.707077
  C      -0.750844      0.001632     -0.129640
  O      -2.015988     -0.318955      0.451131
  H       1.285272     -2.203946      1.320611
  H       0.559505     -2.319139     -0.123667
  H       1.334117     -0.049339      0.262484
  H       0.332091     -0.055495      1.715910
  H      -0.685530     -0.425153     -1.134656
  H      -0.728022      1.086186     -0.217176
  H      -2.080085     -1.277304      0.507678
  O      -0.722226     -2.408420      3.222906
  C      -1.005891     -3.047283      2.294665
  O      -1.439870     -3.817818      1.540643
14
Coordinates from ORCA-job ./orca E -399.092680783646
  N       0.460656     -1.923989      0.804802
  C       0.422663     -0.462355      0.707696
  C      -0.750761      0.001119     -0.128339
  O      -2.015950     -0.321967      0.450939
  H       1.286795     -2.205422      1.318541
  H       0.556436     -2.320125     -0.123934
  H       1.334238     -0.047913      0.263261
  H       0.332832     -0.056354      1.716737
  H      -0.684908     -0.424218     -1.133937
  H      -0.729366      1.085848     -0.214111
  H      -2.079953     -1.280567      0.503120
  O      -0.721546     -2.405061      3.222453
  C      -1.006270     -3.044651      2.295064
  O      -1.440927     -3.815226      1.540792
14
Coordinates from ORCA-job ./orca E -399.092683018977
  N       0.461321     -1.924113      0.804641
  C       0.423274     -0.462721      0.708158
  C      -0.750698      0.000854     -0.127330
  O      -2.015882     -0.324791      0.450512
  H       1.288272     -2.206543      1.316420
  H       0.553857     -2.320545     -0.124238
  H       1.334173     -0.047057      0.263447
  H       0.333787     -0.056765      1.717276
  H      -0.684101     -0.422849     -1.133564
  H      -0.730516      1.085758     -0.211101
  H      -2.079493     -1.283619      0.498873
  O      -0.721511     -2.402853      3.222831
  C      -1.006593     -3.042505      2.295635
  O      -1.441951     -3.813132      1.541521
14
Coordinates from ORCA-job ./orca E -399.092683784574
  N       0.462587     -1.924376      0.804448
  C       0.424131     -0.463405      0.708917
  C      -0.750660      0.000438     -0.125609
  O      -2.015660     -0.329924      0.449949
  H       1.291409     -2.208226      1.312294
  H       0.549480     -2.321069     -0.124804
  H       1.333940     -0.046046      0.263402
  H       0.335639     -0.057442      1.718164
  H      -0.682584     -0.420077     -1.133061
  H      -0.732555      1.085646     -0.205629
  H      -2.078460     -1.289123      0.491559
  O      -0.722386     -2.399105      3.223839
  C      -1.007306     -3.038667      2.296562
  O      -1.443635     -3.809505      1.543051
14
Coordinates from ORCA-job ./orca E -399.092691682409
  N       0.463994     -1.924698      0.804371
  C       0.424672     -0.463985      0.709514
  C      -0.750747      0.000005     -0.124163
  O      -2.015384     -0.334155      0.449985
  H       1.294878     -2.209194      1.308456
  H       0.546187     -2.321462     -0.125267
  H       1.333714     -0.045684      0.263127
  H       0.337236     -0.058142      1.718923
  H      -0.681473     -0.417771     -1.132645
  H      -0.734248      1.085443     -0.201187
  H      -2.077609     -1.293605      0.486160
  O      -0.724337     -2.395734      3.224627
  C      -1.008169     -3.035314      2.296986
  O      -1.444775     -3.806584      1.544194
14
Coordinates from ORCA-job ./orca E -399.092692541599
  N       0.465722     -1.925112      0.804413
  C       0.424993     -0.464426      0.709973
  C      -0.750965     -0.000598     -0.122925
  O      -2.015094     -0.337189      0.450866
  H       1.298892     -2.209292      1.304944
  H       0.544191     -2.321807     -0.125598
  H       1.333585     -0.045863      0.262785
  H       0.338465     -0.058966      1.719610
  H      -0.681020     -0.416454     -1.132124
  H      -0.735516      1.084980     -0.198142
  H      -2.077221     -1.296764      0.483242
  O      -0.727512     -2.392500      3.224804
  C      -1.009282     -3.032435      2.296671
  O      -1.445301     -3.804456      1.544563
14
Coordinates from ORCA-job ./orca E -399.092700397356
  N       0.467208     -1.925496      0.804560
  C       0.425117     -0.464589      0.710191
  C      -0.751197     -0.001237     -0.122242
  O      -2.014905     -0.337983      0.452272
  H       1.302138     -2.208522      1.302891
  H       0.544060     -2.322016     -0.125692
  H       1.333641     -0.046282      0.262667
  H       0.338851     -0.059673      1.720045
  H      -0.681443     -0.416816     -1.131556
  H      -0.735937      1.084351     -0.197561
  H      -2.077534     -1.297540      0.483712
  O      -0.730606     -2.390361      3.224140
  C      -1.010291     -3.030954      2.295733
  O      -1.445162     -3.803764      1.543922
14
Coordinates from ORCA-job ./orca E -399.092691953183
  N       0.468464     -1.925849      0.804765
  C       0.425271     -0.464628      0.710313
  C      -0.751376     -0.001925     -0.121804
  O      -2.014777     -0.337640      0.453856
  H       1.304778     -2.207431      1.301675
  H       0.544789     -2.322114     -0.125669
  H       1.333815     -0.046537      0.262783
  H       0.338811     -0.060244      1.720342
  H      -0.682344     -0.418233     -1.130870
  H      -0.735923      1.083601     -0.198235
  H      -2.078238     -1.297112      0.485713
  O      -0.733259     -2.388787      3.222934
  C      -1.011232     -3.030230      2.294556
  O      -1.444839     -3.803753      1.542721
14
Coordinates from ORCA-job ./orca E -399.092690258255
  N       0.468999     -1.926030      0.804950
  C       0.425399     -0.464616      0.710370
  C      -0.751417     -0.002359     -0.121700
  O      -2.014759     -0.336808      0.454787
  H       1.305912     -2.206675      1.301414
  H       0.545657     -2.322010     -0.125590
  H       1.333949     -0.046480      0.263037
  H       0.338538     -0.060416      1.720436
  H      -0.683094     -0.419731     -1.130387
  H      -0.735639      1.083088     -0.199334
  H      -2.078906     -1.296200      0.487571
  O      -0.734289     -2.388321      3.221975
  C      -1.011720     -3.030284      2.293819
  O      -1.444691     -3.804038      1.541734
14
Coordinates from ORCA-job ./orca E -399.091786170501
  N       0.463366     -1.933840      0.814362
  C       0.422216     -0.468857      0.717250
  C      -0.753695     -0.005943     -0.118259
  O      -2.022971     -0.331356      0.450958
  H       1.316013     -2.210191      1.307411
  H       0.547749     -2.324861     -0.134106
  H       1.331462     -0.054168      0.268110
  H       0.336892     -0.057083      1.723392
  H      -0.684657     -0.427117     -1.125325
  H      -0.732291      1.079199     -0.199012
  H      -2.094123     -1.290413      0.484805
  O      -0.729502     -2.384320      3.221465
  C      -0.993907     -3.013435      2.276441
  O      -1.442612     -3.798497      1.535590
14
Coordinates from ORCA-job ./orca E -399.092085421572
  N       0.463908     -1.933336      0.812853
  C       0.421427     -0.470300      0.716323
  C      -0.752938     -0.006615     -0.119001
  O      -2.020181     -0.332618      0.453454
  H       1.308291     -2.207444      1.300246
  H       0.546594     -2.320171     -0.120908
  H       1.330879     -0.056425      0.268142
  H       0.335774     -0.061392      1.724383
  H      -0.684277     -0.427149     -1.126354
  H      -0.731393      1.078585     -0.198867
  H      -2.092138     -1.291426      0.484770
  O      -0.728756     -2.383115      3.216991
  C      -0.993359     -3.013126      2.274795
  O      -1.439892     -3.796350      1.536255
14
Coordinates from ORCA-job ./orca E -399.092112108411
  N       0.464906     -1.933241      0.812357
  C       0.420966     -0.470592      0.716517
  C      -0.753026     -0.006756     -0.118791
  O      -2.019558     -0.333323      0.454893
  H       1.308701     -2.208051      1.300685
  H       0.545227     -2.321971     -0.120903
  H       1.330801     -0.056370      0.269163
  H       0.334576     -0.063359      1.725282
  H      -0.684385     -0.426864     -1.126282
  H      -0.731712      1.078461     -0.198461
  H      -2.092250     -1.292143      0.484110
  O      -0.728135     -2.380113      3.214603
  C      -0.993420     -3.011892      2.274083
  O      -1.438752     -3.794669      1.535825
14
Coordinates from ORCA-job ./orca E -399.092132476575
  N       0.467562     -1.933103      0.810901
  C       0.420703     -0.471225      0.717387
  C      -0.753158     -0.007422     -0.117504
  O      -2.018492     -0.336473      0.457552
  H       1.309709     -2.210555      1.300731
  H       0.540326     -2.326848     -0.121134
  H       1.331064     -0.055032      0.272359
  H       0.332154     -0.068261      1.727733
  H      -0.684173     -0.425759     -1.125629
  H      -0.733210      1.077890     -0.195966
  H      -2.092796     -1.295344      0.479860
  O      -0.725287     -2.371203      3.209322
  C      -0.993451     -3.007699      2.272931
  O      -1.437011     -3.789848      1.534538
14
Coordinates from ORCA-job ./orca E -399.092134840090
  N       0.468324     -1.933116      0.810295
  C       0.421176     -0.471443      0.717883
  C      -0.753093     -0.007727     -0.116625
  O      -2.018365     -0.338684      0.457490
  H       1.310103     -2.212054      1.299706
  H       0.537524     -2.328276     -0.121289
  H       1.331269     -0.053925      0.273575
  H       0.332003     -0.069618      1.728628
  H      -0.683617     -0.424811     -1.125228
  H      -0.734225      1.077703     -0.193827
  H      -2.092719     -1.297625      0.476285
  O      -0.723791     -2.367903      3.208403
  C      -0.993356     -3.005617      2.273196
  O      -1.437294     -3.787785      1.534589
14
Coordinates from ORCA-job ./orca E -399.092134328085
  N       0.468761     -1.933164      0.809760
  C       0.421848     -0.471692      0.718405
  C      -0.752950     -0.007918     -0.115640
  O      -2.018333     -0.341524      0.456658
  H       1.310587     -2.213712      1.297902
  H       0.534290     -2.329147     -0.121592
  H       1.331407     -0.052732      0.274445
  H       0.332487     -0.070423      1.729366
  H      -0.682648     -0.423266     -1.124905
  H      -0.735450      1.077681     -0.190873
  H      -2.092155     -1.300578      0.471637
  O      -0.722594     -2.365203      3.208522
  C      -0.993226     -3.003435      2.273987
  O      -1.438085     -3.785768      1.535410
14
Coordinates from ORCA-job ./orca E -399.092137151238
  N       0.468906     -1.933212      0.809507
  C       0.422208     -0.471892      0.718688
  C      -0.752855     -0.007922     -0.115070
  O      -2.018290     -0.343505      0.455931
  H       1.311083     -2.214678      1.296415
  H       0.532223     -2.329387     -0.121859
  H       1.331395     -0.052192      0.274663
  H       0.333065     -0.070685      1.729709
  H      -0.681857     -0.421927     -1.124839
  H      -0.736246      1.077797     -0.188730
  H      -2.091473     -1.302646      0.468610
  O      -0.722432     -2.363856      3.209082
  C      -0.993188     -3.002114      2.274628
  O      -1.438598     -3.784663      1.536347
14
Coordinates from ORCA-job ./orca E -399.091299323411
  N       0.463211     -1.940894      0.818905
  C       0.418974     -0.476024      0.725543
  C      -0.755136     -0.011494     -0.111693
  O      -2.026363     -0.338104      0.452304
  H       1.321203     -2.218294      1.302548
  H       0.534213     -2.332300     -0.130411
  H       1.328930     -0.059814      0.279792
  H       0.331317     -0.067202      1.732639
  H      -0.683408     -0.429386     -1.119817
  H      -0.733000      1.073922     -0.188581
  H      -2.106355     -1.296910      0.466183
  O      -0.717797     -2.359802      3.208411
  C      -0.975268     -2.985432      2.257120
  O      -1.436580     -3.779146      1.530139
14
Coordinates from ORCA-job ./orca E -399.091605264506
  N       0.463922     -1.940323      0.817329
  C       0.418044     -0.477422      0.724594
  C      -0.754437     -0.012067     -0.112487
  O      -2.023556     -0.339474      0.454714
  H       1.313466     -2.215326      1.295092
  H       0.533014     -2.327655     -0.117256
  H       1.328306     -0.062426      0.279645
  H       0.330300     -0.071626      1.733670
  H      -0.682881     -0.429076     -1.120974
  H      -0.732122      1.073405     -0.188317
  H      -2.104045     -1.297973      0.466408
  O      -0.717872     -2.358690      3.204176
  C      -0.974649     -2.985025      2.255331
  O      -1.433551     -3.777204      1.531159
14
Coordinates from ORCA-job ./orca E -399.091631963725
  N       0.465018     -1.940194      0.816781
  C       0.417529     -0.477655      0.724773
  C      -0.754545     -0.012128     -0.112290
  O      -2.022938     -0.340313      0.456005
  H       1.314146     -2.215901      1.295231
  H       0.531285     -2.329506     -0.117291
  H       1.328225     -0.062527      0.280548
  H       0.329196     -0.073624      1.734582
  H      -0.682825     -0.428476     -1.120998
  H      -0.732474      1.073375     -0.187738
  H      -2.103902     -1.298794      0.465837
  O      -0.717896     -2.355675      3.202049
  C      -0.974651     -2.983690      2.254561
  O      -1.432227     -3.775771      1.531032
14
Coordinates from ORCA-job ./orca E -399.091650628816
  N       0.467901     -1.939970      0.815244
  C       0.417194     -0.478128      0.725605
  C      -0.754685     -0.012616     -0.111044
  O      -2.021888     -0.343682      0.458245
  H       1.315924     -2.218275      1.294312
  H       0.525322     -2.334398     -0.117508
  H       1.328478     -0.061522      0.283419
  H       0.327079     -0.078464      1.737024
  H      -0.682200     -0.426704     -1.120552
  H      -0.733982      1.073009     -0.184901
  H      -2.103827     -1.302115      0.461950
  O      -0.716941     -2.346830      3.197522
  C      -0.974518     -2.979338      2.253258
  O      -1.429917     -3.771849      1.530509
14
Coordinates from ORCA-job ./orca E -399.091655274675
  N       0.469053     -1.939924      0.814503
  C       0.417688     -0.478342      0.726212
  C      -0.754587     -0.012967     -0.110032
  O      -2.021655     -0.346202      0.458272
  H       1.316872     -2.219987      1.292657
  H       0.521308     -2.336309     -0.117578
  H       1.328723     -0.060278      0.284888
  H       0.326826     -0.080213      1.738171
  H      -0.681459     -0.425557     -1.120096
  H      -0.735091      1.072784     -0.182469
  H      -2.103619     -1.304637      0.458198
  O      -0.716161     -2.342591      3.196360
  C      -0.974353     -2.976802      2.253324
  O      -1.429607     -3.769856      1.530671
14
Coordinates from ORCA-job ./orca E -399.091655874199
  N       0.469938     -1.939909      0.813869
  C       0.418562     -0.478616      0.726943
  C      -0.754344     -0.013292     -0.108782
  O      -2.021522     -0.349477      0.457478
  H       1.318094     -2.222050      1.289824
  H       0.516279     -2.337732     -0.117698
  H       1.328934     -0.058642      0.286172
  H       0.327302     -0.081344      1.739225
  H      -0.680272     -0.423967     -1.119562
  H      -0.736448      1.072636     -0.179089
  H      -2.102988     -1.307945      0.453041
  O      -0.715778     -2.338622      3.196183
  C      -0.974162     -2.974022      2.253983
  O      -1.429655     -3.767899      1.531493
14
Coordinates from ORCA-job ./orca E -399.091660252673
  N       0.470281     -1.939907      0.813709
  C       0.419116     -0.478828      0.727364
  C      -0.754147     -0.013383     -0.108065
  O      -2.021454     -0.351523      0.456719
  H       1.319179     -2.223196      1.287492
  H       0.513012     -2.338142     -0.117754
  H       1.328957     -0.057786      0.286536
  H       0.328041     -0.081501      1.739668
  H      -0.679378     -0.422807     -1.119307
  H      -0.737203      1.072656     -0.176837
  H      -2.102328     -1.310028      0.449883
  O      -0.716502     -2.336749      3.196708
  C      -0.974117     -2.972540      2.254586
  O      -1.429518     -3.767144      1.532380
14
Coordinates from ORCA-job ./orca E -399.091661498517
  N       0.470775     -1.939909      0.813771
  C       0.419798     -0.479161      0.727901
  C      -0.753866     -0.013421     -0.107130
  O      -2.021303     -0.354229      0.455775
  H       1.321384     -2.224502      1.283578
  H       0.508206     -2.338457     -0.117710
  H       1.328899     -0.056991      0.286557
  H       0.329451     -0.081349      1.740121
  H      -0.678074     -0.421058     -1.119021
  H      -0.738090      1.072759     -0.173680
  H      -2.101233     -1.312788      0.446026
  O      -0.719184     -2.334261      3.197729
  C      -0.974227     -2.970704      2.255358
  O      -1.428596     -3.766808      1.533807
14
Coordinates from ORCA-job ./orca E -399.091682796725
  N       0.471339     -1.939923      0.814154
  C       0.420200     -0.479381      0.728230
  C      -0.753686     -0.013427     -0.106484
  O      -2.021107     -0.355773      0.455559
  H       1.323957     -2.224973      1.280065
  H       0.504473     -2.338620     -0.117435
  H       1.328846     -0.056932      0.286087
  H       0.330797     -0.080970      1.740323
  H      -0.677267     -0.419907     -1.118785
  H      -0.738470      1.072827     -0.171641
  H      -2.100458     -1.314361      0.444324
  O      -0.723350     -2.332190      3.198357
  C      -0.974578     -2.969649      2.255586
  O      -1.426757     -3.767603      1.534743
14
Coordinates from ORCA-job ./orca E -399.091673069766
  N       0.472248     -1.939986      0.814898
  C       0.420520     -0.479493      0.728405
  C      -0.753585     -0.013479     -0.105871
  O      -2.020798     -0.356341      0.456334
  H       1.327482     -2.224646      1.276371
  H       0.501018     -2.338967     -0.116772
  H       1.328927     -0.057570      0.285145
  H       0.332305     -0.080522      1.740388
  H      -0.677043     -0.419298     -1.118413
  H      -0.738431      1.072802     -0.170370
  H      -2.100125     -1.314915      0.444493
  O      -0.729973     -2.329514      3.198188
  C      -0.975291     -2.969087      2.255149
  O      -1.423313     -3.769865      1.535136
14
Coordinates from ORCA-job ./orca E -399.091677046485
  N       0.472619     -1.940015      0.815416
  C       0.420491     -0.479318      0.728302
  C      -0.753627     -0.013581     -0.105893
  O      -2.020677     -0.355106      0.457448
  H       1.328798     -2.223665      1.275880
  H       0.501081     -2.339083     -0.116285
  H       1.329116     -0.058291      0.284682
  H       0.332478     -0.080315      1.740272
  H      -0.677693     -0.420166     -1.118169
  H      -0.737863      1.072638     -0.171436
  H      -2.100753     -1.313625      0.446635
  O      -0.732905     -2.328949      3.197343
  C      -0.975710     -2.969744      2.254423
  O      -1.421417     -3.771663      1.534462
14
Coordinates from ORCA-job ./orca E -399.091655498784
  N       0.473074     -1.940056      0.816143
  C       0.420577     -0.479012      0.728157
  C      -0.753662     -0.013785     -0.105883
  O      -2.020475     -0.353133      0.459185
  H       1.330358     -2.222239      1.275560
  H       0.501344     -2.339325     -0.115524
  H       1.329512     -0.059128      0.284251
  H       0.332558     -0.080104      1.740138
  H      -0.678854     -0.421780     -1.117676
  H      -0.737025      1.072335     -0.173251
  H      -2.101965     -1.311533      0.449510
  O      -0.736387     -2.328130      3.195821
  C      -0.976264     -2.970810      2.253400
  O      -1.418852     -3.774180      1.533251
14
Coordinates from ORCA-job ./orca E -399.091667512690
  N       0.473336     -1.940065      0.816551
  C       0.420799     -0.478897      0.728124
  C      -0.753636     -0.013942     -0.105746
  O      -2.020337     -0.352163      0.460207
  H       1.331207     -2.221637      1.275267
  H       0.501176     -2.339496     -0.115061
  H       1.329752     -0.059307      0.284079
  H       0.332775     -0.079921      1.740080
  H      -0.679560     -0.422804     -1.117245
  H      -0.736593      1.072120     -0.174115
  H      -2.102772     -1.310476      0.450591
  O      -0.738309     -2.327459      3.194914
  C      -0.976559     -2.971300      2.252901
  O      -1.417340     -3.775535      1.532535
14
Coordinates from ORCA-job ./orca E -399.090944854271
  N       0.467452     -1.947565      0.825889
  C       0.417467     -0.482863      0.734948
  C      -0.755915     -0.017462     -0.102487
  O      -2.028216     -0.346866      0.456793
  H       1.341352     -2.225412      1.281466
  H       0.502800     -2.342370     -0.123673
  H       1.327326     -0.066858      0.289372
  H       0.330973     -0.076278      1.742987
  H      -0.681061     -0.430313     -1.112317
  H      -0.733503      1.068305     -0.174207
  H      -2.117125     -1.304878      0.448514
  O      -0.733799     -2.323384      3.194061
  C      -0.958395     -2.954838      2.235385
  O      -1.415416     -3.770099      1.526351
14
Coordinates from ORCA-job ./orca E -399.091298075886
  N       0.468171     -1.946880      0.824391
  C       0.416677     -0.484141      0.734032
  C      -0.755211     -0.018089     -0.103355
  O      -2.025606     -0.347458      0.459172
  H       1.332520     -2.222149      1.274597
  H       0.502533     -2.337757     -0.110488
  H       1.326796     -0.069255      0.289374
  H       0.329838     -0.080525      1.743978
  H      -0.680857     -0.430854     -1.113247
  H      -0.732313      1.067665     -0.174810
  H      -2.115365     -1.305046      0.449282
  O      -0.733344     -2.323024      3.189723
  C      -0.957547     -2.954918      2.233472
  O      -1.412352     -3.768450      1.526961
14
Coordinates from ORCA-job ./orca E -399.091282949071
  N       0.469149     -1.946644      0.823902
  C       0.416144     -0.484271      0.734160
  C      -0.755306     -0.018114     -0.103349
  O      -2.025079     -0.347511      0.460484
  H       1.332810     -2.222605      1.275415
  H       0.501182     -2.339595     -0.110317
  H       1.326712     -0.069219      0.290340
  H       0.328505     -0.082331      1.744785
  H      -0.681064     -0.430871     -1.113218
  H      -0.732321      1.067621     -0.175047
  H      -2.115661     -1.305009      0.449239
  O      -0.732858     -2.320805      3.187512
  C      -0.957323     -2.954151      2.232599
  O      -1.410951     -3.767377      1.526577
14
Coordinates from ORCA-job ./orca E -399.091301316349
  N       0.471580     -1.946072      0.822569
  C       0.415650     -0.484426      0.734778
  C      -0.755384     -0.018460     -0.102790
  O      -2.024224     -0.348501      0.462823
  H       1.333268     -2.224549      1.276495
  H       0.496414     -2.344325     -0.109839
  H       1.326925     -0.067918      0.293270
  H       0.325695     -0.086486      1.746827
  H      -0.681130     -0.430838     -1.112753
  H      -0.732747      1.067254     -0.174715
  H      -2.116751     -1.305741      0.447171
  O      -0.730525     -2.314514      3.182974
  C      -0.956521     -2.951629      2.231009
  O      -1.408310     -3.764675      1.525265
14
Coordinates from ORCA-job ./orca E -399.091302656994
  N       0.472331     -1.945830      0.822036
  C       0.415994     -0.484431      0.735176
  C      -0.755259     -0.018685     -0.102288
  O      -2.024107     -0.349528      0.462876
  H       1.333347     -2.225848      1.276027
  H       0.493451     -2.345907     -0.109531
  H       1.327122     -0.066709      0.294533
  H       0.325186     -0.087577      1.747577
  H      -0.680776     -0.430630     -1.112401
  H      -0.733182      1.067069     -0.173844
  H      -2.117085     -1.306678      0.444881
  O      -0.729268     -2.312181      3.182114
  C      -0.956024     -2.950356      2.230953
  O      -1.407790     -3.763591      1.524972
14
Coordinates from ORCA-job ./orca E -399.091312405198
  N       0.472707     -1.945557      0.821686
  C       0.416595     -0.484423      0.735561
  C      -0.755016     -0.018814     -0.101745
  O      -2.024052     -0.350895      0.462276
  H       1.333409     -2.227273      1.274868
  H       0.489992     -2.346945     -0.109204
  H       1.327292     -0.065342      0.295408
  H       0.325356     -0.087892      1.748066
  H      -0.680130     -0.430110     -1.112096
  H      -0.733719      1.067016     -0.172487
  H      -2.116992     -1.307999      0.441967
  O      -0.728549     -2.310628      3.182256
  C      -0.955500     -2.949209      2.231375
  O      -1.407453     -3.762811      1.525149
14
Coordinates from ORCA-job ./orca E -399.091309429696
  N       0.472711     -1.945335      0.821687
  C       0.416961     -0.484401      0.735705
  C      -0.754833     -0.018747     -0.101513
  O      -2.023986     -0.351701      0.461732
  H       1.333539     -2.228013      1.273881
  H       0.487743     -2.347250     -0.108926
  H       1.327344     -0.064705      0.295481
  H       0.325865     -0.087559      1.748122
  H      -0.679627     -0.429591     -1.112031
  H      -0.733988      1.067132     -0.171596
  H      -2.116597     -1.308812      0.440401
  O      -0.728977     -2.310292      3.182859
  C      -0.955230     -2.948809      2.231773
  O      -1.406987     -3.762798      1.525509
14
Coordinates from ORCA-job ./orca E -399.090710030546
  N       0.466784     -1.952741      0.830976
  C       0.413589     -0.488277      0.742499
  C      -0.757105     -0.022261     -0.098301
  O      -2.031688     -0.346471      0.458519
  H       1.343687     -2.231869      1.280179
  H       0.489263     -2.350190     -0.117589
  H       1.324943     -0.072206      0.300827
  H       0.323979     -0.083787      1.750999
  H      -0.681138     -0.437157     -1.107115
  H      -0.730976      1.063294     -0.171831
  H      -2.130614     -1.303254      0.438667
  O      -0.724644     -2.306161      3.181825
  C      -0.937003     -2.932436      2.214147
  O      -1.405137     -3.757363      1.519281
14
Coordinates from ORCA-job ./orca E -399.091067849628
  N       0.467729     -1.951930      0.829622
  C       0.412637     -0.489447      0.741499
  C      -0.756490     -0.022836     -0.099356
  O      -2.029123     -0.346497      0.461055
  H       1.334986     -2.228155      1.273446
  H       0.489417     -2.345572     -0.104301
  H       1.324353     -0.075003      0.300481
  H       0.322962     -0.087871      1.751875
  H      -0.681126     -0.437941     -1.108112
  H      -0.729544      1.062660     -0.172984
  H      -2.128744     -1.302874      0.440833
  O      -0.725430     -2.306308      3.177443
  C      -0.936184     -2.932817      2.211820
  O      -1.401504     -3.756289      1.519762
14
Coordinates from ORCA-job ./orca E -399.091053777848
  N       0.468836     -1.951592      0.829261
  C       0.412050     -0.489454      0.741540
  C      -0.756616     -0.022827     -0.099476
  O      -2.028628     -0.346149      0.462430
  H       1.335551     -2.228333      1.274273
  H       0.488087     -2.347418     -0.103949
  H       1.324260     -0.075152      0.301163
  H       0.321744     -0.089468      1.752557
  H      -0.681433     -0.438138     -1.108128
  H      -0.729364      1.062625     -0.173604
  H      -2.128944     -1.302448      0.441817
  O      -0.725914     -2.304454      3.175281
  C      -0.935983     -2.932304      2.210662
  O      -1.399705     -3.755771      1.519254
14
Coordinates from ORCA-job ./orca E -399.091072838328
  N       0.471532     -1.950768      0.828319
  C       0.411512     -0.489278      0.741920
  C      -0.756731     -0.023090     -0.099218
  O      -2.027844     -0.346111      0.464877
  H       1.336764     -2.229536      1.275203
  H       0.483192     -2.352094     -0.102893
  H       1.324480     -0.074263      0.303309
  H       0.319328     -0.092940      1.754228
  H      -0.681733     -0.438573     -1.107758
  H      -0.729305      1.062287     -0.174208
  H      -2.129820     -1.302184      0.442232
  O      -0.726166     -2.299180      3.171018
  C      -0.935244     -2.930503      2.208420
  O      -1.396025     -3.754648      1.517632
14
Coordinates from ORCA-job ./orca E -399.091082252811
  N       0.472673     -1.950314      0.827883
  C       0.411873     -0.489120      0.742291
  C      -0.756576     -0.023321     -0.098769
  O      -2.027631     -0.346749      0.465223
  H       1.337335     -2.230719      1.274566
  H       0.479221     -2.354232     -0.102100
  H       1.324744     -0.072985      0.304552
  H       0.318737     -0.094089      1.755026
  H      -0.681470     -0.438637     -1.107357
  H      -0.729542      1.062073     -0.173745
  H      -2.130225     -1.302704      0.440729
  O      -0.726003     -2.296612      3.169849
  C      -0.934658     -2.929324      2.207934
  O      -1.394537     -3.754148      1.516999
14
Coordinates from ORCA-job ./orca E -399.091077858778
  N       0.473503     -1.949751      0.827637
  C       0.412740     -0.488938      0.742749
  C      -0.756194     -0.023488     -0.098099
  O      -2.027418     -0.348048      0.464835
  H       1.338007     -2.232368      1.272741
  H       0.473511     -2.356144     -0.101016
  H       1.325086     -0.071144      0.305610
  H       0.318960     -0.094427      1.755654
  H      -0.680773     -0.438306     -1.106873
  H      -0.729994      1.061978     -0.172447
  H      -2.130291     -1.303891      0.437675
  O      -0.726409     -2.294359      3.169716
  C      -0.933922     -2.928050      2.208095
  O      -1.392866     -3.753946      1.516806
14
Coordinates from ORCA-job ./orca E -399.091081638079
  N       0.473593     -1.949339      0.827866
  C       0.413383     -0.488809      0.742939
  C      -0.755864     -0.023401     -0.097773
  O      -2.027251     -0.348862      0.464284
  H       1.338554     -2.233249      1.271023
  H       0.469611     -2.356774     -0.100177
  H       1.325263     -0.070209      0.305639
  H       0.319791     -0.093720      1.755673
  H      -0.680177     -0.437860     -1.106683
  H      -0.730205      1.062118     -0.171500
  H      -2.129948     -1.304683      0.435727
  O      -0.727818     -2.293902      3.170484
  C      -0.933546     -2.927714      2.208563
  O      -1.391446     -3.754477      1.517016
14
Coordinates from ORCA-job ./orca E -399.091085416601
  N       0.473427     -1.948620      0.828746
  C       0.414258     -0.488516      0.742993
  C      -0.755365     -0.023040     -0.097501
  O      -2.026877     -0.349557      0.463726
  H       1.339671     -2.234015      1.268270
  H       0.463877     -2.357316     -0.098586
  H       1.325524     -0.069500      0.304756
  H       0.321678     -0.091773      1.755230
  H      -0.679414     -0.437151     -1.106540
  H      -0.730243      1.062524     -0.170454
  H      -2.129145     -1.305387      0.433952
  O      -0.731958     -2.294035      3.171957
  C      -0.933239     -2.928005      2.209209
  O      -1.388255     -3.756489      1.517323
14
Coordinates from ORCA-job ./orca E -399.091092454718
  N       0.473204     -1.947881      0.830083
  C       0.414895     -0.488070      0.742754
  C      -0.754999     -0.022566     -0.097481
  O      -2.026429     -0.349178      0.463969
  H       1.341062     -2.233877      1.266058
  H       0.459321     -2.357657     -0.096716
  H       1.325838     -0.069764      0.303045
  H       0.323813     -0.089404      1.754410
  H      -0.679203     -0.436834     -1.106468
  H      -0.729845      1.062977     -0.170365
  H      -2.128480     -1.305040      0.434367
  O      -0.737970     -2.294586      3.172927
  C      -0.933316     -2.929183      2.209331
  O      -1.383951     -3.759818      1.517166
14
Coordinates from ORCA-job ./orca E -399.091094639778
  N       0.473047     -1.947169      0.831794
  C       0.415321     -0.487418      0.742246
  C      -0.754800     -0.022088     -0.097662
  O      -2.025938     -0.347484      0.465212
  H       1.342684     -2.232739      1.264688
  H       0.456281     -2.357957     -0.094587
  H       1.326283     -0.070954      0.300732
  H       0.325945     -0.086912      1.753335
  H      -0.679757     -0.437230     -1.106338
  H      -0.728968      1.063362     -0.171513
  H      -2.128267     -1.303370      0.437238
  O      -0.745497     -2.295210      3.172890
  C      -0.933799     -2.931236      2.208738
  O      -1.378595     -3.764478      1.516308
14
Coordinates from ORCA-job ./orca E -399.091071786734
  N       0.473145     -1.946583      0.833526
  C       0.415684     -0.486667      0.741607
  C      -0.754762     -0.021799     -0.097845
  O      -2.025472     -0.344703      0.467398
  H       1.344319     -2.230961      1.264337
  H       0.454859     -2.358420     -0.092459
  H       1.326859     -0.072512      0.298388
  H       0.327765     -0.084829      1.752280
  H      -0.681147     -0.438573     -1.105946
  H      -0.727751      1.063489     -0.173712
  H      -2.128823     -1.300548      0.441888
  O      -0.753423     -2.295297      3.171502
  C      -0.934565     -2.933666      2.207425
  O      -1.372750     -3.769813      1.514693
14
Coordinates from ORCA-job ./orca E -399.091071387646
  N       0.473487     -1.946196      0.834902
  C       0.416117     -0.486048      0.741025
  C      -0.754810     -0.021781     -0.097873
  O      -2.025102     -0.341537      0.470008
  H       1.345632     -2.229202      1.264760
  H       0.454731     -2.358985     -0.090690
  H       1.327435     -0.073716      0.296525
  H       0.329158     -0.083418      1.751449
  H      -0.683057     -0.440669     -1.105232
  H      -0.726444      1.063314     -0.176310
  H      -2.130099     -1.297257      0.446852
  O      -0.760437     -2.294697      3.169186
  C      -0.935366     -2.935855      2.205773
  O      -1.367306     -3.774836      1.512706
14
Coordinates from ORCA-job ./orca E -399.091079764954
  N       0.473746     -1.946196      0.835250
  C       0.416366     -0.485904      0.740817
  C      -0.754874     -0.021951     -0.097772
  O      -2.025014     -0.339779      0.471472
  H       1.345916     -2.228497      1.265522
  H       0.455717     -2.359217     -0.090243
  H       1.327666     -0.073946      0.296056
  H       0.329451     -0.083249      1.751229
  H      -0.684291     -0.442189     -1.104656
  H      -0.725742      1.063026     -0.177770
  H      -2.131315     -1.295370      0.449143
  O      -0.762823     -2.293956      3.167530
  C      -0.935722     -2.936720      2.204864
  O      -1.365142     -3.776935      1.511643
14
Coordinates from ORCA-job ./orca E -399.091083229164
  N       0.473993     -1.946237      0.835461
  C       0.416707     -0.485902      0.740659
  C      -0.754898     -0.022150     -0.097580
  O      -2.024925     -0.337952      0.473030
  H       1.346006     -2.228076      1.266315
  H       0.456758     -2.359407     -0.089955
  H       1.327840     -0.073874      0.295712
  H       0.329781     -0.083144      1.751038
  H      -0.685616     -0.443891     -1.103935
  H      -0.724958      1.062698     -0.179166
  H      -2.132840     -1.293356      0.451023
  O      -0.765192     -2.292939      3.165768
  C      -0.935983     -2.937511      2.204010
  O      -1.362734     -3.779140      1.510702
14
Coordinates from ORCA-job ./orca E -399.091097511935
  N       0.474040     -1.946267      0.835485
  C       0.416913     -0.486000      0.740596
  C      -0.754871     -0.022194     -0.097440
  O      -2.024859     -0.337025      0.473847
  H       1.345888     -2.228128      1.266647
  H       0.457152     -2.359453     -0.089917
  H       1.327883     -0.073729      0.295538
  H       0.330059     -0.083059      1.750920
  H      -0.686278     -0.444675     -1.103530
  H      -0.724502      1.062587     -0.179703
  H      -2.133740     -1.292312      0.451543
  O      -0.766609     -2.292230      3.164915
  C      -0.936012     -2.937902      2.203692
  O      -1.361125     -3.780494      1.510490
14
Coordinates from ORCA-job ./orca E -399.090695198024
  N       0.467927     -1.953612      0.844568
  C       0.413482     -0.489778      0.747352
  C      -0.757128     -0.025700     -0.094287
  O      -2.032279     -0.332009      0.470814
  H       1.355985     -2.232082      1.272858
  H       0.458276     -2.362277     -0.098692
  H       1.325533     -0.081227      0.301060
  H       0.328281     -0.079238      1.753769
  H      -0.687805     -0.452244     -1.098622
  H      -0.721633      1.058671     -0.180065
  H      -2.147134     -1.286921      0.450076
  O      -0.762441     -2.288042      3.163671
  C      -0.917685     -2.921379      2.186220
  O      -1.359442     -3.775043      1.504361
14
Coordinates from ORCA-job ./orca E -399.091003194641
  N       0.469078     -1.952901      0.842991
  C       0.412560     -0.491063      0.746415
  C      -0.756632     -0.026321     -0.095186
  O      -2.029903     -0.332060      0.473334
  H       1.346568     -2.228548      1.266593
  H       0.459551     -2.357855     -0.086025
  H       1.324937     -0.084025      0.300876
  H       0.327195     -0.083683      1.754748
  H      -0.687996     -0.452996     -1.099487
  H      -0.720315      1.057986     -0.180969
  H      -2.145567     -1.286507      0.451881
  O      -0.762750     -2.287804      3.159063
  C      -0.916736     -2.921439      2.183878
  O      -1.356051     -3.773665      1.504967
14
Coordinates from ORCA-job ./orca E -399.091033267718
  N       0.470220     -1.952662      0.842333
  C       0.411942     -0.491175      0.746453
  C      -0.756818     -0.026298     -0.095233
  O      -2.029480     -0.331843      0.474654
  H       1.346845     -2.229001      1.267706
  H       0.458693     -2.359758     -0.085884
  H       1.324797     -0.084124      0.301674
  H       0.325831     -0.085640      1.755526
  H      -0.688363     -0.452992     -1.099503
  H      -0.720227      1.057977     -0.181282
  H      -2.145867     -1.286188      0.452422
  O      -0.762702     -2.285572      3.156693
  C      -0.916422     -2.920681      2.182739
  O      -1.354510     -3.772927      1.504784
14
Coordinates from ORCA-job ./orca E -399.091051089657
  N       0.472841     -1.952143      0.840549
  C       0.411284     -0.491291      0.746859
  C      -0.757042     -0.026517     -0.094842
  O      -2.028902     -0.332169      0.476784
  H       1.347178     -2.230951      1.269266
  H       0.455107     -2.364299     -0.085548
  H       1.324852     -0.083036      0.304214
  H       0.322951     -0.090026      1.757455
  H      -0.688666     -0.452896     -1.099190
  H      -0.720348      1.057724     -0.181132
  H      -2.146932     -1.286236      0.451668
  O      -0.761348     -2.279480      3.152142
  C      -0.915366     -2.918298      2.180679
  O      -1.351669     -3.771264      1.504177
14
Coordinates from ORCA-job ./orca E -399.091061284311
  N       0.473664     -1.951933      0.839666
  C       0.411526     -0.491317      0.747245
  C      -0.756915     -0.026670     -0.094404
  O      -2.028823     -0.333077      0.476714
  H       1.347101     -2.232456      1.268818
  H       0.452133     -2.365936     -0.085368
  H       1.325003     -0.081753      0.305646
  H       0.322138     -0.091512      1.758329
  H      -0.688239     -0.452533     -1.098940
  H      -0.720681      1.057630     -0.180229
  H      -2.147250     -1.287032      0.449508
  O      -0.760128     -2.276841      3.151214
  C      -0.914646     -2.916932      2.180522
  O      -1.350945     -3.770520      1.504361
14
Coordinates from ORCA-job ./orca E -399.091062224818
  N       0.473942     -1.951731      0.838876
  C       0.412047     -0.491375      0.747711
  C      -0.756585     -0.026668     -0.093895
  O      -2.028772     -0.334654      0.475722
  H       1.346876     -2.234321      1.267283
  H       0.448052     -2.366996     -0.085255
  H       1.325171     -0.080194      0.306992
  H       0.321887     -0.092332      1.759047
  H      -0.687230     -0.451548     -1.098805
  H      -0.721226      1.057762     -0.178529
  H      -2.147027     -1.288547      0.445945
  O      -0.758977     -2.274771      3.151462
  C      -0.913790     -2.915557      2.181174
  O      -1.350428     -3.769950      1.505354
14
Coordinates from ORCA-job ./orca E -399.091059206678
  N       0.473701     -1.951612      0.838640
  C       0.412322     -0.491424      0.747917
  C      -0.756328     -0.026464     -0.093710
  O      -2.028706     -0.335696      0.474802
  H       1.346752     -2.235313      1.265916
  H       0.445461     -2.367142     -0.085212
  H       1.325239     -0.079578      0.307399
  H       0.322126     -0.092265      1.759227
  H      -0.686395     -0.450555     -1.098921
  H      -0.721541      1.058061     -0.177314
  H      -2.146443     -1.289613      0.443778
  O      -0.758978     -2.274193      3.152224
  C      -0.913348     -2.915055      2.181919
  O      -1.349924     -3.770033      1.506418
14
Coordinates from ORCA-job ./orca E -399.090859318981
  N       0.469798     -1.960203      0.845599
  C       0.406885     -0.499507      0.753424
  C      -0.759539     -0.029027     -0.089860
  O      -2.036801     -0.331787      0.471295
  H       1.358522     -2.238425      1.272053
  H       0.450045     -2.375000     -0.094275
  H       1.320575     -0.088615      0.313616
  H       0.316201     -0.100861      1.764893
  H      -0.688423     -0.451725     -1.095577
  H      -0.719007      1.055467     -0.171473
  H      -2.160796     -1.284318      0.437584
  O      -0.752615     -2.258403      3.147389
  C      -0.894131     -2.894399      2.164739
  O      -1.346775     -3.764078      1.503675
14
Coordinates from ORCA-job ./orca E -399.091171827069
  N       0.470237     -1.959711      0.843835
  C       0.406993     -0.498860      0.753644
  C      -0.758569     -0.030130     -0.090267
  O      -2.034367     -0.333560      0.473083
  H       1.348653     -2.236590      1.264309
  H       0.448834     -2.369457     -0.082689
  H       1.320937     -0.089530      0.314224
  H       0.316490     -0.100815      1.765223
  H      -0.687244     -0.453670     -1.095626
  H      -0.718250      1.054246     -0.172472
  H      -2.158015     -1.286579      0.439078
  O      -0.752628     -2.260562      3.143241
  C      -0.893656     -2.894527      2.162573
  O      -1.345475     -3.761136      1.504924
14
Coordinates from ORCA-job ./orca E -399.091199688641
  N       0.470819     -1.959341      0.843307
  C       0.406737     -0.498169      0.754251
  C      -0.758503     -0.030322     -0.090337
  O      -2.033815     -0.334132      0.473788
  H       1.348898     -2.237651      1.264297
  H       0.446167     -2.370030     -0.082939
  H       1.321251     -0.089355      0.315444
  H       0.315866     -0.100556      1.765851
  H      -0.686873     -0.454275     -1.095450
  H      -0.718497      1.054050     -0.173121
  H      -2.157342     -1.287159      0.439428
  O      -0.752646     -2.259887      3.141839
  C      -0.893438     -2.894024      2.161762
  O      -1.344686     -3.760029      1.504962
14
Coordinates from ORCA-job ./orca E -399.091213588950
  N       0.471938     -1.958542      0.842349
  C       0.406556     -0.497151      0.755311
  C      -0.758262     -0.030589     -0.090336
  O      -2.033040     -0.335392      0.474407
  H       1.349169     -2.239848      1.263497
  H       0.439965     -2.371254     -0.082951
  H       1.322047     -0.088675      0.318043
  H       0.314605     -0.100794      1.767164
  H      -0.685876     -0.454833     -1.095193
  H      -0.719050      1.053793     -0.173749
  H      -2.156485     -1.288362      0.438577
  O      -0.752027     -2.257754      3.140235
  C      -0.892568     -2.892819      2.160834
  O      -1.343032     -3.758663      1.504892
14
Coordinates from ORCA-job ./orca E -399.091216291138
  N       0.472680     -1.957894      0.841692
  C       0.406658     -0.496658      0.755932
  C      -0.757926     -0.030558     -0.090239
  O      -2.032584     -0.336401      0.474216
  H       1.349350     -2.241702      1.262090
  H       0.434119     -2.372490     -0.082395
  H       1.322641     -0.087789      0.320033
  H       0.313676     -0.101444      1.768120
  H      -0.684866     -0.454536     -1.095130
  H      -0.719448      1.053860     -0.173548
  H      -2.156048     -1.289292      0.436567
  O      -0.751605     -2.255722      3.139795
  C      -0.891507     -2.891824      2.160754
  O      -1.341202     -3.758431      1.505193
14
Coordinates from ORCA-job ./orca E -399.091220175086
  N       0.473135     -1.957245      0.841289
  C       0.406981     -0.496481      0.756255
  C      -0.757434     -0.030202     -0.090094
  O      -2.032270     -0.337114      0.473415
  H       1.349600     -2.243453      1.259901
  H       0.427561     -2.374077     -0.081204
  H       1.323082     -0.086633      0.321553
  H       0.313062     -0.102195      1.768796
  H      -0.683739     -0.453519     -1.095222
  H      -0.719584      1.054272     -0.172732
  H      -2.155827     -1.289907      0.433700
  O      -0.752145     -2.253769      3.140084
  C      -0.890176     -2.891107      2.161303
  O      -1.338307     -3.759452      1.506037
14
Coordinates from ORCA-job ./orca E -399.091224731955
  N       0.473079     -1.956816      0.841415
  C       0.407356     -0.496543      0.756164
  C      -0.757010     -0.029665     -0.090005
  O      -2.032134     -0.337033      0.472648
  H       1.349946     -2.244269      1.257948
  H       0.423029     -2.375360     -0.079884
  H       1.323208     -0.085888      0.321714
  H       0.313259     -0.102303      1.768807
  H      -0.683095     -0.452413     -1.095383
  H      -0.719285      1.054846     -0.171898
  H      -2.155766     -1.289769      0.431928
  O      -0.754350     -2.252802      3.140635
  C      -0.889309     -2.891213      2.162004
  O      -1.334989     -3.761652      1.506992
14
Coordinates from ORCA-job ./orca E -399.091230029322
  N       0.472659     -1.956359      0.842077
  C       0.407853     -0.496599      0.755791
  C      -0.756549     -0.028885     -0.089976
  O      -2.032000     -0.336065      0.472099
  H       1.350554     -2.244517      1.255756
  H       0.418664     -2.376687     -0.078070
  H       1.323250     -0.085539      0.320744
  H       0.314338     -0.101561      1.768285
  H      -0.682795     -0.451280     -1.095546
  H      -0.718462      1.055635     -0.171234
  H      -2.155747     -1.288790      0.431397
  O      -0.759347     -2.252197      3.141028
  C      -0.888726     -2.892217      2.162666
  O      -1.329750     -3.765821      1.508064
14
Coordinates from ORCA-job ./orca E -399.091230071193
  N       0.471977     -1.955825      0.843366
  C       0.408469     -0.496453      0.755177
  C      -0.756098     -0.027931     -0.090021
  O      -2.031770     -0.333833      0.472313
  H       1.351503     -2.244101      1.253546
  H       0.414483     -2.377906     -0.075752
  H       1.323381     -0.085926      0.318555
  H       0.316460     -0.099705      1.767215
  H      -0.683117     -0.450596     -1.095555
  H      -0.717000      1.056536     -0.171274
  H      -2.155810     -1.286589      0.433155
  O      -0.768145     -2.251615      3.140548
  C      -0.888616     -2.894367      2.162865
  O      -1.321780     -3.772572      1.508945
14
Coordinates from ORCA-job ./orca E -399.091241074961
  N       0.471203     -1.955194      0.845252
  C       0.409236     -0.495957      0.754367
  C      -0.755703     -0.026918     -0.090089
  O      -2.031335     -0.329977      0.473906
  H       1.352804     -2.243005      1.251573
  H       0.410562     -2.378831     -0.073023
  H       1.323828     -0.087327      0.315246
  H       0.319639     -0.096751      1.765670
  H      -0.684383     -0.450919     -1.095182
  H      -0.714823      1.057391     -0.172560
  H      -2.156087     -1.282781      0.438178
  O      -0.781598     -2.250388      3.138244
  C      -0.889135     -2.897768      2.162139
  O      -1.310270     -3.782457      1.509359
14
Coordinates from ORCA-job ./orca E -399.091238974689
  N       0.470492     -1.954449      0.847747
  C       0.410286     -0.495037      0.753314
  C      -0.755337     -0.025841     -0.090083
  O      -2.030559     -0.323590      0.477649
  H       1.354524     -2.241297      1.249853
  H       0.406490     -2.379533     -0.069761
  H       1.324823     -0.089924      0.310828
  H       0.324013     -0.092754      1.763649
  H      -0.687104     -0.452843     -1.094105
  H      -0.711564      1.058125     -0.175739
  H      -2.157017     -1.276373      0.447645
  O      -0.801891     -2.247429      3.132731
  C      -0.890311     -2.902777      2.160013
  O      -1.292905     -3.797160      1.509341
14
Coordinates from ORCA-job ./orca E -399.091242417666
  N       0.470261     -1.954057      0.849405
  C       0.411141     -0.494243      0.752536
  C      -0.755165     -0.025243     -0.089912
  O      -2.029791     -0.317305      0.482038
  H       1.355678     -2.240047      1.249305
  H       0.404459     -2.379636     -0.067824
  H       1.325952     -0.092354      0.307762
  H       0.327199     -0.090102      1.762270
  H      -0.690233     -0.455741     -1.092644
  H      -0.708630      1.058314     -0.179535
  H      -2.158574     -1.269922      0.457203
  O      -0.819676     -2.243358      3.125883
  C      -0.891468     -2.906975      2.157379
  O      -1.277214     -3.810212      1.509216
14
Coordinates from ORCA-job ./orca E -399.091245793333
  N       0.470174     -1.953870      0.850823
  C       0.412201     -0.493472      0.751646
  C      -0.754950     -0.024577     -0.089499
  O      -2.028754     -0.307870      0.488578
  H       1.356653     -2.239066      1.249050
  H       0.402724     -2.379578     -0.066264
  H       1.327547     -0.095322      0.304807
  H       0.330490     -0.087892      1.760932
  H      -0.695023     -0.460459     -1.090208
  H      -0.704341      1.058299     -0.185344
  H      -2.161761     -1.260047      0.470388
  O      -0.843648     -2.236161      3.114706
  C      -0.892668     -2.912424      2.153509
  O      -1.254706     -3.828445      1.509957
14
Coordinates from ORCA-job ./orca E -399.091252452714
  N       0.470057     -1.954162      0.850714
  C       0.412671     -0.493418      0.751278
  C      -0.754755     -0.024107     -0.089129
  O      -2.028215     -0.300837      0.492846
  H       1.356416     -2.239414      1.249070
  H       0.402548     -2.379348     -0.066577
  H       1.328482     -0.096716      0.304253
  H       0.331369     -0.088021      1.760664
  H      -0.698379     -0.463863     -1.088363
  H      -0.701114      1.058228     -0.189447
  H      -2.164908     -1.252544      0.478478
  O      -0.858555     -2.229913      3.106140
  C      -0.892798     -2.915757      2.151143
  O      -1.238880     -3.841011      1.512011
14
Coordinates from ORCA-job ./orca E -399.091260118285
  N       0.469436     -1.955127      0.848654
  C       0.412573     -0.494194      0.751389
  C      -0.754420     -0.023413     -0.088739
  O      -2.028094     -0.294102      0.495657
  H       1.354361     -2.241708      1.248971
  H       0.403577     -2.378727     -0.069402
  H       1.328987     -0.096961      0.306211
  H       0.329890     -0.090836      1.761521
  H      -0.700981     -0.466334     -1.086772
  H      -0.697827      1.058427     -0.192605
  H      -2.168861     -1.245226      0.483264
  O      -0.868902     -2.222039      3.097849
  C      -0.891585     -2.918038      2.150030
  O      -1.224215     -3.852603      1.517052
14
Coordinates from ORCA-job ./orca E -399.091267747564
  N       0.467724     -1.956215      0.845486
  C       0.411985     -0.495519      0.751821
  C      -0.753820     -0.022138     -0.088569
  O      -2.028378     -0.291015      0.494910
  H       1.350970     -2.245444      1.247429
  H       0.403010     -2.378252     -0.073299
  H       1.328818     -0.096192      0.309369
  H       0.327319     -0.094768      1.762891
  H      -0.700893     -0.465042     -1.086673
  H      -0.695740      1.059627     -0.192060
  H      -2.170936     -1.241859      0.481631
  O      -0.872217     -2.215437      3.094017
  C      -0.889231     -2.918584      2.151499
  O      -1.214671     -3.860043      1.524629
14
Coordinates from ORCA-job ./orca E -399.091273606703
  N       0.464502     -1.957000      0.842578
  C       0.411443     -0.496766      0.752000
  C      -0.752812     -0.019702     -0.088630
  O      -2.028537     -0.288913      0.492414
  H       1.347004     -2.249793      1.243583
  H       0.398150     -2.378224     -0.076430
  H       1.328649     -0.096130      0.311339
  H       0.326134     -0.097555      1.763685
  H      -0.699271     -0.460473     -1.087658
  H      -0.693576      1.062243     -0.189102
  H      -2.170798     -1.239809      0.478501
  O      -0.879101     -2.208924      3.091273
  C      -0.886515     -2.919796      2.154419
  O      -1.201333     -3.870040      1.535110
14
Coordinates from ORCA-job ./orca E -399.091270869961
  N       0.461551     -1.957306      0.840754
  C       0.410699     -0.497307      0.752268
  C      -0.752146     -0.017725     -0.089056
  O      -2.028912     -0.291437      0.487731
  H       1.343946     -2.252743      1.240161
  H       0.393217     -2.377980     -0.078377
  H       1.328296     -0.096370      0.312510
  H       0.325423     -0.098728      1.764200
  H      -0.695647     -0.454156     -1.089811
  H      -0.693860      1.064723     -0.184285
  H      -2.167626     -1.242863      0.472678
  O      -0.877746     -2.207263      3.093843
  C      -0.884618     -2.919480      2.158025
  O      -1.198639     -3.872246      1.542442
14
Coordinates from ORCA-job ./orca E -399.091280214363
  N       0.458843     -1.957205      0.840482
  C       0.410514     -0.497106      0.752006
  C      -0.751475     -0.015644     -0.089471
  O      -2.028760     -0.290592      0.485564
  H       1.342150     -2.254407      1.236769
  H       0.386819     -2.377872     -0.078430
  H       1.328716     -0.098189      0.311615
  H       0.326705     -0.097875      1.763767
  H      -0.693836     -0.449892     -1.091102
  H      -0.692783      1.067001     -0.182154
  H      -2.164874     -1.242458      0.473259
  O      -0.886384     -2.204737      3.092246
  C      -0.883789     -2.921552      2.159773
  O      -1.187907     -3.880352      1.548758
14
Coordinates from ORCA-job ./orca E -399.091283012392
  N       0.457244     -1.957195      0.840106
  C       0.410014     -0.496791      0.752113
  C      -0.751209     -0.014618     -0.089966
  O      -2.028918     -0.291903      0.482823
  H       1.340865     -2.255245      1.235087
  H       0.383550     -2.377280     -0.078967
  H       1.328904     -0.099228      0.311970
  H       0.326406     -0.097767      1.763928
  H      -0.691640     -0.446698     -1.092430
  H      -0.693189      1.068257     -0.180426
  H      -2.162013     -1.244245      0.472559
  O      -0.886064     -2.204517      3.093226
  C      -0.883312     -2.921907      2.161239
  O      -1.186699     -3.881745      1.551820
14
Coordinates from ORCA-job ./orca E -399.091276154700
  N       0.456021     -1.957242      0.839770
  C       0.409624     -0.496550      0.752182
  C      -0.750927     -0.013803     -0.090390
  O      -2.029009     -0.292091      0.480868
  H       1.339910     -2.255917      1.233661
  H       0.380703     -2.376806     -0.079413
  H       1.329192     -0.100055      0.312598
  H       0.325787     -0.098005      1.764150
  H      -0.690144     -0.444689     -1.093325
  H      -0.693154      1.069186     -0.179755
  H      -2.160025     -1.244763      0.473285
  O      -0.886927     -2.203627      3.092984
  C      -0.882931     -2.922496      2.162134
  O      -1.184181     -3.884024      1.554331
14
Coordinates from ORCA-job ./orca E -399.091277394737
  N       0.455734     -1.957320      0.839610
  C       0.409417     -0.496528      0.752252
  C      -0.750806     -0.013641     -0.090627
  O      -2.029096     -0.291537      0.480258
  H       1.339703     -2.256040      1.233237
  H       0.380021     -2.376656     -0.079632
  H       1.329269     -0.100132      0.313251
  H       0.325052     -0.098387      1.764349
  H      -0.689812     -0.444625     -1.093537
  H      -0.692864      1.069321     -0.180209
  H      -2.159694     -1.244282      0.474434
  O      -0.887125     -2.203249      3.092551
  C      -0.882784     -2.922807      2.162243
  O      -1.183077     -3.884999      1.554901
14
Coordinates from ORCA-job ./orca E -399.091331035657
  N       0.451843     -1.965921      0.846366
  C       0.403991     -0.504590      0.757760
  C      -0.753945     -0.016193     -0.086714
  O      -2.036946     -0.287667      0.476878
  H       1.351578     -2.259429      1.238859
  H       0.384048     -2.384416     -0.088910
  H       1.324627     -0.109115      0.319572
  H       0.319105     -0.107063      1.770055
  H      -0.691750     -0.445715     -1.090178
  H      -0.690316      1.066636     -0.174227
  H      -2.173945     -1.238975      0.468406
  O      -0.880770     -2.187256      3.087054
  C      -0.863777     -2.901737      2.145157
  O      -1.179804     -3.879440      1.553003
14
Coordinates from ORCA-job ./orca E -399.091636858175
  N       0.452176     -1.965459      0.844395
  C       0.404131     -0.503953      0.758103
  C      -0.752991     -0.017345     -0.086986
  O      -2.034614     -0.290555      0.477958
  H       1.341174     -2.257711      1.231196
  H       0.383132     -2.379147     -0.077787
  H       1.324995     -0.109764      0.320644
  H       0.318988     -0.107600      1.770665
  H      -0.690179     -0.447004     -1.090368
  H      -0.690200      1.065467     -0.174275
  H      -2.170723     -1.242436      0.468033
  O      -0.877990     -2.189399      3.083857
  C      -0.863175     -2.901258      2.143470
  O      -1.180785     -3.874718      1.554177
14
Coordinates from ORCA-job ./orca E -399.091667720813
  N       0.452595     -1.965133      0.843618
  C       0.403848     -0.503288      0.758826
  C      -0.752896     -0.017515     -0.087015
  O      -2.034109     -0.292351      0.477917
  H       1.341195     -2.259089      1.230804
  H       0.380027     -2.379702     -0.078110
  H       1.325312     -0.109368      0.322336
  H       0.317944     -0.107843      1.771567
  H      -0.689199     -0.446798     -1.090453
  H      -0.691029      1.065409     -0.173990
  H      -2.169450     -1.244344      0.466670
  O      -0.875471     -2.188668      3.083303
  C      -0.862839     -2.900161      2.143164
  O      -1.181987     -3.872030      1.554442
14
Coordinates from ORCA-job ./orca E -399.091674563825
  N       0.453323     -1.964481      0.842134
  C       0.403498     -0.502382      0.760158
  C      -0.752601     -0.017707     -0.086999
  O      -2.033486     -0.296330      0.476757
  H       1.341026     -2.261924      1.229167
  H       0.372995     -2.380753     -0.078380
  H       1.326029     -0.108265      0.325992
  H       0.315690     -0.109109      1.773450
  H      -0.686723     -0.445509     -1.090853
  H      -0.692855      1.065478     -0.172617
  H      -2.167232     -1.248503      0.462126
  O      -0.869113     -2.186614      3.083877
  C      -0.861725     -2.897624      2.143425
  O      -1.184885     -3.867158      1.554846
14
Coordinates from ORCA-job ./orca E -399.091678788436
  N       0.453660     -1.964082      0.841188
  C       0.403352     -0.502127      0.760925
  C      -0.752281     -0.017632     -0.086969
  O      -2.033299     -0.299318      0.474985
  H       1.340850     -2.263920      1.227240
  H       0.367472     -2.381561     -0.078114
  H       1.326391     -0.107203      0.328575
  H       0.314039     -0.110423      1.774694
  H      -0.684560     -0.443762     -1.091388
  H      -0.694166      1.065771     -0.170905
  H      -2.165878     -1.251606      0.457408
  O      -0.863884     -2.185331      3.085591
  C      -0.860568     -2.895693      2.144403
  O      -1.187189     -3.863995      1.555448
14
Coordinates from ORCA-job ./orca E -399.091680101920
  N       0.453768     -1.963816      0.840552
  C       0.403273     -0.502234      0.761403
  C      -0.751914     -0.017365     -0.086951
  O      -2.033329     -0.301896      0.472703
  H       1.340829     -2.265492      1.224942
  H       0.362402     -2.382449     -0.077514
  H       1.326476     -0.106068      0.330575
  H       0.312705     -0.111659      1.775570
  H      -0.682411     -0.441558     -1.092079
  H      -0.695192      1.066250     -0.168801
  H      -2.164885     -1.254264      0.452288
  O      -0.859250     -2.184756      3.088112
  C      -0.859326     -2.894052      2.145891
  O      -1.189207     -3.861521      1.556392
14
Coordinates from ORCA-job ./orca E -399.091682382934
  N       0.453639     -1.963732      0.840449
  C       0.403256     -0.502433      0.761516
  C      -0.751681     -0.017097     -0.086952
  O      -2.033418     -0.303213      0.471172
  H       1.341019     -2.266057      1.223367
  H       0.359782     -2.382988     -0.076985
  H       1.326356     -0.105483      0.331184
  H       0.312299     -0.112064      1.775792
  H      -0.681181     -0.440001     -1.092572
  H      -0.695617      1.066647     -0.167313
  H      -2.164376     -1.255633      0.449258
  O      -0.857268     -2.185015      3.089976
  C      -0.858686     -2.893359      2.146994
  O      -1.190185     -3.860454      1.557195
14
Coordinates from ORCA-job ./orca E -399.091979597286
  N       0.448810     -1.970028      0.845540
  C       0.399590     -0.508643      0.767452
  C      -0.753749     -0.021968     -0.082424
  O      -2.036514     -0.307502      0.473641
  H       1.351004     -2.270128      1.227301
  H       0.361932     -2.387493     -0.088474
  H       1.323573     -0.112079      0.338660
  H       0.307444     -0.118828      1.781834
  H      -0.682072     -0.444316     -1.088196
  H      -0.696790      1.061784     -0.162049
  H      -2.168122     -1.259814      0.450960
  O      -0.853759     -2.165288      3.081637
  C      -0.843832     -2.867868      2.126329
  O      -1.193576     -3.848710      1.550871
14
Coordinates from ORCA-job ./orca E -399.092287736795
  N       0.449444     -1.971756      0.845253
  C       0.397926     -0.509503      0.767897
  C      -0.753671     -0.020522     -0.083642
  O      -2.038680     -0.303252      0.468240
  H       1.342258     -2.268572      1.219718
  H       0.360707     -2.385238     -0.075193
  H       1.322643     -0.114942      0.340238
  H       0.305668     -0.120797      1.782433
  H      -0.680430     -0.441423     -1.089883
  H      -0.693938      1.063146     -0.161632
  H      -2.174907     -1.254656      0.439711
  O      -0.845742     -2.172229      3.083035
  C      -0.838338     -2.871990      2.129254
  O      -1.189001     -3.849147      1.557653
14
Coordinates from ORCA-job ./orca E -399.092321612738
  N       0.449779     -1.971265      0.844710
  C       0.397757     -0.508753      0.768235
  C      -0.753574     -0.020644     -0.083437
  O      -2.037964     -0.305574      0.468373
  H       1.342309     -2.269367      1.219591
  H       0.357721     -2.385778     -0.075213
  H       1.322820     -0.114912      0.340672
  H       0.305406     -0.120719      1.782931
  H      -0.679558     -0.440969     -1.089824
  H      -0.694739      1.063159     -0.160506
  H      -2.172754     -1.257223      0.439051
  O      -0.844631     -2.171387      3.082093
  C      -0.838484     -2.870873      2.128667
  O      -1.190148     -3.846575      1.557736
14
Coordinates from ORCA-job ./orca E -399.092325086638
  N       0.450246     -1.970719      0.844039
  C       0.397296     -0.507931      0.769051
  C      -0.753401     -0.020377     -0.083355
  O      -2.037741     -0.308734      0.466491
  H       1.342510     -2.271133      1.218251
  H       0.350870     -2.387171     -0.074495
  H       1.323078     -0.114743      0.342357
  H       0.304208     -0.121417      1.784159
  H      -0.677280     -0.438766     -1.090343
  H      -0.695863      1.063682     -0.158147
  H      -2.171161     -1.260473      0.433916
  O      -0.839861     -2.170406      3.083030
  C      -0.837248     -2.869464      2.129370
  O      -1.191714     -3.843230      1.558759
14
Coordinates from ORCA-job ./orca E -399.092350795272
  N       0.450513     -1.970167      0.843524
  C       0.397172     -0.507466      0.769657
  C      -0.753108     -0.020155     -0.083314
  O      -2.037510     -0.311723      0.464564
  H       1.342554     -2.272638      1.216313
  H       0.344520     -2.388231     -0.073416
  H       1.323335     -0.114105      0.343955
  H       0.303234     -0.122196      1.785145
  H      -0.675052     -0.436641     -1.090919
  H      -0.697017      1.064130     -0.156031
  H      -2.169557     -1.263563      0.429188
  O      -0.835642     -2.169592      3.084736
  C      -0.836116     -2.868003      2.130357
  O      -1.193387     -3.840531      1.559323
14
Coordinates from ORCA-job ./orca E -399.092333130763
  N       0.450526     -1.969630      0.843174
  C       0.397217     -0.507253      0.770214
  C      -0.752660     -0.019746     -0.083350
  O      -2.037365     -0.315023      0.461818
  H       1.342701     -2.274304      1.213275
  H       0.337214     -2.389402     -0.071860
  H       1.323572     -0.113035      0.345747
  H       0.302244     -0.122993      1.786039
  H      -0.672283     -0.433763     -1.091787
  H      -0.698419      1.064793     -0.153518
  H      -2.167835     -1.266949      0.423211
  O      -0.830955     -2.169380      3.087791
  C      -0.834687     -2.866426      2.132145
  O      -1.195330     -3.837771      1.560184
14
Coordinates from ORCA-job ./orca E -399.092341175444
  N       0.450502     -1.969422      0.843288
  C       0.397377     -0.507327      0.770280
  C      -0.752432     -0.019605     -0.083439
  O      -2.037294     -0.315814      0.460944
  H       1.343044     -2.274645      1.211786
  H       0.334852     -2.389888     -0.071018
  H       1.323606     -0.112395      0.346216
  H       0.302104     -0.122954      1.786095
  H      -0.671422     -0.432990     -1.092103
  H      -0.698785      1.064987     -0.153025
  H      -2.167226     -1.267799      0.421928
  O      -0.830402     -2.169857      3.089133
  C      -0.834313     -2.866017      2.132796
  O      -1.195671     -3.837156      1.560202
14
Coordinates from ORCA-job ./orca E -399.092339925590
  N       0.450482     -1.969219      0.843706
  C       0.397587     -0.507424      0.770245
  C      -0.752194     -0.019504     -0.083575
  O      -2.037219     -0.316011      0.460366
  H       1.343771     -2.274605      1.210158
  H       0.332996     -2.390332     -0.070008
  H       1.323608     -0.111837      0.346321
  H       0.302242     -0.122447      1.785889
  H      -0.670872     -0.432674     -1.092326
  H      -0.698867      1.065093     -0.153000
  H      -2.166772     -1.268062      0.421762
  O      -0.831281     -2.170808      3.090289
  C      -0.834169     -2.865975      2.133265
  O      -1.195374     -3.837076      1.559988
14
Coordinates from ORCA-job ./orca E -399.092338492946
  N       0.450562     -1.969099      0.844181
  C       0.397718     -0.507397      0.770172
  C      -0.752091     -0.019521     -0.083659
  O      -2.037150     -0.315608      0.460470
  H       1.344497     -2.274241      1.209344
  H       0.332391     -2.390504     -0.069339
  H       1.323631     -0.111757      0.346037
  H       0.302561     -0.121810      1.785627
  H      -0.670937     -0.433006     -1.092304
  H      -0.698634      1.065042     -0.153411
  H      -2.166672     -1.267703      0.422765
  O      -0.833047     -2.171433      3.090398
  C      -0.834336     -2.866286      2.133194
  O      -1.194553     -3.837558      1.559607
14
Coordinates from ORCA-job ./orca E -399.092854430141
  N       0.445603     -1.975291      0.849480
  C       0.394060     -0.513508      0.776129
  C      -0.754113     -0.024320     -0.079156
  O      -2.040202     -0.319596      0.462981
  H       1.354461     -2.278436      1.213467
  H       0.333399     -2.396058     -0.080083
  H       1.320822     -0.118397      0.353356
  H       0.297808     -0.128306      1.791628
  H      -0.671835     -0.437433     -1.087863
  H      -0.699669      1.060229     -0.148358
  H      -2.170448     -1.271568      0.424673
  O      -0.829912     -2.151888      3.082204
  C      -0.819340     -2.841064      2.112609
  O      -1.196693     -3.825245      1.552014
14
Coordinates from ORCA-job ./orca E -399.093194967829
  N       0.446156     -1.976933      0.849451
  C       0.392360     -0.514106      0.776522
  C      -0.754069     -0.022856     -0.080450
  O      -2.042344     -0.314964      0.457749
  H       1.345301     -2.276590      1.206376
  H       0.332425     -2.393535     -0.066696
  H       1.320019     -0.121548      0.354750
  H       0.296059     -0.130050      1.792122
  H      -0.670369     -0.434847     -1.089466
  H      -0.696695      1.061578     -0.148340
  H      -2.177404     -1.265926      0.413601
  O      -0.822081     -2.159031      3.083090
  C      -0.813864     -2.845725      2.115424
  O      -1.191556     -3.826349      1.558949
14
Coordinates from ORCA-job ./orca E -399.093228028288
  N       0.446340     -1.976386      0.849066
  C       0.392129     -0.513179      0.776852
  C      -0.753954     -0.022923     -0.080370
  O      -2.041615     -0.316653      0.458006
  H       1.345212     -2.277219      1.206477
  H       0.329510     -2.393717     -0.066681
  H       1.320280     -0.121729      0.355168
  H       0.295707     -0.129810      1.792603
  H      -0.669658     -0.434773     -1.089348
  H      -0.697179      1.061597     -0.147813
  H      -2.175543     -1.267815      0.413403
  O      -0.821209     -2.158469      3.081782
  C      -0.813937     -2.845220      2.114755
  O      -1.192143     -3.824587      1.559183
14
Coordinates from ORCA-job ./orca E -399.093233418643
  N       0.446540     -1.975826      0.848703
  C       0.391666     -0.512232      0.777493
  C      -0.753793     -0.022630     -0.080506
  O      -2.041378     -0.318190      0.456778
  H       1.345142     -2.278437      1.205793
  H       0.323986     -2.394401     -0.065974
  H       1.320640     -0.121904      0.356547
  H       0.294584     -0.130132      1.793569
  H      -0.668126     -0.433661     -1.089659
  H      -0.697611      1.062013     -0.146925
  H      -2.174642     -1.269352      0.410184
  O      -0.817940     -2.157944      3.081874
  C      -0.812819     -2.844979      2.115087
  O      -1.192310     -3.823206      1.560118
14
Coordinates from ORCA-job ./orca E -399.093233864588
  N       0.446515     -1.975305      0.848364
  C       0.391555     -0.511668      0.777915
  C      -0.753514     -0.022343     -0.080611
  O      -2.041088     -0.319975      0.455452
  H       1.344873     -2.279583      1.204458
  H       0.318875     -2.394952     -0.065061
  H       1.320997     -0.121604      0.357798
  H       0.293752     -0.130548      1.794276
  H      -0.666523     -0.432286     -1.090072
  H      -0.698286      1.062432     -0.145850
  H      -2.173425     -1.271187      0.407116
  O      -0.815200     -2.157388      3.082809
  C      -0.811858     -2.844405      2.115764
  O      -1.192734     -3.822070      1.560723
14
Coordinates from ORCA-job ./orca E -399.093236073859
  N       0.446355     -1.974833      0.848101
  C       0.391579     -0.511391      0.778241
  C      -0.753141     -0.021928     -0.080788
  O      -2.040897     -0.321588      0.453727
  H       1.344660     -2.280790      1.202448
  H       0.313517     -2.395722     -0.063823
  H       1.321295     -0.120953      0.359125
  H       0.292963     -0.130972      1.794821
  H      -0.664756     -0.430580     -1.090650
  H      -0.698978      1.062969     -0.144739
  H      -2.172305     -1.272846      0.403783
  O      -0.812825     -2.157253      3.084509
  C      -0.810713     -2.843794      2.116889
  O      -1.192812     -3.821200      1.561436
14
Coordinates from ORCA-job ./orca E -399.093242046760
  N       0.446174     -1.974560      0.848056
  C       0.391703     -0.511402      0.778319
  C      -0.752843     -0.021636     -0.080932
  O      -2.040771     -0.322322      0.452672
  H       1.344688     -2.281430      1.200807
  H       0.310390     -2.396329     -0.062902
  H       1.321410     -0.120349      0.359770
  H       0.292671     -0.131010      1.794922
  H      -0.663725     -0.429555     -1.091040
  H      -0.699305      1.063316     -0.144176
  H      -2.171565     -1.273644      0.402311
  O      -0.812436     -2.157522      3.085765
  C      -0.810096     -2.843463      2.117675
  O      -1.192354     -3.820977      1.561834
14
Coordinates from ORCA-job ./orca E -399.093987229598
  N       0.441150     -1.980686      0.853435
  C       0.388033     -0.517450      0.784284
  C      -0.754821     -0.026366     -0.076471
  O      -2.043797     -0.326159      0.455109
  H       1.354656     -2.285790      1.205003
  H       0.311066     -2.401954     -0.073597
  H       1.318612     -0.126987      0.367119
  H       0.287881     -0.137389      1.800902
  H      -0.664556     -0.433965     -1.086606
  H      -0.700261      1.058565     -0.139210
  H      -2.175330     -1.277349      0.404180
  O      -0.809286     -2.138132      3.077548
  C      -0.794948     -2.818541      2.097044
  O      -1.194461     -3.808679      1.554341
14
Coordinates from ORCA-job ./orca E -399.094330834001
  N       0.441421     -1.982304      0.853525
  C       0.386438     -0.518069      0.784546
  C      -0.754715     -0.024805     -0.077833
  O      -2.045879     -0.321712      0.449667
  H       1.345039     -2.283898      1.197751
  H       0.310138     -2.399601     -0.059970
  H       1.317758     -0.129879      0.368313
  H       0.286333     -0.138830      1.801140
  H      -0.662915     -0.431107     -1.088334
  H      -0.697457      1.060011     -0.139080
  H      -2.181883     -1.271896      0.393131
  O      -0.801652     -2.145778      3.078801
  C      -0.789561     -2.823247      2.100121
  O      -1.189126     -3.809766      1.561303
14
Coordinates from ORCA-job ./orca E -399.094362332192
  N       0.441323     -1.981740      0.853300
  C       0.386157     -0.517176      0.784840
  C      -0.754535     -0.024736     -0.077909
  O      -2.045241     -0.323015      0.449562
  H       1.344862     -2.284483      1.197667
  H       0.306999     -2.399845     -0.059774
  H       1.317940     -0.129989      0.368721
  H       0.285937     -0.138386      1.801507
  H      -0.662060     -0.430932     -1.088349
  H      -0.697745      1.060147     -0.138767
  H      -2.180196     -1.273391      0.392859
  O      -0.800760     -2.145901      3.078000
  C      -0.789474     -2.823099      2.099797
  O      -1.189268     -3.808336      1.561626
14
Coordinates from ORCA-job ./orca E -399.094368369277
  N       0.441117     -1.981053      0.853149
  C       0.385727     -0.516181      0.785337
  C      -0.754273     -0.024319     -0.078232
  O      -2.044919     -0.324298      0.448173
  H       1.344544     -2.285562      1.196828
  H       0.301295     -2.400483     -0.058747
  H       1.318279     -0.130099      0.369862
  H       0.284978     -0.138260      1.802209
  H      -0.660423     -0.429828     -1.088784
  H      -0.698053      1.060671     -0.138192
  H      -2.178963     -1.274740      0.390325
  O      -0.798047     -2.146133      3.078457
  C      -0.788439     -2.823243      2.100309
  O      -1.188884     -3.807354      1.562387
14
Coordinates from ORCA-job ./orca E -399.094372500147
  N       0.440822     -1.980396      0.853023
  C       0.385568     -0.515489      0.785674
  C      -0.753928     -0.023874     -0.078554
  O      -2.044613     -0.325608      0.446651
  H       1.344094     -2.286614      1.195447
  H       0.295700     -2.401091     -0.057419
  H       1.318658     -0.129878      0.370995
  H       0.284169     -0.138290      1.802741
  H      -0.658756     -0.428500     -1.089318
  H      -0.698507      1.061219     -0.137544
  H      -2.177648     -1.276141      0.387824
  O      -0.795755     -2.146233      3.079577
  C      -0.787402     -2.823176      2.101096
  O      -1.188464     -3.806810      1.562888
14
Coordinates from ORCA-job ./orca E -399.094371994828
  N       0.440509     -1.979797      0.852984
  C       0.385584     -0.515088      0.785863
  C      -0.753520     -0.023364     -0.078925
  O      -2.044397     -0.326482      0.445048
  H       1.343739     -2.287599      1.193624
  H       0.290301     -2.401878     -0.055799
  H       1.319008     -0.129379      0.372084
  H       0.283481     -0.138311      1.803058
  H      -0.657195     -0.427137     -1.089921
  H      -0.698866      1.061804     -0.137087
  H      -2.176559     -1.277111      0.385699
  O      -0.794412     -2.146563      3.081073
  C      -0.786306     -2.823122      2.102075
  O      -1.187426     -3.806855      1.563305
14
Coordinates from ORCA-job ./orca E -399.094376735120
  N       0.440315     -1.979483      0.853069
  C       0.385735     -0.515048      0.785832
  C      -0.753228     -0.023047     -0.079152
  O      -2.044274     -0.326550      0.444261
  H       1.343721     -2.288057      1.192238
  H       0.287453     -2.402479     -0.054712
  H       1.319175     -0.128906      0.372517
  H       0.283287     -0.138141      1.803000
  H      -0.656485     -0.426488     -1.090255
  H      -0.698900      1.062133     -0.137037
  H      -2.176011     -1.277252      0.385244
  O      -0.795048     -2.146940      3.081938
  C      -0.785765     -2.823160      2.102644
  O      -1.186033     -3.807463      1.563494
14
Coordinates from ORCA-job ./orca E -399.094373646678
  N       0.440197     -1.979327      0.853274
  C       0.385909     -0.515143      0.785706
  C      -0.753008     -0.022836     -0.079292
  O      -2.044206     -0.326006      0.444021
  H       1.343967     -2.288170      1.191126
  H       0.286004     -2.402926     -0.053942
  H       1.319236     -0.128610      0.372499
  H       0.283418     -0.137774      1.802747
  H      -0.656323     -0.426344     -1.090394
  H      -0.698609      1.062320     -0.137271
  H      -2.175849     -1.276777      0.385908
  O      -0.797151     -2.147243      3.082152
  C      -0.785571     -2.823404      2.102885
  O      -1.184073     -3.808640      1.563662
14
Coordinates from ORCA-job ./orca E -399.095555788781
  N       0.432583     -1.985090      0.861621
  C       0.381783     -0.520885      0.791696
  C      -0.754624     -0.027289     -0.075873
  O      -2.047353     -0.326666      0.445860
  H       1.335103     -2.295495      1.201386
  H       0.278852     -2.409739     -0.045184
  H       1.316659     -0.137148      0.379371
  H       0.278549     -0.141702      1.807990
  H      -0.657265     -0.432588     -1.086196
  H      -0.697627      1.057651     -0.135448
  H      -2.181099     -1.277223      0.389012
  O      -0.781616     -2.128048      3.061192
  C      -0.770043     -2.805754      2.082992
  O      -1.169964     -3.790906      1.544664
14
Coordinates from ORCA-job ./orca E -399.095642901802
  N       0.430097     -1.984870      0.861997
  C       0.379789     -0.520071      0.791990
  C      -0.753871     -0.024407     -0.078336
  O      -2.049091     -0.320419      0.438947
  H       1.335199     -2.294358      1.196788
  H       0.273732     -2.408651     -0.044984
  H       1.315863     -0.138654      0.381062
  H       0.275661     -0.141260      1.808020
  H      -0.654545     -0.429139     -1.088669
  H      -0.693935      1.060370     -0.137073
  H      -2.186769     -1.270126      0.378122
  O      -0.777054     -2.139046      3.072611
  C      -0.766784     -2.808906      2.086736
  O      -1.164352     -3.801345      1.555871
14
Coordinates from ORCA-job ./orca E -399.093678252305
  N       0.439611     -1.984684      0.863519
  C       0.378061     -0.517168      0.793653
  C      -0.754640     -0.023464     -0.079636
  O      -2.053088     -0.317423      0.429367
  H       1.361630     -2.281320      1.167725
  H       0.269585     -2.406981     -0.042861
  H       1.313245     -0.139847      0.381168
  H       0.275366     -0.141465      1.809502
  H      -0.651036     -0.424996     -1.090642
  H      -0.692151      1.061152     -0.134859
  H      -2.198787     -1.264662      0.352651
  O      -0.803617     -2.151865      3.094574
  C      -0.714979     -2.835707      2.110206
  O      -1.205260     -3.792451      1.568715
14
Coordinates from ORCA-job ./orca E -399.095718088053
  N       0.431856     -1.983885      0.860128
  C       0.380247     -0.518116      0.792021
  C      -0.753131     -0.023682     -0.078184
  O      -2.047297     -0.322428      0.439377
  H       1.340702     -2.292347      1.186211
  H       0.269174     -2.406153     -0.046699
  H       1.316906     -0.138979      0.381114
  H       0.276608     -0.141207      1.808643
  H      -0.652906     -0.427459     -1.088720
  H      -0.693932      1.061257     -0.135405
  H      -2.184368     -1.272087      0.375085
  O      -0.791326     -2.139628      3.075662
  C      -0.760340     -2.810180      2.087912
  O      -1.168254     -3.805989      1.565935
14
Coordinates from ORCA-job ./orca E -399.095722461974
  N       0.432301     -1.984319      0.859659
  C       0.380626     -0.518465      0.791911
  C      -0.753396     -0.023603     -0.077608
  O      -2.047273     -0.322738      0.440604
  H       1.340156     -2.293734      1.187221
  H       0.269408     -2.407185     -0.046760
  H       1.317398     -0.139325      0.381073
  H       0.277271     -0.141914      1.808734
  H      -0.653656     -0.427129     -1.088297
  H      -0.694511      1.061349     -0.134748
  H      -2.183628     -1.272532      0.377465
  O      -0.793503     -2.136002      3.071844
  C      -0.763063     -2.808216      2.085972
  O      -1.164191     -3.807067      1.566012
14
Coordinates from ORCA-job ./orca E -399.095725507891
  N       0.432470     -1.984443      0.859381
  C       0.380593     -0.518537      0.792019
  C      -0.753384     -0.023412     -0.077474
  O      -2.047401     -0.322600      0.440300
  H       1.340462     -2.294120      1.186215
  H       0.268379     -2.407499     -0.046708
  H       1.317482     -0.139526      0.381347
  H       0.277180     -0.142398      1.808978
  H      -0.653440     -0.426585     -1.088284
  H      -0.694446      1.061547     -0.134268
  H      -2.183730     -1.272388      0.377080
  O      -0.794841     -2.134889      3.071237
  C      -0.762678     -2.808084      2.086077
  O      -1.162705     -3.807949      1.567183
14
Coordinates from ORCA-job ./orca E -399.097090932300
  N       0.424843     -1.990176      0.867768
  C       0.376473     -0.524255      0.798024
  C      -0.754965     -0.027865     -0.074059
  O      -2.050504     -0.323240      0.442115
  H       1.331595     -2.301446      1.196540
  H       0.261220     -2.414273     -0.037919
  H       1.314898     -0.148061      0.388255
  H       0.272307     -0.146282      1.814228
  H      -0.654340     -0.432855     -1.084077
  H      -0.693421      1.056868     -0.132461
  H      -2.188934     -1.272810      0.380167
  O      -0.779358     -2.115702      3.050190
  C      -0.747180     -2.790517      2.066137
  O      -1.148696     -3.790269      1.548173
14
Coordinates from ORCA-job ./orca E -399.097189518068
  N       0.422548     -1.989734      0.868269
  C       0.374351     -0.523159      0.798416
  C      -0.754278     -0.025176     -0.076771
  O      -2.052337     -0.317735      0.434463
  H       1.331736     -2.300145      1.192004
  H       0.255819     -2.413312     -0.037267
  H       1.313958     -0.149076      0.390295
  H       0.268894     -0.145640      1.814309
  H      -0.651117     -0.429561     -1.086753
  H      -0.690266      1.059404     -0.134341
  H      -2.194142     -1.266525      0.368778
  O      -0.772035     -2.128212      3.063331
  C      -0.742815     -2.793920      2.070554
  O      -1.146376     -3.798089      1.557794
14
Coordinates from ORCA-job ./orca E -399.095779066255
  N       0.432867     -1.988756      0.869010
  C       0.374619     -0.520242      0.799609
  C      -0.755581     -0.027447     -0.076407
  O      -2.053668     -0.323869      0.431410
  H       1.352645     -2.290502      1.173179
  H       0.255898     -2.413126     -0.034808
  H       1.312672     -0.147119      0.389854
  H       0.269961     -0.145511      1.815637
  H      -0.649063     -0.429708     -1.086767
  H      -0.693952      1.057265     -0.131964
  H      -2.195933     -1.272032      0.358074
  O      -0.789876     -2.133222      3.075543
  C      -0.702909     -2.811912      2.086673
  O      -1.193738     -3.774700      1.554039
14
Coordinates from ORCA-job ./orca E -399.097254189709
  N       0.424541     -1.988028      0.866540
  C       0.375093     -0.520522      0.797936
  C      -0.753752     -0.024908     -0.077010
  O      -2.050168     -0.320975      0.435481
  H       1.336020     -2.297822      1.184930
  H       0.253229     -2.411193     -0.038538
  H       1.315176     -0.148678      0.389671
  H       0.270124     -0.144681      1.814353
  H      -0.649784     -0.429048     -1.086920
  H      -0.691327      1.059840     -0.133893
  H      -2.189480     -1.270229      0.369613
  O      -0.782773     -2.131571      3.067264
  C      -0.738951     -2.793543      2.069747
  O      -1.154009     -3.799524      1.563909
14
Coordinates from ORCA-job ./orca E -399.097272414314
  N       0.424906     -1.988865      0.866337
  C       0.374925     -0.521297      0.798154
  C      -0.754094     -0.024665     -0.076648
  O      -2.050947     -0.320140      0.435310
  H       1.335805     -2.299081      1.185565
  H       0.253180     -2.412581     -0.038316
  H       1.315224     -0.149220      0.390325
  H       0.269838     -0.145896      1.814773
  H      -0.650208     -0.428234     -1.086813
  H      -0.691319      1.060066     -0.133172
  H      -2.191001     -1.269174      0.368881
  O      -0.782357     -2.128730      3.064690
  C      -0.739786     -2.792824      2.069424
  O      -1.150226     -3.800240      1.564570
14
Coordinates from ORCA-job ./orca E -399.097259060357
  N       0.425103     -1.988888      0.865970
  C       0.374995     -0.521280      0.798180
  C      -0.754057     -0.024591     -0.076450
  O      -2.050814     -0.320324      0.435487
  H       1.336061     -2.299333      1.184733
  H       0.252449     -2.412728     -0.038426
  H       1.315370     -0.149340      0.390440
  H       0.269932     -0.146309      1.814941
  H      -0.650115     -0.427915     -1.086700
  H      -0.691349      1.060159     -0.132701
  H      -2.190702     -1.269391      0.369012
  O      -0.784078     -2.127492      3.063860
  C      -0.739758     -2.792441      2.069163
  O      -1.149098     -3.801010      1.565573
14
Coordinates from ORCA-job ./orca E -399.098777779718
  N       0.417463     -1.994594      0.874395
  C       0.370884     -0.526977      0.804196
  C      -0.755603     -0.029044     -0.073040
  O      -2.053873     -0.320944      0.437279
  H       1.327184     -2.306656      1.195118
  H       0.245277     -2.419467     -0.029605
  H       1.312782     -0.157876      0.397379
  H       0.265058     -0.150148      1.820193
  H      -0.650974     -0.434214     -1.082482
  H      -0.690276      1.055470     -0.130912
  H      -2.195865     -1.269789      0.372086
  O      -0.768660     -2.108322      3.042754
  C      -0.724289     -2.774953      2.049184
  O      -1.135168     -3.783368      1.546536
14
Coordinates from ORCA-job ./orca E -399.098885036590
  N       0.415192     -1.993991      0.875228
  C       0.368881     -0.525591      0.804426
  C      -0.754980     -0.026511     -0.075857
  O      -2.055562     -0.315166      0.430232
  H       1.327330     -2.304905      1.191339
  H       0.240853     -2.418277     -0.028862
  H       1.311863     -0.158804      0.398906
  H       0.262052     -0.148742      1.819925
  H      -0.648213     -0.431755     -1.085019
  H      -0.687083      1.057796     -0.133606
  H      -2.200986     -1.263258      0.362049
  O      -0.761619     -2.122025      3.056077
  C      -0.720609     -2.778450      2.053050
  O      -1.133180     -3.791204      1.555193
14
Coordinates from ORCA-job ./orca E -399.097363269838
  N       0.426294     -1.992633      0.877414
  C       0.369535     -0.521791      0.805248
  C      -0.756660     -0.029559     -0.075859
  O      -2.056866     -0.320152      0.429025
  H       1.349350     -2.293152      1.174981
  H       0.245273     -2.417508     -0.025866
  H       1.310567     -0.156459      0.396801
  H       0.264410     -0.146140      1.820247
  H      -0.647859     -0.435116     -1.084543
  H      -0.690608      1.054701     -0.134287
  H      -2.203619     -1.267615      0.355201
  O      -0.780141     -2.131616      3.069458
  C      -0.680933     -2.797985      2.068272
  O      -1.184804     -3.765857      1.546991
14
Coordinates from ORCA-job ./orca E -399.098930446643
  N       0.417618     -1.992303      0.874249
  C       0.369724     -0.522914      0.803890
  C      -0.754756     -0.026854     -0.076135
  O      -2.053604     -0.317756      0.432278
  H       1.331822     -2.301795      1.186410
  H       0.240987     -2.416151     -0.029814
  H       1.312941     -0.158232      0.397718
  H       0.263594     -0.147031      1.819696
  H      -0.647955     -0.433106     -1.084805
  H      -0.688078      1.057526     -0.134638
  H      -2.197249     -1.266248      0.364733
  O      -0.771218     -2.126649      3.059683
  C      -0.717077     -2.778686      2.051854
  O      -1.142810     -3.790684      1.557962
14
Coordinates from ORCA-job ./orca E -399.098955428775
  N       0.417986     -1.993019      0.873923
  C       0.369617     -0.523555      0.803992
  C      -0.755066     -0.026597     -0.075780
  O      -2.054198     -0.317025      0.432348
  H       1.331581     -2.302860      1.187102
  H       0.241166     -2.417402     -0.029780
  H       1.313046     -0.158783      0.398189
  H       0.263423     -0.148224      1.820038
  H      -0.648448     -0.432333     -1.084692
  H      -0.688073      1.057772     -0.133932
  H      -2.198508     -1.265320      0.364213
  O      -0.771235     -2.124040      3.057291
  C      -0.718134     -2.777779      2.051238
  O      -1.139218     -3.791717      1.558933
14
Coordinates from ORCA-job ./orca E -399.098945570550
  N       0.418277     -1.993048      0.873648
  C       0.369706     -0.523534      0.803980
  C      -0.755094     -0.026608     -0.075582
  O      -2.054107     -0.317108      0.432708
  H       1.331866     -2.302953      1.186723
  H       0.241011     -2.417574     -0.029880
  H       1.313172     -0.158895      0.398171
  H       0.263576     -0.148565      1.820147
  H      -0.648566     -0.432267     -1.084528
  H      -0.688110      1.057768     -0.133656
  H      -2.198424     -1.265401      0.364491
  O      -0.772681     -2.123063      3.056503
  C      -0.718162     -2.777456      2.050889
  O      -1.138526     -3.792179      1.559469
14
Coordinates from ORCA-job ./orca E -399.100551178698
  N       0.410610     -1.998733      0.882097
  C       0.365599     -0.529218      0.809997
  C      -0.756611     -0.031061     -0.072182
  O      -2.057128     -0.317700      0.434469
  H       1.322965     -2.310280      1.197149
  H       0.233812     -2.424290     -0.021038
  H       1.310577     -0.167442      0.405133
  H       0.258703     -0.152372      1.825392
  H      -0.649400     -0.438586     -1.080305
  H      -0.686989      1.053064     -0.131884
  H      -2.203559     -1.265764      0.367536
  O      -0.757305     -2.103904      3.035383
  C      -0.702693     -2.760036      2.030905
  O      -1.124641     -3.774559      1.540429
14
Coordinates from ORCA-job ./orca E -399.100661201341
  N       0.408772     -1.997983      0.883348
  C       0.363891     -0.527562      0.809994
  C      -0.756167     -0.028931     -0.074974
  O      -2.058663     -0.311589      0.428694
  H       1.323471     -2.307862      1.194699
  H       0.231472     -2.422883     -0.020270
  H       1.309729     -0.168219      0.405842
  H       0.256461     -0.150111      1.824683
  H      -0.647605     -0.437551     -1.082483
  H      -0.683811      1.054903     -0.135670
  H      -2.208685     -1.258946      0.360030
  O      -0.751360     -2.118645      3.048259
  C      -0.700190     -2.763379      2.033633
  O      -1.123374     -3.782124      1.547297
14
Coordinates from ORCA-job ./orca E -399.099010110721
  N       0.422107     -1.996316      0.887457
  C       0.365322     -0.522858      0.810293
  C      -0.758631     -0.033619     -0.075099
  O      -2.060123     -0.315076      0.430881
  H       1.348302     -2.292819      1.182312
  H       0.244071     -2.421407     -0.016923
  H       1.308395     -0.165270      0.401194
  H       0.260959     -0.144606      1.823688
  H      -0.650350     -0.446132     -1.080915
  H      -0.687314      1.049861     -0.140531
  H      -2.212928     -1.261806      0.359952
  O      -0.772226     -2.133675      3.062252
  C      -0.661687     -2.784198      2.046515
  O      -1.181957     -3.752959      1.532005
14
Coordinates from ORCA-job ./orca E -399.100704424545
  N       0.412186     -1.996344      0.883232
  C       0.364887     -0.524886      0.809431
  C      -0.756381     -0.030222     -0.075218
  O      -2.057030     -0.313677      0.431966
  H       1.328799     -2.303569      1.192308
  H       0.235453     -2.420797     -0.020940
  H       1.310577     -0.167302      0.403979
  H       0.258323     -0.147695      1.824212
  H      -0.648672     -0.441303     -1.081742
  H      -0.684900      1.053566     -0.138361
  H      -2.206074     -1.261371      0.364970
  O      -0.759360     -2.124971      3.051782
  C      -0.697123     -2.763909      2.031736
  O      -1.136745     -3.778402      1.545726
14
Coordinates from ORCA-job ./orca E -399.100728771660
  N       0.412526     -1.996959      0.882848
  C       0.364783     -0.525407      0.809470
  C      -0.756666     -0.030000     -0.074901
  O      -2.057485     -0.313224      0.432092
  H       1.328504     -2.304411      1.193166
  H       0.235862     -2.421921     -0.021038
  H       1.310674     -0.167792      0.404362
  H       0.258112     -0.148851      1.824509
  H      -0.649107     -0.440554     -1.081669
  H      -0.684985      1.053794     -0.137631
  H      -2.207103     -1.260727      0.364270
  O      -0.758781     -2.122874      3.049917
  C      -0.698372     -2.762787      2.030975
  O      -1.134022     -3.779170      1.546712
14
Coordinates from ORCA-job ./orca E -399.100716796802
  N       0.412958     -1.996999      0.882672
  C       0.364882     -0.525381      0.809439
  C      -0.756773     -0.030141     -0.074700
  O      -2.057439     -0.313442      0.432553
  H       1.328879     -2.304293      1.193261
  H       0.236337     -2.422116     -0.021132
  H       1.310754     -0.167845      0.404243
  H       0.258280     -0.149140      1.824583
  H      -0.649356     -0.440690     -1.081477
  H      -0.685150      1.053659     -0.137447
  H      -2.207158     -1.260912      0.364449
  O      -0.759393     -2.122321      3.049427
  C      -0.698473     -2.762401      2.030568
  O      -1.134409     -3.778861      1.546643
14
Coordinates from ORCA-job ./orca E -399.102346918680
  N       0.405239     -2.002672      0.891127
  C       0.360767     -0.531059      0.815445
  C      -0.758273     -0.034586     -0.071321
  O      -2.060437     -0.313990      0.434268
  H       1.319926     -2.311635      1.203704
  H       0.229085     -2.428826     -0.012281
  H       1.308147     -0.176414      0.411215
  H       0.253401     -0.152929      1.829810
  H      -0.650187     -0.447011     -1.077261
  H      -0.683982      1.048943     -0.135696
  H      -2.212288     -1.261215      0.367446
  O      -0.744012     -2.103183      3.028360
  C      -0.682948     -2.745048      2.010631
  O      -1.120501     -3.761256      1.527634
14
Coordinates from ORCA-job ./orca E -399.102458453935
  N       0.404312     -2.001737      0.892869
  C       0.359607     -0.529095      0.815076
  C      -0.758138     -0.033163     -0.073939
  O      -2.061715     -0.307898      0.430511
  H       1.321069     -2.308374      1.203404
  H       0.230008     -2.427266     -0.011495
  H       1.307476     -0.176862      0.410738
  H       0.252363     -0.149682      1.828514
  H      -0.649842     -0.447919     -1.078870
  H      -0.681122      1.049972     -0.140710
  H      -2.217250     -1.254496      0.363541
  O      -0.739641     -2.118902      3.040294
  C      -0.682048     -2.747860      2.011657
  O      -1.121139     -3.767602      1.531492
14
Coordinates from ORCA-job ./orca E -399.100715101887
  N       0.421680     -1.999714      0.899170
  C       0.362731     -0.523485      0.814377
  C      -0.761925     -0.040894     -0.073551
  O      -2.062915     -0.311421      0.439078
  H       1.349575     -2.289410      1.198661
  H       0.255796     -2.425239     -0.007936
  H       1.306430     -0.172693      0.402196
  H       0.260547     -0.140862      1.825655
  H      -0.657571     -0.464058     -1.075249
  H      -0.685891      1.041485     -0.150314
  H      -2.222375     -1.257513      0.374605
  O      -0.763844     -2.139076      3.052974
  C      -0.647361     -2.768342      2.019405
  O      -1.190938     -3.729659      1.504013
14
Coordinates from ORCA-job ./orca E -399.102506682860
  N       0.409451     -1.999995      0.893862
  C       0.360959     -0.526288      0.814322
  C      -0.759013     -0.035881     -0.074115
  O      -2.060409     -0.309814      0.435624
  H       1.327717     -2.302276      1.204955
  H       0.239696     -2.425331     -0.011709
  H       1.308100     -0.175356      0.407694
  H       0.254908     -0.146246      1.827582
  H      -0.652792     -0.454981     -1.077399
  H      -0.682682      1.047039     -0.145551
  H      -2.215854     -1.256678      0.371650
  O      -0.745243     -2.128329      3.044262
  C      -0.679947     -2.748189      2.008304
  O      -1.140950     -3.758556      1.523601
14
Coordinates from ORCA-job ./orca E -399.102532506433
  N       0.409944     -2.000518      0.893587
  C       0.360758     -0.526727      0.814409
  C      -0.759342     -0.035880     -0.073906
  O      -2.060893     -0.309665      0.435599
  H       1.327547     -2.302707      1.206332
  H       0.240674     -2.426395     -0.011763
  H       1.308058     -0.175626      0.408170
  H       0.254362     -0.147350      1.827912
  H      -0.653148     -0.454578     -1.077374
  H      -0.682905      1.047052     -0.145046
  H      -2.217058     -1.256287      0.370342
  O      -0.742357     -2.127518      3.043529
  C      -0.681247     -2.746837      2.007532
  O      -1.140452     -3.757846      1.523760
14
Coordinates from ORCA-job ./orca E -399.102511825319
  N       0.410896     -2.000528      0.893604
  C       0.360905     -0.526651      0.814353
  C      -0.759645     -0.036428     -0.073687
  O      -2.060900     -0.310375      0.436405
  H       1.328232     -2.302100      1.207615
  H       0.242614     -2.426722     -0.011752
  H       1.308072     -0.175437      0.407901
  H       0.254512     -0.147541      1.827940
  H      -0.653710     -0.455367     -1.077071
  H      -0.683471      1.046507     -0.145153
  H      -2.217311     -1.256915      0.370523
  O      -0.740800     -2.128107      3.043704
  C      -0.681752     -2.745970      2.006707
  O      -1.143704     -3.755247      1.521992
14
Coordinates from ORCA-job ./orca E -399.102519199882
  N       0.415694     -2.000338      0.894390
  C       0.361592     -0.526138      0.814151
  C      -0.761207     -0.039502     -0.072856
  O      -2.061066     -0.314318      0.440004
  H       1.331845     -2.298470      1.214735
  H       0.252689     -2.428119     -0.011089
  H       1.307865     -0.174041      0.406414
  H       0.255194     -0.147735      1.827931
  H      -0.656357     -0.459960     -1.075678
  H      -0.686531      1.043434     -0.146327
  H      -2.218985     -1.260320      0.370267
  O      -0.729689     -2.133967      3.046814
  C      -0.683707     -2.742102      2.003293
  O      -1.163396     -3.739304      1.511031
14
Coordinates from ORCA-job ./orca E -399.102522342583
  N       0.420037     -1.999741      0.895855
  C       0.362330     -0.525438      0.813919
  C      -0.762657     -0.042779     -0.072366
  O      -2.061076     -0.319100      0.443165
  H       1.334975     -2.294502      1.222460
  H       0.262645     -2.428953     -0.009859
  H       1.307509     -0.172150      0.404683
  H       0.256003     -0.146794      1.827590
  H      -0.658589     -0.464936     -1.074516
  H      -0.689969      1.040170     -0.148015
  H      -2.220072     -1.264623      0.369361
  O      -0.715475     -2.143088      3.052023
  C      -0.685800     -2.738407      2.000417
  O      -1.185919     -3.720541      1.498366
14
Coordinates from ORCA-job ./orca E -399.102525728040
  N       0.425656     -1.998525      0.898666
  C       0.363417     -0.524345      0.813499
  C      -0.764623     -0.047542     -0.072081
  O      -2.061015     -0.326726      0.447043
  H       1.338835     -2.288652      1.234034
  H       0.276714     -2.429599     -0.007530
  H       1.306845     -0.169021      0.401974
  H       0.257338     -0.144141      1.826631
  H      -0.661304     -0.472134     -1.073232
  H      -0.695295      1.035428     -0.150865
  H      -2.220950     -1.271630      0.367408
  O      -0.692338     -2.160018      3.061293
  C      -0.688855     -2.733441      1.996994
  O      -1.220485     -3.690535      1.479250
14
Coordinates from ORCA-job ./orca E -399.102527125939
  N       0.427201     -1.997841      0.900248
  C       0.363752     -0.523970      0.813231
  C      -0.765273     -0.049240     -0.072379
  O      -2.061023     -0.329557      0.447996
  H       1.339719     -2.286358      1.238851
  H       0.282118     -2.429438     -0.006361
  H       1.306408     -0.167576      0.400832
  H       0.257894     -0.142046      1.825796
  H      -0.662104     -0.474902     -1.073078
  H      -0.697292      1.033706     -0.152517
  H      -2.220836     -1.274355      0.366883
  O      -0.682180     -2.168834      3.065884
  C      -0.690021     -2.732198      1.996193
  O      -1.234424     -3.678272      1.471503
14
Coordinates from ORCA-job ./orca E -399.102531582932
  N       0.425337     -1.997861      0.900173
  C       0.363446     -0.524269      0.813185
  C      -0.764746     -0.048075     -0.072863
  O      -2.061085     -0.327615      0.446720
  H       1.338246     -2.287522      1.236943
  H       0.279354     -2.428829     -0.006664
  H       1.306362     -0.167980      0.401245
  H       0.257733     -0.141408      1.825459
  H      -0.661405     -0.473459     -1.073685
  H      -0.695990      1.034824     -0.152588
  H      -2.220160     -1.272738      0.368003
  O      -0.686023     -2.166986      3.065029
  C      -0.689450     -2.734082      1.997346
  O      -1.227680     -3.684882      1.474778
14
Coordinates from ORCA-job ./orca E -399.102523989238
  N       0.425167     -1.997911      0.900033
  C       0.363389     -0.524355      0.813176
  C      -0.764703     -0.047938     -0.072869
  O      -2.061147     -0.327319      0.446544
  H       1.338085     -2.287693      1.236698
  H       0.279149     -2.428810     -0.006826
  H       1.306384     -0.168146      0.401325
  H       0.257674     -0.141501      1.825450
  H      -0.661367     -0.473184     -1.073760
  H      -0.695809      1.034959     -0.152418
  H      -2.220101     -1.272499      0.368278
  O      -0.686780     -2.166344      3.064642
  C      -0.689396     -2.734219      1.997377
  O      -1.226607     -3.685922      1.475432
14
Coordinates from ORCA-job ./orca E -399.104143511977
  N       0.417189     -2.003597      0.908409
  C       0.359172     -0.530029      0.819081
  C      -0.766280     -0.052267     -0.069603
  O      -2.064273     -0.327632      0.448107
  H       1.328836     -2.295078      1.247055
  H       0.271618     -2.435596      0.002000
  H       1.303724     -0.176796      0.408222
  H       0.252716     -0.145289      1.830563
  H      -0.662326     -0.479376     -1.069638
  H      -0.694596      1.030333     -0.150779
  H      -2.225416     -1.272547      0.371097
  O      -0.671090     -2.147539      3.044195
  C      -0.673328     -2.717122      1.977839
  O      -1.212008     -3.668346      1.456533
14
Coordinates from ORCA-job ./orca E -399.104253923207
  N       0.417539     -2.002317      0.910670
  C       0.358964     -0.527685      0.817893
  C      -0.766539     -0.051619     -0.071942
  O      -2.065063     -0.320361      0.448001
  H       1.330306     -2.290891      1.250533
  H       0.277076     -2.434008      0.003036
  H       1.303503     -0.176953      0.405670
  H       0.253831     -0.140555      1.828159
  H      -0.664706     -0.483235     -1.070237
  H      -0.691644      1.030321     -0.157985
  H      -2.230231     -1.264839      0.374415
  O      -0.672295     -2.163893      3.052409
  C      -0.675039     -2.719102      1.975807
  O      -1.211763     -3.675745      1.456653
14
Coordinates from ORCA-job ./orca E -399.102318581806
  N       0.441795     -1.999891      0.919788
  C       0.364729     -0.520918      0.814260
  C      -0.772589     -0.063449     -0.071167
  O      -2.066088     -0.315605      0.469272
  H       1.363765     -2.265548      1.260775
  H       0.326635     -2.431124      0.007108
  H       1.302806     -0.172145      0.389357
  H       0.269082     -0.125989      1.820654
  H      -0.684026     -0.513714     -1.062335
  H      -0.694816      1.016084     -0.178946
  H      -2.240347     -1.259524      0.412080
  O      -0.718729     -2.192412      3.058065
  C      -0.646474     -2.744608      1.970069
  O      -1.281802     -3.632040      1.414104
14
Coordinates from ORCA-job ./orca E -399.104304616118
  N       0.426041     -2.000511      0.913247
  C       0.360974     -0.525070      0.816281
  C      -0.768621     -0.056467     -0.071887
  O      -2.064422     -0.317326      0.458263
  H       1.338856     -2.281842      1.259556
  H       0.297225     -2.432871      0.003949
  H       1.303752     -0.175234      0.399768
  H       0.258335     -0.135515      1.825809
  H      -0.673069     -0.497500     -1.066620
  H      -0.691771      1.024481     -0.168382
  H      -2.233002     -1.261854      0.393498
  O      -0.684801     -2.176384      3.051995
  C      -0.673765     -2.721467      1.968081
  O      -1.231792     -3.663319      1.439525
14
Coordinates from ORCA-job ./orca E -399.104314348041
  N       0.426554     -2.001183      0.912999
  C       0.360329     -0.525776      0.816471
  C      -0.768964     -0.056467     -0.071897
  O      -2.065276     -0.315391      0.457969
  H       1.338656     -2.281843      1.261356
  H       0.298724     -2.434195      0.003933
  H       1.303334     -0.175543      0.400648
  H       0.256825     -0.137062      1.826293
  H      -0.673758     -0.497695     -1.066586
  H      -0.690904      1.024389     -0.168624
  H      -2.236283     -1.259314      0.391348
  O      -0.680742     -2.176462      3.051408
  C      -0.674555     -2.720539      1.967565
  O      -1.230000     -3.663802      1.440199
14
Coordinates from ORCA-job ./orca E -399.104320552109
  N       0.428289     -2.001162      0.913172
  C       0.360624     -0.525758      0.816193
  C      -0.769481     -0.057572     -0.071593
  O      -2.065193     -0.314788      0.460458
  H       1.339615     -2.280493      1.264505
  H       0.303306     -2.434686      0.003982
  H       1.303275     -0.175211      0.399813
  H       0.257204     -0.137106      1.826036
  H      -0.675774     -0.500506     -1.065648
  H      -0.690877      1.023095     -0.170171
  H      -2.237591     -1.258496      0.394372
  O      -0.681129     -2.177356      3.050082
  C      -0.675560     -2.719765      1.965384
  O      -1.232770     -3.661076      1.436497
14
Coordinates from ORCA-job ./orca E -399.104328568826
  N       0.438325     -2.000992      0.915413
  C       0.361976     -0.525694      0.814737
  C      -0.772671     -0.063958     -0.070436
  O      -2.065619     -0.309689      0.473362
  H       1.345399     -2.271973      1.283322
  H       0.330176     -2.437472      0.005588
  H       1.302398     -0.173147      0.394951
  H       0.259116     -0.136340      1.824302
  H      -0.687524     -0.517313     -1.060467
  H      -0.690278      1.015394     -0.180560
  H      -2.247931     -1.251595      0.408852
  O      -0.679340     -2.187675      3.045703
  C      -0.679427     -2.717248      1.954466
  O      -1.250662     -3.643178      1.413848
14
Coordinates from ORCA-job ./orca E -399.104332251649
  N       0.443294     -2.000372      0.917461
  C       0.363103     -0.525379      0.813742
  C      -0.774332     -0.067540     -0.069939
  O      -2.065504     -0.307784      0.480568
  H       1.347942     -2.267231      1.294150
  H       0.344629     -2.438294      0.007254
  H       1.301992     -0.171790      0.391392
  H       0.261287     -0.134297      1.822750
  H      -0.693830     -0.526817     -1.057566
  H      -0.690577      1.011035     -0.186707
  H      -2.252450     -1.248851      0.417038
  O      -0.677819     -2.195742      3.044496
  C      -0.681838     -2.716236      1.948791
  O      -1.261956     -3.631584      1.399654
14
Coordinates from ORCA-job ./orca E -399.104334662839
  N       0.447071     -1.999538      0.920006
  C       0.364290     -0.525047      0.812712
  C      -0.775772     -0.070481     -0.069613
  O      -2.065416     -0.306807      0.486473
  H       1.349603     -2.263120      1.303970
  H       0.356892     -2.438677      0.009461
  H       1.301624     -0.170725      0.387511
  H       0.264125     -0.131174      1.820844
  H      -0.699039     -0.534574     -1.055235
  H      -0.691413      1.007437     -0.191887
  H      -2.256079     -1.247109      0.422663
  O      -0.674988     -2.205135      3.044936
  C      -0.684001     -2.715756      1.944570
  O      -1.272959     -3.620176      1.386671
14
Coordinates from ORCA-job ./orca E -399.104342560717
  N       0.447201     -1.999209      0.920822
  C       0.364654     -0.524975      0.812424
  C      -0.775974     -0.070750     -0.069525
  O      -2.065355     -0.307523      0.487176
  H       1.349452     -2.262613      1.305620
  H       0.358392     -2.438518      0.010190
  H       1.301607     -0.170757      0.386261
  H       0.265398     -0.129757      1.820153
  H      -0.699518     -0.535038     -1.055072
  H      -0.692081      1.007156     -0.192101
  H      -2.256116     -1.247726      0.422220
  O      -0.673715     -2.207681      3.045917
  C      -0.684524     -2.715768      1.944426
  O      -1.275483     -3.617722      1.384571
14
Coordinates from ORCA-job ./orca E -399.105831581714
  N       0.438848     -2.005011      0.928948
  C       0.360276     -0.530732      0.818129
  C      -0.777708     -0.074937     -0.066431
  O      -2.068630     -0.307531      0.488479
  H       1.339777     -2.270140      1.315663
  H       0.350432     -2.445500      0.018847
  H       1.298853     -0.179584      0.392986
  H       0.260350     -0.133699      1.825081
  H      -0.700799     -0.540948     -1.051131
  H      -0.690838      1.002563     -0.190535
  H      -2.261701     -1.247344      0.424659
  O      -0.657343     -2.189064      3.026426
  C      -0.667617     -2.698828      1.925704
  O      -1.259960     -3.600127      1.366257
14
Coordinates from ORCA-job ./orca E -399.105932833156
  N       0.437940     -2.004275      0.930679
  C       0.359574     -0.528739      0.817152
  C      -0.777696     -0.073205     -0.068730
  O      -2.069470     -0.300246      0.486492
  H       1.340788     -2.266517      1.316447
  H       0.352822     -2.443886      0.019540
  H       1.298450     -0.180253      0.391238
  H       0.260687     -0.129900      1.823110
  H      -0.701886     -0.541932     -1.052211
  H      -0.687654      1.003625     -0.195795
  H      -2.266176     -1.239377      0.423998
  O      -0.657796     -2.204093      3.034758
  C      -0.668279     -2.701177      1.925555
  O      -1.257365     -3.610907      1.370848
14
Coordinates from ORCA-job ./orca E -399.104059785375
  N       0.455553     -2.004997      0.936704
  C       0.363029     -0.524320      0.814829
  C      -0.782079     -0.080373     -0.067451
  O      -2.070459     -0.298877      0.498652
  H       1.370686     -2.245638      1.313939
  H       0.387278     -2.440510      0.020832
  H       1.297047     -0.178361      0.379560
  H       0.271917     -0.120866      1.818140
  H      -0.713229     -0.558146     -1.046985
  H      -0.690800      0.994747     -0.205601
  H      -2.272371     -1.237267      0.442388
  O      -0.701276     -2.220214      3.041150
  C      -0.637647     -2.728710      1.926818
  O      -1.313708     -3.577349      1.350106
14
Coordinates from ORCA-job ./orca E -399.105981128145
  N       0.443270     -2.003311      0.932013
  C       0.361356     -0.526798      0.815891
  C      -0.778934     -0.076172     -0.068042
  O      -2.068091     -0.300869      0.493660
  H       1.347003     -2.260280      1.319699
  H       0.365047     -2.442208      0.019676
  H       1.299085     -0.180044      0.386474
  H       0.265096     -0.126470      1.821439
  H      -0.706578     -0.549557     -1.049490
  H      -0.689048      1.000077     -0.200346
  H      -2.264686     -1.240420      0.436447
  O      -0.671809     -2.209140      3.033310
  C      -0.666424     -2.703336      1.920808
  O      -1.271348     -3.602351      1.361543
14
Coordinates from ORCA-job ./orca E -399.106003635531
  N       0.443374     -2.003884      0.932024
  C       0.360756     -0.527307      0.815992
  C      -0.779241     -0.075738     -0.068160
  O      -2.069041     -0.298854      0.492797
  H       1.346666     -2.260437      1.320713
  H       0.365515     -2.443345      0.019962
  H       1.298789     -0.180779      0.386955
  H       0.264156     -0.127447      1.821729
  H      -0.706976     -0.548887     -1.049727
  H      -0.688224      1.000447     -0.200300
  H      -2.267823     -1.237793      0.433744
  O      -0.668727     -2.209634      3.033346
  C      -0.666780     -2.702960      1.920974
  O      -1.268505     -3.604264      1.363033
14
Coordinates from ORCA-job ./orca E -399.105992075129
  N       0.444102     -2.003814      0.932080
  C       0.361084     -0.527198      0.815726
  C      -0.779477     -0.076234     -0.067842
  O      -2.068737     -0.299084      0.494335
  H       1.346957     -2.259808      1.322114
  H       0.367603     -2.443463      0.020005
  H       1.298921     -0.180871      0.386099
  H       0.264883     -0.127317      1.821479
  H      -0.707924     -0.549997     -1.049148
  H      -0.688490      0.999885     -0.200644
  H      -2.267678     -1.238029      0.435709
  O      -0.670313     -2.209298      3.032224
  C      -0.667527     -2.702406      1.919714
  O      -1.269465     -3.603249      1.361229
14
Coordinates from ORCA-job ./orca E -399.107119928078
  N       0.435639     -2.009623      0.940153
  C       0.356671     -0.532969      0.821385
  C      -0.781226     -0.080389     -0.064795
  O      -2.072014     -0.299007      0.495557
  H       1.337170     -2.267373      1.332099
  H       0.359526     -2.450477      0.028627
  H       1.296135     -0.189753      0.392800
  H       0.259824     -0.131287      1.826359
  H      -0.709261     -0.555851     -1.045252
  H      -0.687208      0.995288     -0.199102
  H      -2.273307     -1.237522      0.438044
  O      -0.653798     -2.190709      3.012936
  C      -0.650430     -2.685539      1.901190
  O      -1.253781     -3.585670      1.343081
14
Coordinates from ORCA-job ./orca E -399.107251567318
  N       0.435528     -2.009187      0.942129
  C       0.355822     -0.531010      0.820649
  C      -0.781430     -0.079189     -0.067009
  O      -2.073044     -0.291986      0.493572
  H       1.339642     -2.262931      1.332444
  H       0.362979     -2.448949      0.029454
  H       1.295417     -0.190002      0.391324
  H       0.259616     -0.127849      1.824692
  H      -0.710528     -0.557687     -1.046045
  H      -0.684194      0.995724     -0.204643
  H      -2.278323     -1.229674      0.437024
  O      -0.653584     -2.206181      3.021527
  C      -0.649014     -2.689339      1.901901
  O      -1.254949     -3.592621      1.346061
14
Coordinates from ORCA-job ./orca E -399.106344020046
  N       0.449050     -2.010272      0.944824
  C       0.359189     -0.529407      0.819816
  C      -0.784589     -0.086920     -0.063734
  O      -2.071897     -0.299310      0.506143
  H       1.359055     -2.250775      1.332341
  H       0.387434     -2.447794      0.029642
  H       1.295178     -0.187961      0.384323
  H       0.267020     -0.125226      1.823286
  H      -0.718164     -0.570759     -1.040379
  H      -0.689958      0.987350     -0.207809
  H      -2.276032     -1.237607      0.454953
  O      -0.683224     -2.203221      3.016204
  C      -0.630301     -2.704269      1.900528
  O      -1.298822     -3.554712      1.322944
14
Coordinates from ORCA-job ./orca E -399.107288711593
  N       0.439687     -2.007973      0.943382
  C       0.357785     -0.528469      0.818875
  C      -0.782418     -0.081668     -0.066636
  O      -2.070860     -0.292537      0.501189
  H       1.344083     -2.256279      1.336962
  H       0.375480     -2.446737      0.029351
  H       1.296519     -0.190291      0.385922
  H       0.264317     -0.123982      1.822593
  H      -0.715242     -0.565211     -1.043385
  H      -0.685449      0.992618     -0.209729
  H      -2.274766     -1.231027      0.451667
  O      -0.667909     -2.212698      3.019858
  C      -0.650696     -2.689444      1.895570
  O      -1.266591     -3.587186      1.337461
14
Coordinates from ORCA-job ./orca E -399.107290164137
  N       0.439553     -2.009120      0.943550
  C       0.356203     -0.529596      0.819723
  C      -0.782756     -0.080835     -0.067151
  O      -2.073175     -0.289613      0.497273
  H       1.344292     -2.256939      1.336194
  H       0.373762     -2.448398      0.029958
  H       1.295505     -0.191001      0.388174
  H       0.261369     -0.125993      1.823699
  H      -0.714380     -0.563071     -1.044476
  H      -0.684034      0.993448     -0.209020
  H      -2.281008     -1.226877      0.442754
  O      -0.658615     -2.214799      3.022667
  C      -0.648080     -2.690791      1.898735
  O      -1.264697     -3.587299      1.341001
14
Coordinates from ORCA-job ./orca E -399.107293357091
  N       0.440368     -2.008780      0.943671
  C       0.356863     -0.529190      0.819279
  C      -0.782949     -0.081630     -0.066768
  O      -2.072349     -0.290840      0.499617
  H       1.344527     -2.256055      1.338056
  H       0.376421     -2.448127      0.029975
  H       1.295858     -0.190917      0.386844
  H       0.262662     -0.125354      1.823198
  H      -0.715433     -0.564788     -1.043677
  H      -0.684829      0.992595     -0.209602
  H      -2.279235     -1.228437      0.446674
  O      -0.661304     -2.214634      3.021205
  C      -0.649572     -2.689708      1.896754
  O      -1.267090     -3.585018      1.337853
14
Coordinates from ORCA-job ./orca E -399.107296782128
  N       0.441525     -2.008660      0.944084
  C       0.357197     -0.528952      0.818969
  C      -0.783357     -0.082507     -0.066539
  O      -2.072098     -0.291386      0.501321
  H       1.345128     -2.254739      1.340416
  H       0.379769     -2.448195      0.030335
  H       1.295905     -0.190908      0.385753
  H       0.263369     -0.124956      1.822845
  H      -0.716590     -0.566650     -1.042996
  H      -0.685387      0.991604     -0.210479
  H      -2.279286     -1.228945      0.448593
  O      -0.661082     -2.216407      3.020923
  C      -0.650399     -2.688983      1.895327
  O      -1.270755     -3.581196      1.334529
14
Coordinates from ORCA-job ./orca E -399.107294604746
  N       0.443512     -2.008553      0.945007
  C       0.357510     -0.528718      0.818585
  C      -0.784117     -0.083994     -0.066322
  O      -2.072062     -0.291928      0.503529
  H       1.346184     -2.252433      1.344649
  H       0.385427     -2.448491      0.031226
  H       1.295717     -0.190784      0.384225
  H       0.264068     -0.124348      1.822334
  H      -0.718426     -0.569772     -1.042006
  H      -0.686165      0.989889     -0.212155
  H      -2.280514     -1.229173      0.450116
  O      -0.658119     -2.220985      3.021496
  C      -0.651326     -2.688029      1.893502
  O      -1.277751     -3.573563      1.328895
