14
Coordinates from ORCA-job ./orca E -399.101627058723
  N           0.38721160782978     -1.59244031479383      0.91403670401692
  C           0.50640932064949     -0.19760517085568      0.47914286828722
  C          -0.71045745104831      0.18839069056855     -0.33453589197404
  O          -1.91222851459839      0.03586122580248      0.42220217203427
  H           1.11534492816446     -1.80640723623285      1.58344658985128
  H           0.53953691953330     -2.20783938925062      0.12361761241204
  H           1.40381654301290     -0.00732340694337     -0.11928044343980
  H           0.55870903701964      0.43102786520632      1.36927278618165
  H          -0.76314589847711     -0.42610381931459     -1.23920486596795
  H          -0.65502582658552      1.23428198194859     -0.63062178153450
  H          -1.83834784988976     -0.81949981225717      0.86359309618458
  O          -0.99809908296412     -3.48004953335759      3.59467291512474
  C          -1.22116791949366     -4.01558766272407      2.59566775140927
  O          -1.44861636295264     -4.55758696679594      1.60107206791422
