14
Coordinates from ORCA-job ./orca E -399.100969343767
  N           0.34505943377432     -1.62463425362276      0.94494058512811
  C           0.49187698242788     -0.23531231589430      0.49926701397500
  C          -0.71627793940486      0.16302810072838     -0.32154743034591
  O          -1.92198320678368      0.01990224081539      0.43063385519652
  H           1.06271375974179     -1.84395811029141      1.62399251683562
  H           0.49967349436161     -2.24798814421589      0.16107421528424
  H           1.39486508588196     -0.06650326725618     -0.09676523072832
  H           0.55102089126060      0.39931683808057      1.38461410948024
  H          -0.77127830956544     -0.45082091950055     -1.22644684351562
  H          -0.64990420301988      1.20855797845574     -0.61678109971098
  H          -1.84520267580992     -0.82688949485520      0.88847952119924
  O          -0.94596677252930     -3.37680090555107      3.52228494065743
  C          -1.15607039117626     -3.89975606389259      2.51374121415340
  O          -1.37458669895875     -4.43902323199986      1.51559421289089
