14
Coordinates from ORCA-job ./orca E -399.100249999629
  N           0.33614621167529     -1.65256031196532      0.96198951914395
  C           0.48140369585523     -0.26044673817538      0.52003653260621
  C          -0.72009440726652      0.14173308195693     -0.30785013149130
  O          -1.93267183618229      0.02550362642547      0.43834627809010
  H           1.06705630715710     -1.86997609359705      1.62779964445101
  H           0.48778588054134     -2.26742059910863      0.17060990222890
  H           1.38714642295118     -0.08988937235229     -0.07158087094306
  H           0.53653306692600      0.37288711660456      1.40662523915505
  H          -0.77890379527355     -0.48085087239856     -1.20650268883686
  H          -0.63864242795964      1.18291675936362     -0.61445716936655
  H          -1.88773536690306     -0.82737185526549      0.88757001346141
  O          -0.91064089153111     -3.30623681055639      3.47647512906635
  C          -1.12085753244334     -3.82397246795319      2.46518343447428
  O          -1.34258587734658     -4.36519701197802      1.46883674846034
