14
Coordinates from ORCA-job ./orca E -399.101892382394
  N           0.40806811884999     -1.56102995687247      0.89595146390176
  C           0.51756138406607     -0.16559093722518      0.46011004229885
  C          -0.70378121570680      0.21329715938391     -0.35016444746112
  O          -1.90259917923458      0.05590004010846      0.41021327963049
  H           1.13962297299050     -1.77021244183333      1.56318275345894
  H           0.56202598997818     -2.17580732627758      0.10533904685866
  H           1.41213873280371      0.02944652410205     -0.14097638093022
  H           0.56890276683977      0.46366842189134      1.34984043164423
  H          -0.75622889890926     -0.40238101303610     -1.25403079741000
  H          -0.65442493361182      1.25915696269975     -0.64743825388111
  H          -1.82454993234585     -0.79921067118713      0.85123677932373
  O          -1.03147226189876     -3.57122423285621      3.64717958243457
  C          -1.26669243328309     -4.12147404863702      2.65906817442838
  O          -1.50463166033801     -4.67542002926032      1.67356990620276
