14
Coordinates from ORCA-job ./orca E -399.100783020407
  N           0.34573862275434     -1.63452180127766      0.94954315463136
  C           0.48890472941590     -0.24369225883806      0.50715933091821
  C          -0.71763517826657      0.15473373264260     -0.31573832202266
  O          -1.92559560115705      0.02198551399425      0.43477133698876
  H           1.06829400380089     -1.85462315975165      1.62319197791323
  H           0.49696894752006     -2.25489867158326      0.16260815748305
  H           1.39255636427162     -0.07097955217089     -0.08698088642291
  H           0.54524575712868      0.38939342212417      1.39382452320467
  H          -0.77422187818448     -0.46324406725028     -1.21771212419423
  H          -0.64678034914095      1.19851120959517     -0.61602396511406
  H          -1.86384301506679     -0.82941122810761      0.88548545197061
  O          -0.93383212038630     -3.35047771464322      3.50611189855098
  C          -1.14535811262585     -3.87167831834851      2.49692024798987
  O          -1.36650271986343     -4.41197865538479      1.49992079860298
