14
Coordinates from ORCA-job ./orca E -399.101774873570
  N           0.39893146250355     -1.57701518766957      0.90451783114046
  C           0.51214594644585     -0.18163939488486      0.46964757073398
  C          -0.70747568365333      0.20025835806146     -0.34183147168149
  O          -1.90742895429834      0.04443044747692      0.41710109804667
  H           1.12895990005817     -1.78834978847147      1.57271707954215
  H           0.55232431894339     -2.19175747862702      0.11378631496636
  H           1.40783308101480      0.01189300386285     -0.13029276294317
  H           0.56378681273020      0.44701192980448      1.35979687968654
  H          -0.75997496530741     -0.41467482487103     -1.24621024280436
  H          -0.65581260134578      1.24622945381252     -0.63831581830120
  H          -1.83091895706004     -0.81094687068169      0.85794387888531
  O          -1.01612741451262     -3.52408789979015      3.62052863190517
  C          -1.24501269692282     -4.06720519807423      2.62698077094468
  O          -1.47729079839557     -4.61502809894800      1.63671182037880
