14
Coordinates from ORCA-job ./orca E -399.092338492946
  N           0.45056240352657     -1.96909942361927      0.84418103393787
  C           0.39771796646674     -0.50739722781115      0.77017192224749
  C          -0.75209129178551     -0.01952053517012     -0.08365891424705
  O          -2.03714972184075     -0.31560815928494      0.46046977957602
  H           1.34449707083990     -2.27424092187000      1.20934353517924
  H           0.33239052857519     -2.39050360494119     -0.06933853695955
  H           1.32363104021515     -0.11175691956856      0.34603723899199
  H           0.30256096888619     -0.12181047269904      1.78562679568699
  H          -0.67093744684383     -0.43300631629813     -1.09230377887499
  H          -0.69863423351469      1.06504221649755     -0.15341123380668
  H          -2.16667205564716     -1.26770328244486      0.42276549227391
  O          -0.83304675089643     -2.17143306377150      3.09039790168397
  C          -0.83433570565443     -2.86628565688621      2.13319381975787
  O          -1.19455332212678     -3.83755818113212      1.55960652505262
