14
Coordinates from ORCA-job ./orca E -399.098945570550
  N           0.41827682617210     -1.99304754804392      0.87364758135718
  C           0.36970647779872     -0.52353438259323      0.80397951809797
  C          -0.75509437478658     -0.02660792472424     -0.07558222898721
  O          -2.05410663797690     -0.31710769388529      0.43270819744428
  H           1.33186627020094     -2.30295261249886      1.18672317071150
  H           0.24101096479643     -2.41757352460685     -0.02987978268022
  H           1.31317165634985     -0.15889545348418      0.39817088451314
  H           0.26357627288925     -0.14856473035116      1.82014685934664
  H          -0.64856595241161     -0.43226672404408     -1.08452757179499
  H          -0.68810994879469      1.05776801742877     -0.13365623840270
  H          -2.19842362992128     -1.26540124282687      0.36449055286835
  O          -0.77268071280140     -2.12306257464707      3.05650304189265
  C          -0.71816209832733     -2.77745641377612      2.05088856901391
  O          -1.13852566298734     -3.79217874094638      1.55946902711917
