14
Coordinates from ORCA-job ./orca E -399.100546841000
  N           0.34246067934878     -1.64180481693355      0.95560063326232
  C           0.48645541130188     -0.25174930105013      0.51266498147311
  C          -0.71929875496651      0.14790452828646     -0.31090656259435
  O          -1.92802537152276      0.02185207133835      0.43976842002614
  H           1.06457767094289     -1.86310558480680      1.62908682290533
  H           0.48895152139865     -2.26341219766411      0.16899955217326
  H           1.39013034420363     -0.07928861616190     -0.08179479196619
  H           0.54348287683905      0.38205337371505      1.39885265714430
  H          -0.77721530669081     -0.47281779500007     -1.21097986569111
  H          -0.64465897688175      1.19027103798439     -0.61505062727821
  H          -1.87267909283712     -0.83189138336746      0.88684273175047
  O          -0.92495452294652     -3.32580496007073      3.48934017315938
  C          -1.13303656662182     -3.84638983620309      2.47905701286657
  O          -1.35225046136752     -4.38669806906616      1.48160044326883
