14
Coordinates from ORCA-job ./orca E -399.105992075129
  N           0.44410189707653     -2.00381423773955      0.93208016223971
  C           0.36108359067981     -0.52719760696901      0.81572637680180
  C          -0.77947661023643     -0.07623385593672     -0.06784155292131
  O          -2.06873715724025     -0.29908380866991      0.49433463168853
  H           1.34695683490486     -2.25980754876511      1.32211411778658
  H           0.36760330975718     -2.44346307222848      0.02000521242019
  H           1.29892068709061     -0.18087130481830      0.38609880719992
  H           0.26488295757899     -0.12731656555858      1.82147853736133
  H          -0.70792386883894     -0.54999709554457     -1.04914808583608
  H          -0.68849046826473      0.99988471432779     -0.20064376243025
  H          -2.26767758106175     -1.23802859292478      0.43570933457389
  O          -0.67031272279212     -2.20929752682973      3.03222421018219
  C          -0.66752676041381     -2.70240639728903      1.91971433136548
  O          -1.26946465803977     -3.60324865005348      1.36122926006769
