14
Coordinates from ORCA-job ./orca E -399.102103647069
  N           0.43032818578809     -1.50980460623700      0.87503582251420
  C           0.53397173463182     -0.11688851789542      0.42962702623175
  C          -0.69198907757213      0.25321665851052     -0.37771303700444
  O          -1.88695504230716      0.09704413411727      0.38891980540629
  H           1.16496895885456     -1.71236459378400      1.54094926808402
  H           0.58357808289429     -2.12903034032227      0.08775509935557
  H           1.42536849289696      0.07657163619350     -0.17666188814980
  H           0.58746630217810      0.51837945413695      1.31493509090946
  H          -0.74655591373680     -0.36839180612061     -1.27737913034276
  H          -0.64710959258495      1.29729811360140     -0.68186443127963
  H          -1.80415425999017     -0.75483682508030      0.83528876638352
  O          -1.07842890867713     -3.72679828321672      3.73151123047119
  C          -1.32787698843709     -4.29023856012223      2.75439264204963
  O          -1.57867252373835     -4.85503801278096      1.77828531587092
