14
Coordinates from ORCA-job ./orca E -399.092690258255
  N           0.46899865149437     -1.92602994204551      0.80495008183159
  C           0.42539945613573     -0.46461632801545      0.71036997866384
  C          -0.75141666739117     -0.00235935104715     -0.12169964678356
  O          -2.01475938879784     -0.33680790433626      0.45478737985220
  H           1.30591240785652     -2.20667549271678      1.30141391601306
  H           0.54565658703605     -2.32201039577158     -0.12559029398426
  H           1.33394926578867     -0.04647986425119      0.26303716477209
  H           0.33853829399812     -0.06041597666864      1.72043599032838
  H          -0.68309385491917     -0.41973125254431     -1.13038675724165
  H          -0.73563883028965      1.08308791081588     -0.19933402347278
  H          -2.07890609156830     -1.29620012027520      0.48757050737972
  O          -0.73428887679249     -2.38832128239350      3.22197458339554
  C          -1.01172012135464     -3.03028396344730      2.29381905102957
  O          -1.44469138099610     -3.80403758630263      1.54173364871601
