14
Coordinates from ORCA-job ./orca E -399.094641697713
  N           0.43475437252567     -1.89312326394877      0.78732278631967
  C           0.42895818167857     -0.43178519808279      0.67386036968845
  C          -0.74505133782530      0.02903488811530     -0.16209049939702
  O          -2.00124216147031     -0.32249294004524      0.42045708666522
  H           1.21980428409510     -2.18266763069311      1.35748221853630
  H           0.59083305171799     -2.29660125431788     -0.13004090813830
  H           1.34498291323955     -0.03482268699791      0.22254050629127
  H           0.34561875802460     -0.01256984940343      1.67795443963368
  H          -0.67358472952130     -0.39337277170418     -1.16916677549489
  H          -0.74018156498171      1.11413555218694     -0.24455304166754
  H          -1.97711673139284     -1.26927923208252      0.59667544519239
  O          -0.72926871813040     -2.50950146424701      3.27112215190025
  C          -1.05590906349596     -3.14418727670711      2.35858482196088
  O          -1.47865780426355     -3.87364842107193      1.56293297900940
