14
Coordinates from ORCA-job ./orca E -399.096250476716
  N           0.29435570830826     -1.73060171618659      0.99608387281932
  C           0.45507854176659     -0.33441131225204      0.57543756837861
  C          -0.72527832759820      0.09542222793310     -0.26869908365923
  O          -1.95542594562645      0.02601195512826      0.45408804195330
  H           1.03907568136545     -1.97432168241986      1.63709713893807
  H           0.41145987895194     -2.33494788520377      0.19112599318720
  H           1.37155855084025     -0.16271116196208      0.00001156373161
  H           0.50325779671492      0.28713840362264      1.47102531597060
  H          -0.78804973147201     -0.52875308278767     -1.16587549205571
  H          -0.60835538487422      1.13221166273210     -0.57821711902756
  H          -1.99230109945332     -0.85019788211306      0.85393561028327
  O          -0.81912529390239     -3.08494877310950      3.36048373307742
  C          -0.99939946024775     -3.58827698019197      2.33472577048286
  O          -1.22291146457297     -4.17249532218923      1.36185866642003
