14
Coordinates from ORCA-job ./orca E -399.091309429696
  N           0.47271084412778     -1.94533500804786      0.82168662409150
  C           0.41696145467078     -0.48440085214340      0.73570456321427
  C          -0.75483255216735     -0.01874731662970     -0.10151340366693
  O          -2.02398603653599     -0.35170080724384      0.46173164625299
  H           1.33353917076905     -2.22801309130117      1.27388062391972
  H           0.48774287377532     -2.34724984387371     -0.10892609369424
  H           1.32734433359405     -0.06470514432341      0.29548064298758
  H           0.32586482374776     -0.08755943792665      1.74812227123433
  H          -0.67962681155223     -0.42959062418712     -1.11203100641162
  H          -0.73398756216717      1.06713201766676     -0.17159624731087
  H          -2.11659675739277     -1.30881179873733      0.44040105852731
  O          -0.72897670541181     -2.31029191250467      3.18285932662214
  C          -0.95523040152318     -2.94880929158385      2.23177255565074
  O          -1.40698722373412     -3.76279843816364      1.52550901908280
