14
Coordinates from ORCA-job ./orca E -399.101138424804
  N           0.36408741674867     -1.62476330011123      0.93325880140784
  C           0.49409786095306     -0.22950576310856      0.50096135458089
  C          -0.71481593240922      0.16551644512435     -0.31990096738244
  O          -1.92295909852440      0.02660066480185      0.42912547583324
  H           1.09311364467316     -1.84465430236566      1.60008669464046
  H           0.51514852979901     -2.23817208188440      0.14073990119605
  H           1.39646453743290     -0.04447837104396     -0.09154186982061
  H           0.54489196956855      0.39750789007957      1.39228563026397
  H          -0.76865177799746     -0.44963076740298     -1.22394555557059
  H          -0.64846768374012      1.21060672415884     -0.61660686788123
  H          -1.86707222488912     -0.83113017824230      0.86784517674224
  O          -0.95254434613551     -3.38689813413998      3.53785995115067
  C          -1.17141869844781     -3.91459314547551      2.53368983034783
  O          -1.39793474683164     -4.45728722938979      1.53922402499155
