14
Coordinates from ORCA-job ./orca E -399.091682382934
  N           0.45363943822596     -1.96373207242327      0.84044867906650
  C           0.40325621073469     -0.50243308156122      0.76151624162918
  C          -0.75168070711064     -0.01709714975899     -0.08695211722014
  O          -2.03341808661346     -0.30321292305022      0.47117228444552
  H           1.34101875464804     -2.26605680127375      1.22336730633835
  H           0.35978173336874     -2.38298771610512     -0.07698487174190
  H           1.32635561918008     -0.10548274939023      0.33118428577614
  H           0.31229940850122     -0.11206413517526      1.77579183337675
  H          -0.68118107245012     -0.44000112960263     -1.09257244847748
  H          -0.69561677079882      1.06664683035752     -0.16731337187140
  H          -2.16437636046257     -1.25563269167935      0.44925846797559
  O          -0.85726789269586     -2.18501522498560      3.08997591011565
  C          -0.85868585678992     -2.89335892195124      2.14699425529898
  O          -1.19018496753718     -3.86045378240018      1.55719512578796
