14
Coordinates from ORCA-job ./orca E -399.096895527248
  N           0.28894138363970     -1.71854893665799      0.99705312011774
  C           0.45692248509222     -0.32578770306160      0.56809352458346
  C          -0.72296438237181      0.10406321991774     -0.27675447338686
  O          -1.95231571286015      0.03605009613755      0.44743941322688
  H           1.02796233504370     -1.96095900491029      1.64503284628060
  H           0.40872549313442     -2.32910378281595      0.19718316186719
  H           1.37358641728404     -0.16177066911777     -0.00918876451351
  H           0.50872528635211      0.30057545313738      1.46008723661556
  H          -0.78695052505274     -0.52170538677014     -1.17273243042741
  H          -0.60550402628738      1.14024647402921     -0.58817475568715
  H          -1.98288876924505     -0.83609638174110      0.85693411567125
  O          -0.81898003117330     -3.12165558465207      3.37486886380104
  C          -1.00454534174362     -3.62594400105870      2.35094776525874
  O          -1.22677516161204     -4.20024534143596      1.37229195709228
