14
Coordinates from ORCA-job ./orca E -399.093242046760
  N           0.44617378982858     -1.97456020082791      0.84805591560567
  C           0.39170312793460     -0.51140249941634      0.77831917532011
  C          -0.75284310639290     -0.02163596400359     -0.08093225126480
  O          -2.04077107220199     -0.32232170388455      0.45267241129348
  H           1.34468801819784     -2.28142976577656      1.20080714349824
  H           0.31039011082334     -2.39632855856380     -0.06290181093867
  H           1.32141009642757     -0.12034919897251      0.35977049036783
  H           0.29267065959408     -0.13100996049389      1.79492230899153
  H          -0.66372522489927     -0.42955450791855     -1.09103964939351
  H          -0.69930523393639      1.06331642171314     -0.14417628128279
  H          -2.17156482913533     -1.27364359855866      0.40231053718865
  O          -0.81243640713468     -2.15752240621296      3.08576491427071
  C          -0.81009622994800     -2.84346302263542      2.11767484542536
  O          -1.19235424895729     -3.82097658344792      1.56183383141788
