14
Coordinates from ORCA-job ./orca E -399.093308690617
  N           0.45828866838454     -1.91624976836907      0.79852209718047
  C           0.42576688885644     -0.45539447777533      0.69973077195724
  C          -0.74883427151064      0.00868644377071     -0.13468306918515
  O          -2.01243074751572     -0.32188521660054      0.44394237546056
  H           1.27702265891695     -2.20193181106172      1.32144682677971
  H           0.56279589954118     -2.31318398793378     -0.12885220425907
  H           1.33627770665372     -0.04141210183158      0.25185377452320
  H           0.33945456047221     -0.04626658305651      1.70787474146420
  H          -0.68134059074589     -0.41357221468553     -1.14155121395079
  H          -0.73113158161059      1.09372763324038     -0.21669653344199
  H          -2.06343130700616     -1.28061390159388      0.50877858718509
  O          -0.72807946529934     -2.42970349011720      3.24078713754062
  C          -1.02152620966399     -3.07086923341524      2.31875552377350
  O          -1.44889275927259     -3.83221283957033      1.55317276547215
