14
Coordinates from ORCA-job ./orca E -399.101540119540
  N           0.38061811687233     -1.60030873650876      0.91868791286245
  C           0.50329369579980     -0.20564730657568      0.48417848107380
  C          -0.71160445717023      0.18299829224413     -0.33115428936089
  O          -1.91477177059464      0.03279381591539      0.42382522359779
  H           1.10782072516083     -1.81587775158405      1.58859257133739
  H           0.53230948796936     -2.21587955830289      0.12828267166777
  H           1.40199596093534     -0.01701097914838     -0.11281945108959
  H           0.55555156188009      0.42270385456527      1.37452138438790
  H          -0.76426244542233     -0.43118934955576     -1.23603244653856
  H          -0.65357582922383      1.22883195861557     -0.62694435640931
  H          -1.84324488014839     -0.82274383492063      0.86525999656776
  O          -0.98713591158969     -3.45763630433781      3.58128680260765
  C          -1.20837119689214     -3.99059665115778      2.58047592409011
  O          -1.43468360737646     -4.53131899824840      1.58492115570561
