14
Coordinates from ORCA-job ./orca E -399.092137151238
  N           0.46890638917614     -1.93321249000439      0.80950729979336
  C           0.42220759752100     -0.47189212498144      0.71868761793084
  C          -0.75285508889108     -0.00792230528203     -0.11507000658284
  O          -2.01829025522751     -0.34350452473215      0.45593106683929
  H           1.31108335600991     -2.21467761148120      1.29641522388912
  H           0.53222260566415     -2.32938734193811     -0.12185907968708
  H           1.33139479358466     -0.05219211616495      0.27466273736778
  H           0.33306515151811     -0.07068522901750      1.72970919151637
  H          -0.68185660384855     -0.42192729718417     -1.12483919840265
  H          -0.73624625854893      1.07779749800967     -0.18872968206917
  H          -2.09147332576324     -1.30264556775269      0.46861016908596
  O          -0.72243249967496     -2.36385590812717      3.20908175825105
  C          -0.99318795850333     -3.00211356688463      2.27462758135696
  O          -1.43859845281625     -3.78466296345887      1.53634690121075
