14
Coordinates from ORCA-job ./orca E -399.102132534769
  N           0.43616500769410     -1.49250144696393      0.86845396501311
  C           0.53923743493263     -0.10067337194939      0.41936606906597
  C          -0.68767949740061      0.26717548110765     -0.38753116194076
  O          -1.88170274843644      0.11200072664889      0.38076865421623
  H           1.17153291656765     -1.69313887349467      1.53416495888922
  H           0.58904592956656     -2.11357729726745      0.08254716091572
  H           1.42996646976583      0.09121061297890     -0.18837760139743
  H           0.59365736347961      0.53685723152853      1.30297955290731
  H          -0.74295299762508     -0.35638546770411     -1.28579738048979
  H          -0.64359458450753      1.31062685657085     -0.69396016951289
  H          -1.79725218528475     -0.73833702321148      0.82979936839058
  O          -1.09314906380396     -3.78052760891469      3.76041758116676
  C          -1.34714046386777     -4.34770875707136      2.78663757530753
  O          -1.60219413088024     -4.91590261125765      1.81361300796837
