14
Coordinates from ORCA-job ./orca E -399.102157607738
  N           0.43851131418143     -1.48361807925246      0.86525431252802
  C           0.54196954368357     -0.09253164512641      0.41410191403437
  C          -0.68538780178070      0.27442091497019     -0.39254848468830
  O          -1.87888977226932      0.11965719069780      0.37663380827570
  H           1.17389423772674     -1.68376965395018      1.53108400433600
  H           0.59065975969222     -2.10600978045599      0.08025414336174
  H           1.43241074662166      0.09812026780102     -0.19444416963259
  H           0.59712475956725      0.54626096673936      1.29675540202942
  H          -0.74104791734297     -0.35004663444133     -1.29016260059947
  H          -0.64168411643286      1.31758164966112     -0.70001460161959
  H          -1.79356260617237     -0.72997206479873      0.82684190345419
  O          -1.10085596731515     -3.80773427393343      3.77522977930993
  C          -1.35636072283298     -4.37673613944880      2.80291025966012
  O          -1.61284200712649     -4.94650426746206      1.83118591005040
