14
Coordinates from ORCA-job ./orca E -399.100000130073
  N           0.28911402968620     -1.64180567956916      0.98129944523665
  C           0.47765888241742     -0.26497236291493      0.51338027322052
  C          -0.71635785547468      0.15051796971731     -0.31971634811913
  O          -1.92812212340906      0.03894463062960      0.42817220055366
  H           0.99110071255278     -1.86783262470312      1.67410704351023
  H           0.43562205454270     -2.28248399455272      0.21022021652442
  H           1.38741300437183     -0.13069014140023     -0.08107602990223
  H           0.54973906610344      0.38281027243584      1.38811613998666
  H          -0.77947454574988     -0.47203596856508     -1.21810801344844
  H          -0.62628657218136      1.19110986849409     -0.62596199179367
  H          -1.85874730363675     -0.79610922540875      0.90901667973272
  O          -0.88998484196043     -3.32537003895616      3.46878546069986
  C          -1.08179753730850     -3.83409853175470      2.44925586579010
  O          -1.28593751975363     -4.36886572245173      1.44559063850849
