14
Coordinates from ORCA-job ./orca E -399.098556160271
  N           0.28676638170219     -1.68422136681287      0.99353835425836
  C           0.46517005144637     -0.29911944796340      0.54526713594765
  C          -0.71943283852606      0.12359976269301     -0.29672438638803
  O          -1.94219971878269      0.04217288422738      0.43704245789202
  H           1.01034431172591     -1.91956838958141      1.66099849490431
  H           0.41808397433848     -2.30902655134971      0.20661449094947
  H           1.37972625976649     -0.14948281888496     -0.03880213350206
  H           0.52522533408917      0.33825496608414      1.42874312600229
  H          -0.78356676096689     -0.50420035735937     -1.19132714720486
  H          -0.61195175146357      1.16039673127569     -0.60982993389268
  H          -1.93287631014039     -0.81443233776051      0.88070023378174
  O          -0.84006356509575     -3.21561293195726      3.41403126617375
  C          -1.03599413626372     -3.71949660842798      2.39249280981493
  O          -1.25529178162946     -4.27014508318246      1.40033681176291
