14
Coordinates from ORCA-job ./orca E -399.091059206678
  N           0.47370083145144     -1.95161212811788      0.83863975724123
  C           0.41232217254780     -0.49142428774694      0.74791720979690
  C          -0.75632766044927     -0.02646352645624     -0.09370997454445
  O          -2.02870633051282     -0.33569577925181      0.47480221191811
  H           1.34675225946232     -2.23531280893146      1.26591571479652
  H           0.44546097272649     -2.36714179905046     -0.08521212003276
  H           1.32523895890523     -0.07957843233834      0.30739866736404
  H           0.32212593235441     -0.09226488336323      1.75922731775729
  H          -0.68639463909247     -0.45055503691581     -1.09892103766339
  H          -0.72154067159596      1.05806146929242     -0.17731436558887
  H          -2.14644310912512     -1.28961347322510      0.44377840030364
  O          -0.75897758839078     -2.27419260947496      3.15222353247394
  C          -0.91334782258733     -2.91505548299221      2.18191850821849
  O          -1.34992385549382     -3.77003277042756      1.50641775845901
