14
Coordinates from ORCA-job ./orca E -399.102523989238
  N           0.42516678567523     -1.99791122253018      0.90003330100094
  C           0.36338941551426     -0.52435503868991      0.81317612781308
  C          -0.76470273192570     -0.04793776580907     -0.07286887512272
  O          -2.06114733234381     -0.32731930397225      0.44654374988685
  H           1.33808478422327     -2.28769260767354      1.23669787328784
  H           0.27914861605533     -2.42881012695170     -0.00682625075546
  H           1.30638367178793     -0.16814560696408      0.40132454302119
  H           0.25767429862387     -0.14150148541709      1.82544969146443
  H          -0.66136654169390     -0.47318405199890     -1.07375961193479
  H          -0.69580859728655      1.03495949586210     -0.15241848350830
  H          -2.22010086213682     -1.27249896140201      0.36827836045936
  O          -0.68677970343740     -2.16634435067553      3.06464162814178
  C          -0.68939569895577     -2.73421862139768      1.99737727640429
  O          -1.22660665389978     -3.68592190137966      1.47543225034118
