14
Coordinates from ORCA-job ./orca E -399.101830510175
  N           0.40378295764803     -1.56913260598428      0.90008068219132
  C           0.51486359400061     -0.17363034063530      0.46494727974220
  C          -0.70568511962228      0.20668024469248     -0.34587140714535
  O          -1.90504600875533      0.04988443299198      0.41378544612767
  H           1.13464941039768     -1.77936227619966      1.56772707739215
  H           0.55752708994153     -2.18373911763103      0.10930199759297
  H           1.40995975764706      0.02091232169731     -0.13553821194356
  H           0.56624653720772      0.45519388375638      1.35498684254194
  H          -0.75810109554482     -0.40855301153445     -1.25004652514639
  H          -0.65529410785168      1.25262558438892     -0.64266748362537
  H          -1.82773631626471     -0.80542851289505      0.85457551047999
  O          -1.02387294439839     -3.54701877855602      3.63357249285782
  C          -1.25606584868232     -4.09406624401950      2.64296553700279
  O          -1.49128845552307     -4.64524712907159      1.65526234243174
