14
Coordinates from ORCA-job ./orca E -399.102160608121
  N           0.44009629966523     -1.47476393902353      0.86244077944904
  C           0.54449150240491     -0.08451636041573      0.40890215748341
  C          -0.68285617646594      0.28197540520187     -0.39795653686253
  O          -1.87619803591246      0.12904703753325      0.37183363831737
  H           1.17562855461953     -1.67434750705206      1.52828316399365
  H           0.59149857648245     -2.09854865661539      0.07839821179132
  H           1.43487919735644      0.10436280606878     -0.20026206581803
  H           0.60044192946327      0.55572930279237      1.29044744472701
  H          -0.73916329333890     -0.34381213261089     -1.29460788481419
  H          -0.63860547383478      1.32464250591983     -0.70701607846221
  H          -1.79093744677212     -0.71974674777367      0.82364376080242
  O          -1.10784704657386     -3.83647010767105      3.79067120539679
  C          -1.36481553226020     -4.40675040700802      2.81948784400710
  O          -1.62267360463356     -4.97768274834568      1.84881594048877
