14
Coordinates from ORCA-job ./orca E -399.098075423768
  N           0.28607402804555     -1.69496688532727      0.99615621033154
  C           0.46212216334872     -0.30776178097039      0.55262940596872
  C          -0.72056663182085      0.11720765842194     -0.29077116947419
  O          -1.94556518155165      0.04128752747630      0.43983432482509
  H           1.01493078901096     -1.93167913157464      1.65747104120273
  H           0.41489327438237     -2.31526431709583      0.20521232305418
  H           1.37752493161390     -0.15511417319525     -0.02943293723032
  H           0.52008789463729      0.32700894861865      1.43815545333113
  H          -0.78491296371255     -0.51063343272332     -1.18532911935945
  H          -0.60934122453551      1.15349244878756     -0.60422962852499
  H          -1.94858365554047     -0.81951820850165      0.87486351957548
  O          -0.83191143374741     -3.18665431336880      3.40045591204478
  C          -1.02476612209400     -3.69053619759381      2.37814469827262
  O          -1.24604641783626     -4.24774969195318      1.38992154648249
