14
Coordinates from ORCA-job ./orca E -399.095300699007
  N           0.43611253864913     -1.88449222961301      0.78248558090328
  C           0.43326943165241     -0.42349832957797      0.66410208818656
  C          -0.74446791590274      0.03444746752432     -0.16819725470910
  O          -1.99664845249302     -0.31973055588865      0.42132469511853
  H           1.21167060116264     -2.17336217081174      1.36570996910457
  H           0.60639005353812     -2.29049622201153     -0.13119071717899
  H           1.34795192176155     -0.02898002661963      0.20785795844956
  H           0.35390530496835     -0.00091615257154      1.66705812738501
  H          -0.67653684458306     -0.39009569191806     -1.17468979314259
  H          -0.74241616350455      1.11939192904193     -0.25310544194931
  H          -1.96105162109884     -1.26324326342752      0.61375879451317
  O          -0.74143120182792     -2.53644498372135      3.28446007149169
  C          -1.07345954951434     -3.17182680626634      2.37515235850756
  O          -1.48934865260761     -3.89163451313856      1.56835514381983
