14
Coordinates from ORCA-job prodopt E -399.089614703738
  O       1.129844     -0.472418      0.616628
  N      -2.205758      0.315245     -0.651176
  C      -0.922766      0.531564      0.001976
  C      -0.117700     -0.749217     -0.004164
  H      -1.111156      0.829844      1.033627
  H      -0.331353      1.320359     -0.471262
  H       0.031424     -1.085867     -1.034501
  H      -0.652859     -1.534607      0.535159
  H      -2.084559     -0.040333     -1.590095
  H      -2.720210      1.182040     -0.726258
  H       1.665000     -1.268832      0.589457
  O      -3.268623     -0.800247      1.653992
  C      -3.722758     -1.054868      0.615847
  O      -4.330538     -1.438674     -0.295802
14
Coordinates from ORCA-job prodopt E -399.089967054739
  O       1.130848     -0.476929      0.623913
  N      -2.200293      0.320655     -0.656136
  C      -0.915218      0.538445     -0.005177
  C      -0.113213     -0.744100     -0.008444
  H      -1.104506      0.838192      1.025679
  H      -0.320826      1.325641     -0.479492
  H       0.043033     -1.078851     -1.038413
  H      -0.657906     -1.527414      0.523850
  H      -2.080989     -0.031932     -1.596249
  H      -2.715256      1.186685     -0.729049
  H       1.659664     -1.278015      0.601834
  O      -3.281663     -0.818198      1.666304
  C      -3.737779     -1.069586      0.628201
  O      -4.347907     -1.450604     -0.283395
14
Coordinates from ORCA-job prodopt E -399.090442393062
  O       1.133158     -0.482787      0.631986
  N      -2.190397      0.329409     -0.663012
  C      -0.902397      0.549872     -0.016447
  C      -0.106670     -0.736399     -0.014095
  H      -1.091071      0.854450      1.012990
  H      -0.304304      1.332883     -0.494494
  H       0.058362     -1.070799     -1.042815
  H      -0.665558     -1.514532      0.510945
  H      -2.072130     -0.016114     -1.606176
  H      -2.706310      1.195350     -0.731687
  H       1.650597     -1.291485      0.619277
  O      -3.304274     -0.849386      1.683862
  C      -3.765481     -1.096803      0.648464
  O      -4.375538     -1.469670     -0.265371
14
Coordinates from ORCA-job prodopt E -399.090760333575
  O       1.135991     -0.485005      0.633818
  N      -2.184019      0.335078     -0.666425
  C      -0.894080      0.556934     -0.023341
  C      -0.103092     -0.732330     -0.016184
  H      -1.080420      0.866406      1.005063
  H      -0.294343      1.336331     -0.505494
  H       0.064355     -1.069271     -1.043665
  H      -0.669180     -1.505761      0.508232
  H      -2.064877     -0.003606     -1.612088
  H      -2.700266      1.201229     -0.731519
  H       1.646235     -1.298344      0.628031
  O      -3.319248     -0.870027      1.693100
  C      -3.786303     -1.116700      0.661248
  O      -4.392765     -1.480946     -0.257347
14
Coordinates from ORCA-job prodopt E -399.091242576666
  O       1.142044     -0.486081      0.632209
  N      -2.175071      0.343323     -0.670178
  C      -0.881957      0.566529     -0.032988
  C      -0.098701     -0.727631     -0.017134
  H      -1.062522      0.885169      0.993724
  H      -0.280346      1.339486     -0.523124
  H       0.067746     -1.072097     -1.042258
  H      -0.672360     -1.492525      0.511755
  H      -2.053030      0.017816     -1.620290
  H      -2.691588      1.210076     -0.728484
  H       1.642396     -1.305517      0.637772
  O      -3.341168     -0.900315      1.703623
  C      -3.820627     -1.148672      0.679497
  O      -4.416828     -1.495573     -0.250695
14
Coordinates from ORCA-job prodopt E -399.091823292366
  O       1.153115     -0.484617      0.624845
  N      -2.162214      0.356232     -0.675597
  C      -0.864303      0.579059     -0.046503
  C      -0.093298     -0.722378     -0.015667
  H      -1.034803      0.913168      0.977139
  H      -0.259036      1.340705     -0.549603
  H       0.065728     -1.082854     -1.036476
  H      -0.673286     -1.473077      0.526520
  H      -2.036167      0.053283     -1.633024
  H      -2.678806      1.224087     -0.721033
  H       1.640914     -1.311221      0.648112
  O      -3.373851     -0.946004      1.715966
  C      -3.873989     -1.197516      0.704354
  O      -4.452015     -1.514879     -0.245605
14
Coordinates from ORCA-job prodopt E -399.092187802608
  O       1.167882     -0.481742      0.613954
  N      -2.144587      0.375039     -0.685384
  C      -0.841754      0.593974     -0.063078
  C      -0.086656     -0.716058     -0.012415
  H      -1.002135      0.947626      0.955622
  H      -0.228975      1.339974     -0.580585
  H       0.060238     -1.098726     -1.027006
  H      -0.671878     -1.448250      0.548986
  H      -2.017186      0.099580     -1.651405
  H      -2.660995      1.244080     -0.712484
  H       1.641482     -1.315634      0.658767
  O      -3.417903     -1.007633      1.732377
  C      -3.939011     -1.257206      0.732382
  O      -4.500535     -1.541036     -0.236301
14
Coordinates from ORCA-job prodopt E -399.092314894797
  O       1.176535     -0.478757      0.607038
  N      -2.134401      0.386855     -0.692997
  C      -0.830193      0.600355     -0.070958
  C      -0.082818     -0.713606     -0.009606
  H      -0.988114      0.964020      0.944494
  H      -0.211752      1.337799     -0.594007
  H       0.056078     -1.108739     -1.020556
  H      -0.667974     -1.436725      0.563495
  H      -2.008902      0.124005     -1.662994
  H      -2.650223      1.256726     -0.709105
  H       1.645167     -1.314857      0.661525
  O      -3.443937     -1.042218      1.742759
  C      -3.970767     -1.284996      0.743893
  O      -4.530711     -1.555873     -0.229553
14
Coordinates from ORCA-job prodopt E -399.092468683258
  O       1.188027     -0.473254      0.597322
  N      -2.121347      0.402489     -0.704236
  C      -0.816799      0.606232     -0.079485
  C      -0.077614     -0.711670     -0.005213
  H      -0.974753      0.981459      0.931571
  H      -0.190018      1.333587     -0.606869
  H       0.050203     -1.122063     -1.011530
  H      -0.659410     -1.425126      0.583146
  H      -1.999685      0.152661     -1.678050
  H      -2.635930      1.273231     -0.705986
  H       1.653883     -1.310266      0.661038
  O      -3.479575     -1.084841      1.756772
  C      -4.007434     -1.314172      0.754704
  O      -4.571560     -1.574278     -0.219756
14
Coordinates from ORCA-job prodopt E -399.092556416901
  O       1.200230     -0.468510      0.586933
  N      -2.106592      0.418296     -0.715260
  C      -0.801740      0.613744     -0.088751
  C      -0.071987     -0.708458     -0.001247
  H      -0.959104      1.000869      0.917835
  H      -0.166459      1.330575     -0.620704
  H       0.044198     -1.133959     -1.002705
  H      -0.651500     -1.411210      0.601930
  H      -1.986622      0.181892     -1.692302
  H      -2.620777      1.288931     -0.702879
  H       1.662057     -1.307025      0.659674
  O      -3.520587     -1.128693      1.771720
  C      -4.049266     -1.346911      0.767971
  O      -4.613863     -1.595553     -0.208786
14
Coordinates from ORCA-job prodopt E -399.092601082524
  O       1.212284     -0.465699      0.577794
  N      -2.091343      0.432832     -0.725166
  C      -0.785889      0.622711     -0.097901
  C      -0.065736     -0.703853      0.001434
  H      -0.941692      1.020590      0.904732
  H      -0.143464      1.329808     -0.634372
  H       0.040154     -1.142215     -0.995653
  H      -0.645288     -1.395974      0.616705
  H      -1.971193      0.208808     -1.705004
  H      -2.606558      1.302530     -0.700661
  H       1.668602     -1.306514      0.658374
  O      -3.563604     -1.169351      1.787554
  C      -4.093442     -1.380796      0.783264
  O      -4.654845     -1.618887     -0.197673
14
Coordinates from ORCA-job prodopt E -399.092628851092
  O       1.224440     -0.464599      0.571029
  N      -2.074489      0.447539     -0.735428
  C      -0.768351      0.633292     -0.107712
  C      -0.057884     -0.697813      0.002282
  H      -0.922339      1.040560      0.891421
  H      -0.119895      1.331580     -0.648367
  H       0.040075     -1.146639     -0.990991
  H      -0.640173     -1.379711      0.626298
  H      -1.953531      0.235259     -1.717744
  H      -2.592045      1.315379     -0.699874
  H       1.673820     -1.308457      0.658591
  O      -3.611173     -1.209607      1.806257
  C      -4.142210     -1.417131      0.801919
  O      -4.698258     -1.645663     -0.184251
14
Coordinates from ORCA-job prodopt E -399.092647930905
  O       1.227951     -0.465361      0.571550
  N      -2.068430      0.452065     -0.738793
  C      -0.762130      0.637280     -0.110834
  C      -0.053932     -0.695210      0.000591
  H      -0.915889      1.045362      0.887972
  H      -0.112971      1.334377     -0.652065
  H       0.044547     -1.144501     -0.992419
  H      -0.639100     -1.375369      0.623732
  H      -1.946955      0.241933     -1.721567
  H      -2.587742      1.318777     -0.701253
  H       1.674712     -1.310544      0.659850
  O      -3.629817     -1.219871      1.814997
  C      -4.159659     -1.428495      0.810006
  O      -4.712597     -1.656455     -0.178340
14
Coordinates from ORCA-job prodopt E -399.092644017777
  O       1.229589     -0.466636      0.575062
  N      -2.063651      0.454216     -0.740840
  C      -0.757598      0.640133     -0.112445
  C      -0.049547     -0.692844     -0.003210
  H      -0.911789      1.045400      0.887394
  H      -0.109618      1.338968     -0.652737
  H       0.053495     -1.138374     -0.997430
  H      -0.638853     -1.374322      0.614582
  H      -1.941566      0.243117     -1.723356
  H      -2.585007      1.319680     -0.704281
  H       1.674910     -1.312781      0.661518
  O      -3.646872     -1.221988      1.823858
  C      -4.173440     -1.434727      0.817775
  O      -4.722065     -1.665853     -0.172462
14
Coordinates from ORCA-job prodopt E -399.092648658939
  O       1.230287     -0.467377      0.579542
  N      -2.059984      0.454445     -0.741961
  C      -0.754606      0.641562     -0.112812
  C      -0.045030     -0.691003     -0.007929
  H      -0.909736      1.041914      0.888850
  H      -0.108652      1.343946     -0.650866
  H       0.064606     -1.130527     -1.004073
  H      -0.638172     -1.375952      0.602471
  H      -1.937410      0.240650     -1.723825
  H      -2.582905      1.319012     -0.707871
  H       1.675953     -1.313707      0.662416
  O      -3.662872     -1.218470      1.831868
  C      -4.185015     -1.437099      0.824716
  O      -4.728477     -1.673405     -0.167097
14
Coordinates from ORCA-job prodopt E -399.092651511746
  O       1.230970     -0.466940      0.582586
  N      -2.057917      0.453357     -0.742283
  C      -0.753385      0.641373     -0.112131
  C      -0.041254     -0.690121     -0.011735
  H      -0.909680      1.036917      0.891282
  H      -0.109181      1.347479     -0.647398
  H       0.073949     -1.124161     -1.009615
  H      -0.636059     -1.379153      0.592578
  H      -1.935025      0.236692     -1.723449
  H      -2.581316      1.317698     -0.710673
  H       1.678734     -1.312548      0.661423
  O      -3.675803     -1.212106      1.837324
  C      -4.193676     -1.436477      0.829276
  O      -4.732370     -1.678020     -0.163755
14
Coordinates from ORCA-job prodopt E -399.092654184421
  O       1.232618     -0.465085      0.584532
  N      -2.056349      0.450981     -0.742074
  C      -0.753040      0.639779     -0.110281
  C      -0.036632     -0.689740     -0.015704
  H      -0.911104      1.029368      0.895229
  H      -0.110665      1.350688     -0.641434
  H       0.084144     -1.117496     -1.015598
  H      -0.631122     -1.384464      0.582494
  H      -1.932978      0.230704     -1.722336
  H      -2.579371      1.315635     -0.713558
  H       1.684716     -1.308899      0.657573
  O      -3.691983     -1.201492      1.842534
  C      -4.204001     -1.433644      0.833325
  O      -4.736246     -1.682347     -0.161274
14
Coordinates from ORCA-job prodopt E -399.092658111696
  O       1.235638     -0.461902      0.583773
  N      -2.055651      0.447806     -0.741164
  C      -0.753616      0.637050     -0.107412
  C      -0.032131     -0.690000     -0.018490
  H      -0.913684      1.021280      0.899891
  H      -0.112535      1.352457     -0.634196
  H       0.091676     -1.112714     -1.020138
  H      -0.623519     -1.390484      0.576065
  H      -1.931447      0.224334     -1.720567
  H      -2.577381      1.313325     -0.715586
  H       1.693386     -1.303180      0.650464
  O      -3.708988     -1.188676      1.846045
  C      -4.214387     -1.429367      0.835559
  O      -4.739373     -1.685940     -0.160815
14
Coordinates from ORCA-job prodopt E -399.092661304047
  O       1.239192     -0.458933      0.580306
  N      -2.055687      0.445412     -0.739914
  C      -0.754351      0.634779     -0.104806
  C      -0.029426     -0.690542     -0.018934
  H      -0.915748      1.016705      0.903179
  H      -0.113540      1.352308     -0.629141
  H       0.093104     -1.111742     -1.021391
  H      -0.616425     -1.394116      0.576222
  H      -1.930389      0.220767     -1.718919
  H      -2.576029      1.311830     -0.715901
  H       1.700962     -1.298318      0.642845
  O      -3.721292     -1.179332      1.846935
  C      -4.221503     -1.426241      0.835384
  O      -4.740880     -1.688589     -0.162438
14
Coordinates from ORCA-job prodopt E -399.092666721004
  O       1.242600     -0.457063      0.575930
  N      -2.055665      0.444138     -0.738666
  C      -0.754473      0.633723     -0.103002
  C      -0.028028     -0.690839     -0.018159
  H      -0.916442      1.015588      0.904904
  H      -0.113531      1.351562     -0.626797
  H       0.090892     -1.112734     -1.020789
  H      -0.611266     -1.395103      0.579764
  H      -1.929165      0.219914     -1.717657
  H      -2.575208      1.311088     -0.715183
  H       1.706041     -1.295660      0.636569
  O      -3.730083     -1.173897      1.846824
  C      -4.226254     -1.425125      0.834329
  O      -4.741429     -1.691603     -0.164640
14
Coordinates from ORCA-job prodopt E -399.092659322219
  O       1.248059     -0.455022      0.569538
  N      -2.054742      0.442500     -0.736691
  C      -0.753666      0.632957     -0.100510
  C      -0.025362     -0.690747     -0.017627
  H      -0.916302      1.014391      0.907433
  H      -0.113141      1.351505     -0.623851
  H       0.088387     -1.113122     -1.020698
  H      -0.604052     -1.395760      0.583740
  H      -1.926264      0.219076     -1.715686
  H      -2.573810      1.309831     -0.714188
  H       1.713008     -1.292971      0.627520
  O      -3.746540     -1.165180      1.847912
  C      -4.235101     -1.424544      0.833718
  O      -4.742485     -1.698925     -0.167183
14
Coordinates from ORCA-job prodopt E -399.092667081123
  O       1.249362     -0.455507      0.568021
  N      -2.053978      0.442967     -0.736288
  C      -0.752431      0.633851     -0.100828
  C      -0.024967     -0.690320     -0.017417
  H      -0.914501      1.016252      0.906819
  H      -0.112177      1.351732     -0.625347
  H       0.086977     -1.113622     -1.020311
  H      -0.603797     -1.394121      0.585252
  H      -1.925301      0.221034     -1.715634
  H      -2.573578      1.309980     -0.713007
  H       1.712872     -1.294171      0.627198
  O      -3.750429     -1.165375      1.848514
  C      -4.237209     -1.426345      0.833888
  O      -4.742855     -1.702366     -0.167432
14
Coordinates from ORCA-job prodopt E -399.092664476950
  O       1.254088     -0.456661      0.564091
  N      -2.050854      0.443853     -0.734710
  C      -0.747785      0.636289     -0.101909
  C      -0.021859     -0.688801     -0.018555
  H      -0.907955      1.019936      0.905531
  H      -0.109441      1.353582     -0.629338
  H       0.086772     -1.113002     -1.021446
  H      -0.601716     -1.390306      0.585914
  H      -1.922300      0.226541     -1.715202
  H      -2.572295      1.309762     -0.708638
  H       1.713846     -1.297159      0.626581
  O      -3.769459     -1.162089      1.852297
  C      -4.247885     -1.431680      0.835941
  O      -4.745168     -1.716275     -0.167131
14
Coordinates from ORCA-job prodopt E -399.092674892130
  O       1.255825     -0.456618      0.563277
  N      -2.050004      0.443406     -0.733602
  C      -0.746237      0.636411     -0.102229
  C      -0.019870     -0.688486     -0.019999
  H      -0.905457      1.019372      0.905626
  H      -0.109269      1.354479     -0.630193
  H       0.089264     -1.111797     -1.023203
  H      -0.600120     -1.390358      0.583718
  H      -1.922393      0.227793     -1.714611
  H      -2.572042      1.308929     -0.705924
  H       1.715060     -1.297317      0.626863
  O      -3.778809     -1.157352      1.853892
  C      -4.252635     -1.432283      0.836804
  O      -4.745324     -1.722189     -0.166991
14
Coordinates from ORCA-job prodopt E -399.092668685093
  O       1.258678     -0.456207      0.562048
  N      -2.050334      0.440453     -0.729081
  C      -0.744353      0.634869     -0.102563
  C      -0.015562     -0.688798     -0.024225
  H      -0.900338      1.015097      0.906866
  H      -0.111733      1.355839     -0.631659
  H       0.096710     -1.108950     -1.028376
  H      -0.596392     -1.392880      0.576463
  H      -1.926977      0.229194     -1.711593
  H      -2.573746      1.305013     -0.696021
  H       1.717604     -1.296798      0.629115
  O      -3.797746     -1.138575      1.854948
  C      -4.258729     -1.429180      0.836251
  O      -4.739093     -1.735088     -0.168746
14
Coordinates from ORCA-job prodopt E -399.092670825780
  O       1.256289     -0.455865      0.563192
  N      -2.054290      0.438267     -0.725852
  C      -0.746529      0.632170     -0.103448
  C      -0.016636     -0.690741     -0.025409
  H      -0.899222      1.012204      0.906582
  H      -0.115422      1.353510     -0.633919
  H       0.098858     -1.110931     -1.029140
  H      -0.597534     -1.395587      0.574318
  H      -1.936389      0.230053     -1.709590
  H      -2.578203      1.302188     -0.686565
  H       1.715546     -1.295898      0.634792
  O      -3.791241     -1.128032      1.849941
  C      -4.249523     -1.423211      0.831450
  O      -4.727715     -1.734138     -0.172923
14
Coordinates from ORCA-job prodopt E -399.092673573092
  O       1.260902     -0.455080      0.557924
  N      -2.054713      0.436291     -0.720925
  C      -0.744603      0.631026     -0.103537
  C      -0.013529     -0.691361     -0.026914
  H      -0.893870      1.011501      0.906829
  H      -0.116163      1.352631     -0.636741
  H       0.099479     -1.112328     -1.030597
  H      -0.592273     -1.396037      0.575060
  H      -1.940503      0.234207     -1.706360
  H      -2.580467      1.298803     -0.674734
  H       1.719096     -1.295353      0.633376
  O      -3.809889     -1.111292      1.848491
  C      -4.255086     -1.421493      0.828635
  O      -4.720392     -1.747526     -0.177079
14
Coordinates from ORCA-job prodopt E -399.092686564533
  O       1.265410     -0.453923      0.549675
  N      -2.058450      0.431889     -0.712690
  C      -0.745657      0.627825     -0.101502
  C      -0.012333     -0.693511     -0.026697
  H      -0.890890      1.009375      0.909027
  H      -0.120008      1.349300     -0.638164
  H       0.094886     -1.116493     -1.030184
  H      -0.585679     -1.398071      0.580430
  H      -1.949077      0.236119     -1.699942
  H      -2.587053      1.292168     -0.658208
  H       1.723622     -1.293927      0.627903
  O      -3.823733     -1.083958      1.840943
  C      -4.251801     -1.413332      0.819634
  O      -4.701248     -1.759471     -0.186797
14
Coordinates from ORCA-job prodopt E -399.092693249970
  O       1.270946     -0.452524      0.540253
  N      -2.061212      0.426930     -0.704755
  C      -0.747093      0.624800     -0.097385
  C      -0.010878     -0.695232     -0.025689
  H      -0.890299      1.006406      0.913382
  H      -0.123514      1.346795     -0.635841
  H       0.088689     -1.119337     -1.029528
  H      -0.577357     -1.400515      0.586867
  H      -1.954270      0.234471     -1.692896
  H      -2.593314      1.284693     -0.645440
  H       1.730857     -1.291839      0.615910
  O      -3.841364     -1.054762      1.833338
  C      -4.250780     -1.404446      0.811095
  O      -4.682424     -1.771450     -0.195883
14
Coordinates from ORCA-job prodopt E -399.092690665508
  O       1.274727     -0.451323      0.534867
  N      -2.061671      0.423119     -0.700798
  C      -0.748515      0.622953     -0.092610
  C      -0.009457     -0.695766     -0.024822
  H      -0.892914      1.002544      0.918724
  H      -0.125492      1.346728     -0.629455
  H       0.085361     -1.118434     -1.029761
  H      -0.570965     -1.403299      0.589660
  H      -1.953836      0.228251     -1.688340
  H      -2.596593      1.279127     -0.642788
  H       1.738305     -1.289354      0.601931
  O      -3.855777     -1.034990      1.829650
  C      -4.252851     -1.397738      0.807193
  O      -4.672333     -1.777828     -0.200024
14
Coordinates from ORCA-job prodopt E -399.092695579517
  O       1.277090     -0.450216      0.532606
  N      -2.062269      0.419094     -0.697330
  C      -0.749686      0.620695     -0.089101
  C      -0.007296     -0.696343     -0.025851
  H      -0.894646      0.996915      0.923433
  H      -0.128408      1.347563     -0.623863
  H       0.087133     -1.115837     -1.032157
  H      -0.566153     -1.407120      0.587391
  H      -1.954943      0.222227     -1.684467
  H      -2.599277      1.273735     -0.639747
  H       1.744515     -1.286629      0.592759
  O      -3.869249     -1.015865      1.827124
  C      -4.255168     -1.390918      0.804817
  O      -4.663655     -1.783311     -0.202185
14
Coordinates from ORCA-job prodopt E -399.092697102175
  O       1.280136     -0.448832      0.530550
  N      -2.062915      0.413837     -0.692867
  C      -0.750486      0.617788     -0.085535
  C      -0.003761     -0.696995     -0.028043
  H      -0.895475      0.989628      0.928643
  H      -0.132337      1.348964     -0.618087
  H       0.091599     -1.112111     -1.036058
  H      -0.560257     -1.411901      0.582655
  H      -1.956863      0.215906     -1.679872
  H      -2.602030      1.267054     -0.634719
  H       1.752089     -1.283169      0.583592
  O      -3.888121     -0.992248      1.824391
  C      -4.259626     -1.382936      0.802580
  O      -4.653964     -1.790996     -0.203803
14
Coordinates from ORCA-job prodopt E -399.092699866229
  O       1.283824     -0.447376      0.528156
  N      -2.063252      0.408742     -0.688299
  C      -0.750424      0.615142     -0.082684
  C       0.000359     -0.697489     -0.030393
  H      -0.894809      0.983320      0.932940
  H      -0.135818      1.350228     -0.613939
  H       0.096410     -1.108819     -1.039874
  H      -0.553989     -1.415953      0.578159
  H      -1.958577      0.211579     -1.675588
  H      -2.604082      1.260756     -0.628520
  H       1.759629     -1.279846      0.575603
  O      -3.909302     -0.970263      1.821861
  C      -4.266041     -1.376284      0.800774
  O      -4.645941     -1.799748     -0.204767
14
Coordinates from ORCA-job prodopt E -399.092702341605
  O       1.288029     -0.445747      0.525727
  N      -2.063133      0.403695     -0.683909
  C      -0.749653      0.612796     -0.080287
  C       0.004982     -0.697747     -0.032690
  H      -0.893094      0.977936      0.936574
  H      -0.138726      1.351387     -0.610874
  H       0.101552     -1.105752     -1.043454
  H      -0.547348     -1.419404      0.573984
  H      -1.959533      0.208501     -1.671720
  H      -2.605405      1.254674     -0.622039
  H       1.767528     -1.276374      0.567772
  O      -3.932508     -0.950551      1.819831
  C      -4.274555     -1.370809      0.799562
  O      -4.640148     -1.808617     -0.205050
14
Coordinates from ORCA-job prodopt E -399.092705248739
  O       1.292568     -0.443993      0.522691
  N      -2.063111      0.399049     -0.679320
  C      -0.748531      0.610655     -0.078509
  C       0.009471     -0.698063     -0.034532
  H      -0.890385      0.973970      0.939224
  H      -0.141071      1.351674     -0.609621
  H       0.105661     -1.104003     -1.046152
  H      -0.540447     -1.422120      0.571502
  H      -1.960784      0.207549     -1.668019
  H      -2.606864      1.248894     -0.614108
  H       1.774997     -1.273111      0.560684
  O      -3.955540     -0.932736      1.817362
  C      -4.283187     -1.366275      0.797944
  O      -4.634788     -1.817501     -0.205717
14
Coordinates from ORCA-job prodopt E -399.092707225522
  O       1.299697     -0.441096      0.518764
  N      -2.061895      0.392569     -0.673572
  C      -0.746227      0.607965     -0.075928
  C       0.016604     -0.698108     -0.036984
  H      -0.886334      0.968667      0.942959
  H      -0.143239      1.352284     -0.607443
  H       0.112360     -1.100962     -1.049863
  H      -0.529746     -1.425824      0.567923
  H      -1.960540      0.206020     -1.663373
  H      -2.608146      1.240572     -0.604266
  H       1.787073     -1.267647      0.548595
  O      -3.991682     -0.909819      1.814985
  C      -4.299141     -1.360947      0.796993
  O      -4.630797     -1.829685     -0.205363
14
Coordinates from ORCA-job prodopt E -399.092722999783
  O       1.310345     -0.436616      0.511816
  N      -2.060935      0.383033     -0.664002
  C      -0.743457      0.603144     -0.071920
  C       0.026836     -0.698833     -0.040627
  H      -0.880864      0.959771      0.948795
  H      -0.147084      1.352357     -0.603943
  H       0.121337     -1.097370     -1.055308
  H      -0.513110     -1.432066      0.563338
  H      -1.962403      0.204254     -1.655534
  H      -2.611581      1.227659     -0.587139
  H       1.804706     -1.259324      0.530955
  O      -4.044467     -0.871545      1.807882
  C      -4.320529     -1.351584      0.793916
  O      -4.620806     -1.848889     -0.204801
14
Coordinates from ORCA-job prodopt E -399.092723941324
  O       1.320307     -0.431881      0.507471
  N      -2.057552      0.375280     -0.658184
  C      -0.739437      0.599993     -0.069021
  C       0.036792     -0.698532     -0.043131
  H      -0.874999      0.953696      0.952902
  H      -0.147296      1.352494     -0.601138
  H       0.131099     -1.093750     -1.059096
  H      -0.497967     -1.436345      0.559882
  H      -1.960578      0.202855     -1.651056
  H      -2.612976      1.216116     -0.575216
  H       1.822060     -1.250322      0.513115
  O      -4.093704     -0.847451      1.804957
  C      -4.345976     -1.346390      0.794124
  O      -4.621786     -1.861773     -0.202181
14
Coordinates from ORCA-job prodopt E -399.092711390171
  O       1.327344     -0.429826      0.504014
  N      -2.054233      0.371615     -0.654723
  C      -0.736086      0.598187     -0.066812
  C       0.044355     -0.698030     -0.046852
  H      -0.872153      0.947309      0.956708
  H      -0.147773      1.355360     -0.596493
  H       0.139263     -1.088490     -1.064573
  H      -0.488206     -1.439823      0.553195
  H      -1.958340      0.200678     -1.647889
  H      -2.611886      1.210930     -0.569726
  H       1.832522     -1.246163      0.504202
  O      -4.129551     -0.826900      1.802351
  C      -4.364743     -1.344055      0.796222
  O      -4.622525     -1.876802     -0.196196
14
Coordinates from ORCA-job prodopt E -399.092719362179
  O       1.328409     -0.428629      0.501832
  N      -2.055110      0.370430     -0.653120
  C      -0.736390      0.597155     -0.066887
  C       0.044450     -0.698667     -0.046374
  H      -0.870921      0.947125      0.956496
  H      -0.147995      1.353495     -0.597755
  H       0.138069     -1.090830     -1.063547
  H      -0.486129     -1.439799      0.556289
  H      -1.962578      0.201993     -1.647001
  H      -2.614852      1.207537     -0.563269
  H       1.833540     -1.245007      0.503416
  O      -4.130818     -0.822820      1.798887
  C      -4.363305     -1.341759      0.793183
  O      -4.618382     -1.876236     -0.198721
14
Coordinates from ORCA-job prodopt E -399.092710756547
  O       1.329893     -0.428614      0.500167
  N      -2.053162      0.371834     -0.654300
  C      -0.734716      0.598461     -0.067533
  C       0.045056     -0.697942     -0.046332
  H      -0.869468      0.949023      0.955585
  H      -0.145627      1.354235     -0.598469
  H       0.137216     -1.091169     -1.063231
  H      -0.485710     -1.437786      0.557758
  H      -1.961272      0.203304     -1.648195
  H      -2.613712      1.208223     -0.563527
  H       1.833160     -1.246134      0.504655
  O      -4.133229     -0.827045      1.800269
  C      -4.367169     -1.344739      0.794423
  O      -4.623272     -1.877663     -0.197843
14
Coordinates from ORCA-job prodopt E -399.092722992145
  O       1.330483     -0.428782      0.497761
  N      -2.053114      0.372837     -0.654194
  C      -0.734389      0.599161     -0.068031
  C       0.044419     -0.697836     -0.045982
  H      -0.868818      0.950811      0.954745
  H      -0.144988      1.354089     -0.599836
  H       0.134303     -1.092717     -1.062466
  H      -0.485956     -1.436178      0.560232
  H      -1.962094      0.204799     -1.648221
  H      -2.613957      1.208877     -0.562181
  H       1.831122     -1.247866      0.507552
  O      -4.130067     -0.829090      1.799348
  C      -4.365596     -1.345968      0.793464
  O      -4.623360     -1.878148     -0.198764
14
Coordinates from ORCA-job prodopt E -399.092723137937
  O       1.333866     -0.427554      0.492588
  N      -2.053128      0.371218     -0.651398
  C      -0.733706      0.598593     -0.067315
  C       0.046127     -0.697893     -0.046487
  H      -0.867187      0.950322      0.955558
  H      -0.145786      1.353966     -0.600123
  H       0.132603     -1.093583     -1.062986
  H      -0.481737     -1.436027      0.562084
  H      -1.963697      0.205097     -1.645865
  H      -2.615400      1.206006     -0.556593
  H       1.832809     -1.247598      0.507220
  O      -4.137401     -0.822134      1.795287
  C      -4.368100     -1.344382      0.790994
  O      -4.621274     -1.882042     -0.199538
14
Coordinates from ORCA-job prodopt E -399.092722896014
  O       1.336090     -0.426422      0.490169
  N      -2.052706      0.369568     -0.650065
  C      -0.733212      0.598276     -0.066568
  C       0.047887     -0.697518     -0.047227
  H      -0.866517      0.949266      0.956579
  H      -0.146557      1.354640     -0.599348
  H       0.133167     -1.092639     -1.064076
  H      -0.478668     -1.436421      0.561532
  H      -1.963139      0.203296     -1.644510
  H      -2.615554      1.204014     -0.555472
  H       1.834539     -1.246726      0.506954
  O      -4.142339     -0.819339      1.794255
  C      -4.371554     -1.343283      0.790534
  O      -4.623450     -1.882724     -0.199329
14
Coordinates from ORCA-job prodopt E -399.092723977778
  O       1.340467     -0.423261      0.486553
  N      -2.052343      0.364733     -0.646828
  C      -0.732668      0.596585     -0.064789
  C       0.052193     -0.696984     -0.049120
  H      -0.865226      0.945275      0.959234
  H      -0.149107      1.355579     -0.597209
  H       0.136815     -1.090014     -1.066870
  H      -0.471299     -1.438634      0.558950
  H      -1.962802      0.198370     -1.641289
  H      -2.616617      1.198276     -0.552498
  H       1.839839     -1.242979      0.504999
  O      -4.154072     -0.811413      1.792022
  C      -4.379449     -1.339148      0.789460
  O      -4.627742     -1.882396     -0.199186
14
Coordinates from ORCA-job prodopt E -399.092727229824
  O       1.342818     -0.420694      0.485511
  N      -2.052270      0.361020     -0.645136
  C      -0.732679      0.595171     -0.063722
  C       0.055117     -0.696584     -0.050395
  H      -0.864807      0.942064      0.960962
  H      -0.151142      1.356095     -0.595617
  H       0.140603     -1.087847     -1.068770
  H      -0.466457     -1.440516      0.556564
  H      -1.962528      0.193859     -1.639476
  H      -2.617375      1.194120     -0.551814
  H       1.843610     -1.239539      0.504010
  O      -4.159330     -0.808372      1.791783
  C      -4.384654     -1.335909      0.789148
  O      -4.632918     -1.878878     -0.199619
14
Coordinates from ORCA-job prodopt E -399.092722509228
  O       1.343172     -0.418337      0.486942
  N      -2.052342      0.358433     -0.645550
  C      -0.733227      0.594422     -0.063701
  C       0.056617     -0.695982     -0.050917
  H      -0.865402      0.940353      0.961289
  H      -0.152599      1.356397     -0.595113
  H       0.144317     -1.086178     -1.069511
  H      -0.464238     -1.441475      0.554779
  H      -1.961611      0.188891     -1.639431
  H      -2.617437      1.191857     -0.555113
  H       1.845053     -1.236508      0.506135
  O      -4.153989     -0.815001      1.795078
  C      -4.387164     -1.334191      0.789947
  O      -4.643162     -1.868693     -0.201407
14
Coordinates from ORCA-job prodopt E -399.092725520771
  O       1.344083     -0.416487      0.487047
  N      -2.052447      0.356608     -0.645302
  C      -0.733400      0.593680     -0.063875
  C       0.057775     -0.695891     -0.050773
  H      -0.865467      0.939736      0.961087
  H      -0.153371      1.355933     -0.595573
  H       0.146105     -1.086348     -1.069197
  H      -0.461932     -1.441811      0.555340
  H      -1.961994      0.186721     -1.639138
  H      -2.618205      1.189602     -0.555037
  H       1.846873     -1.234100      0.506461
  O      -4.151751     -0.818633      1.796346
  C      -4.389140     -1.332838      0.789593
  O      -4.649142     -1.862184     -0.203550
14
Coordinates from ORCA-job prodopt E -399.092713107463
  O       1.346071     -0.411747      0.487813
  N      -2.052134      0.353191     -0.646208
  C      -0.733349      0.592691     -0.065690
  C       0.060001     -0.695511     -0.049097
  H      -0.865758      0.941106      0.958447
  H      -0.153945      1.354295     -0.599070
  H       0.149345     -1.088763     -1.066303
  H      -0.457425     -1.440677      0.559738
  H      -1.962539      0.182410     -1.639918
  H      -2.619622      1.185026     -0.556093
  H       1.850385     -1.228387      0.509280
  O      -4.139208     -0.837739      1.802032
  C      -4.393716     -1.331673      0.789153
  O      -4.670119     -1.840233     -0.210657
14
Coordinates from ORCA-job prodopt E -399.092726143885
  O       1.347331     -0.412085      0.486062
  N      -2.051601      0.353342     -0.645460
  C      -0.732543      0.592963     -0.065604
  C       0.060337     -0.695613     -0.048566
  H      -0.865101      0.942316      0.958202
  H      -0.153361      1.354233     -0.599670
  H       0.147714     -1.089866     -1.065563
  H      -0.456845     -1.439814      0.561624
  H      -1.962776      0.183955     -1.639460
  H      -2.619870      1.184409     -0.553364
  H       1.851395     -1.228881      0.507196
  O      -4.143582     -0.835406      1.800605
  C      -4.394881     -1.332087      0.788285
  O      -4.668228     -1.843479     -0.210858
14
Coordinates from ORCA-job prodopt E -399.092723104571
  O       1.349129     -0.413349      0.483482
  N      -2.050818      0.353199     -0.643568
  C      -0.731298      0.593328     -0.064675
  C       0.061068     -0.695649     -0.048467
  H      -0.863981      0.943009      0.959019
  H      -0.153109      1.354901     -0.599294
  H       0.145666     -1.090053     -1.065677
  H      -0.456340     -1.439198      0.562392
  H      -1.962751      0.185717     -1.637958
  H      -2.619978      1.183376     -0.549025
  H       1.853159     -1.230202      0.502584
  O      -4.154634     -0.826287      1.797070
  C      -4.396744     -1.332034      0.787047
  O      -4.661380     -1.852768     -0.209502
14
Coordinates from ORCA-job prodopt E -399.092725371619
  O       1.348269     -0.412425      0.485180
  N      -2.051276      0.352270     -0.644304
  C      -0.732038      0.593116     -0.065072
  C       0.060930     -0.695426     -0.048209
  H      -0.864898      0.942884      0.958568
  H      -0.153927      1.354734     -0.599725
  H       0.146960     -1.089814     -1.065301
  H      -0.456632     -1.439286      0.562163
  H      -1.962665      0.183136     -1.638373
  H      -2.620169      1.182852     -0.551631
  H       1.852743     -1.228997      0.504756
  O      -4.146718     -0.832935      1.799337
  C      -4.395600     -1.331356      0.787305
  O      -4.666992     -1.844762     -0.211266
14
Coordinates from ORCA-job prodopt E -399.092720729592
  O       1.347762     -0.410065      0.487917
  N      -2.051460      0.350045     -0.645606
  C      -0.732608      0.593001     -0.066376
  C       0.061471     -0.694755     -0.047119
  H      -0.865858      0.944077      0.956765
  H      -0.154957      1.354242     -0.602065
  H       0.149442     -1.090268     -1.063604
  H      -0.456299     -1.438374      0.563415
  H      -1.962318      0.178380     -1.639193
  H      -2.620601      1.180772     -0.555564
  H       1.853116     -1.226073      0.508595
  O      -4.131974     -0.849478      1.804261
  C      -4.395781     -1.330705      0.787641
  O      -4.681946     -1.826810     -0.215641
14
Coordinates from ORCA-job prodopt E -399.092730874352
  O       1.348041     -0.410079      0.487564
  N      -2.051404      0.349892     -0.645321
  C      -0.732419      0.593136     -0.066449
  C       0.061510     -0.694733     -0.046803
  H      -0.865565      0.944731      0.956520
  H      -0.154911      1.354133     -0.602628
  H       0.148896     -1.090744     -1.063149
  H      -0.456297     -1.437928      0.564224
  H      -1.962577      0.178517     -1.638986
  H      -2.620845      1.180342     -0.554756
  H       1.853316     -1.226132      0.508286
  O      -4.131862     -0.849947      1.803929
  C      -4.395754     -1.330728      0.787164
  O      -4.682140     -1.826470     -0.216168
