14
Coordinates from ORCA-job prodopt E -399.092730874352
  O           1.34804130166488     -0.41007944555670      0.48756404067910
  N          -2.05140373056066      0.34989231879565     -0.64532068302839
  C          -0.73241867635831      0.59313567244956     -0.06644909973424
  C           0.06150957594024     -0.69473291021173     -0.04680328704918
  H          -0.86556498166202      0.94473119191498      0.95651969580490
  H          -0.15491053723306      1.35413268512237     -0.60262778879942
  H           0.14889567450622     -1.09074406418582     -1.06314920463153
  H          -0.45629707993724     -1.43792760772068      0.56422407749581
  H          -1.96257665319866      0.17851656651231     -1.63898560652523
  H          -2.62084526907812      1.18034177963466     -0.55475586479321
  H           1.85331562214281     -1.22613186731536      0.50828601949941
  O          -4.13186238439209     -0.84994743971396      1.80392890943878
  C          -4.39575446751719     -1.33072752896242      0.78716436088275
  O          -4.68214039431674     -1.82647035076285     -0.21616756923955
