14
Coordinates from ORCA-job irc_forward_IRC_F E -399.089606226279
  O       1.129844     -0.472418      0.616628
  N      -2.205758      0.315245     -0.651176
  C      -0.922766      0.531564      0.001976
  C      -0.117700     -0.749217     -0.004164
  H      -1.111156      0.829844      1.033627
  H      -0.331353      1.320359     -0.471262
  H       0.031424     -1.085867     -1.034501
  H      -0.652859     -1.534607      0.535159
  H      -2.084559     -0.040333     -1.590095
  H      -2.720210      1.182040     -0.726258
  H       1.665000     -1.268832      0.589457
  O      -3.268623     -0.800247      1.653992
  C      -3.722758     -1.054868      0.615847
  O      -4.330538     -1.438674     -0.295802
