14
Coordinates from ORCA-job ./orca E -399.108168538498
  N           0.41978805829807     -2.04055381121973      0.97646100997206
  C           0.34703479584167     -0.55464382021327      0.82683828658508
  C          -0.78626519026818     -0.11165138290667     -0.06905417390332
  O          -2.07825693550208     -0.29159172102435      0.49986405607197
  H           1.32026937251972     -2.27553913519518      1.38778457476142
  H           0.37795267757075     -2.48241260505323      0.06189315045070
  H           1.29109544035806     -0.23978148112730      0.38945179115869
  H           0.25651864963322     -0.13699468990823      1.82494957544131
  H          -0.72340172895769     -0.61503061713144     -1.03601413121410
  H          -0.67165549385337      0.95793423330319     -0.23298829207288
  H          -2.29179519453244     -1.22939598389525      0.47406382794796
  O          -0.58510506169906     -2.30821693040353      3.04974041010855
  C          -0.65636677293137     -2.66714913708066      1.87908085222079
  O          -1.40785521900981     -3.43944067622660      1.28886380403601
