14
Coordinates from ORCA-job tsopt E -399.092194130728
  O       1.595110     -0.234334     -0.700429
  N      -2.039945     -0.126797     -0.102569
  C      -0.769206     -0.150448     -0.817739
  C       0.428568     -0.224512      0.109094
  H      -0.706070      0.748123     -1.428489
  H      -0.771408     -1.008452     -1.487152
  H       0.371569     -1.131391      0.717195
  H       0.430656      0.638263      0.780826
  H      -2.164455     -0.958314      0.461956
  H      -2.100884      0.669407      0.520329
  H       2.362100     -0.284567     -0.124638
  O      -4.582113     -0.009524     -0.484941
  C      -3.715231     -0.021769     -1.283959
  O      -3.285674     -0.007000     -2.380164
14
Coordinates from ORCA-job tsopt E -399.091643308365
  O       1.615626     -0.244536     -0.690931
  N      -2.029187     -0.121823     -0.103496
  C      -0.757838     -0.141582     -0.815100
  C       0.438246     -0.227013      0.113624
  H      -0.688224      0.762124     -1.420237
  H      -0.757039     -0.995787     -1.491911
  H       0.376323     -1.136168      0.717437
  H       0.449519      0.634578      0.786090
  H      -2.141133     -0.953300      0.464124
  H      -2.085752      0.674942      0.519109
  H       2.377516     -0.292091     -0.106885
  O      -4.616675     -0.011797     -0.483013
  C      -3.784250     -0.027011     -1.310885
  O      -3.344114     -0.021850     -2.398608
14
Coordinates from ORCA-job tsopt E -399.091579008011
  O       1.622603     -0.238423     -0.691512
  N      -2.026153     -0.112829     -0.099077
  C      -0.753222     -0.124820     -0.808593
  C       0.444289     -0.235339      0.116196
  H      -0.677748      0.790999     -1.395393
  H      -0.754731     -0.965212     -1.503342
  H       0.382269     -1.158269      0.698621
  H       0.462333      0.611055      0.807301
  H      -2.127088     -0.943047      0.472926
  H      -2.084241      0.684909      0.522147
  H       2.385340     -0.296952     -0.109132
  O      -4.637336      0.029017     -0.493985
  C      -3.817625     -0.041705     -1.328703
  O      -3.365672     -0.100698     -2.408133
14
Coordinates from ORCA-job tsopt E -399.091586714083
  O       1.625555     -0.237794     -0.688235
  N      -2.024114     -0.107499     -0.101692
  C      -0.749791     -0.106265     -0.809569
  C       0.444656     -0.241349      0.115801
  H      -0.670685      0.822627     -1.374884
  H      -0.751435     -0.930727     -1.523266
  H       0.374522     -1.174634      0.680784
  H       0.466159      0.591884      0.822524
  H      -2.117164     -0.942389      0.465383
  H      -2.086519      0.685142      0.525820
  H       2.386451     -0.298273     -0.103664
  O      -4.636460      0.086456     -0.494113
  C      -3.826666     -0.055782     -1.330156
  O      -3.381491     -0.192710     -2.405413
14
Coordinates from ORCA-job tsopt E -399.091586445835
  O       1.623167     -0.262890     -0.690228
  N      -2.024445     -0.104020     -0.101477
  C      -0.750126     -0.098793     -0.809224
  C       0.444116     -0.236442      0.115978
  H      -0.671995      0.830780     -1.373340
  H      -0.751008     -0.922457     -1.523971
  H       0.360996     -1.160093      0.694938
  H       0.479395      0.606772      0.810087
  H      -2.114914     -0.940817      0.462971
  H      -2.090844      0.686515      0.528349
  H       2.384692     -0.317395     -0.105900
  O      -4.637336      0.048586     -0.493236
  C      -3.822964     -0.062085     -1.329082
  O      -3.375716     -0.168975     -2.406545
14
Coordinates from ORCA-job tsopt E -399.091589760080
  O       1.624472     -0.244011     -0.689061
  N      -2.024496     -0.104612     -0.101551
  C      -0.750440     -0.108532     -0.809601
  C       0.444395     -0.238148      0.116065
  H      -0.670962      0.816418     -1.381228
  H      -0.752831     -0.937779     -1.517772
  H       0.372691     -1.166105      0.689388
  H       0.468393      0.601378      0.815287
  H      -2.120831     -0.938357      0.466340
  H      -2.085967      0.689110      0.524641
  H       2.385576     -0.308738     -0.105234
  O      -4.637507      0.050250     -0.492162
  C      -3.823435     -0.055937     -1.328864
  O      -3.376038     -0.156251     -2.406928
14
Coordinates from ORCA-job tsopt E -399.091590431179
  O       1.624233     -0.248937     -0.689255
  N      -2.024438     -0.104887     -0.101753
  C      -0.750187     -0.103656     -0.809550
  C       0.444275     -0.237317      0.115981
  H      -0.671450      0.823814     -1.377120
  H      -0.751643     -0.929886     -1.521274
  H       0.368573     -1.164790      0.689663
  H       0.471824      0.602335      0.814860
  H      -2.118340     -0.941252      0.462722
  H      -2.087990      0.686040      0.527824
  H       2.385241     -0.312298     -0.105152
  O      -4.636723      0.059263     -0.492813
  C      -3.823381     -0.058500     -1.328768
  O      -3.376977     -0.171242     -2.406047
14
Coordinates from ORCA-job tsopt E -399.091590462249
  O       1.624218     -0.249593     -0.689297
  N      -2.024421     -0.104112     -0.101783
  C      -0.750147     -0.103083     -0.809535
  C       0.444239     -0.237908      0.115931
  H      -0.670934      0.824755     -1.376435
  H      -0.751979     -0.928807     -1.521848
  H       0.368050     -1.165671      0.689100
  H       0.472217      0.601335      0.815275
  H      -2.118475     -0.940355      0.462846
  H      -2.087924      0.686940      0.527626
  H       2.385270     -0.311651     -0.105109
  O      -4.636776      0.059164     -0.492888
  C      -3.823375     -0.059290     -1.328698
  O      -3.376948     -0.173038     -2.405867
