14
Coordinates from ORCA-job irc_reverse_IRC_B E -399.091402886906
  O           1.08151363945824     -0.43648949896955      0.60368445990867
  N          -2.37345943084976      0.13787384057610     -0.49154137474906
  C          -1.03617437614474      0.43167177382407      0.06949218809103
  C          -0.15075417943014     -0.79346941258148      0.00464201155771
  H          -1.17678237541597      0.75379422273574      1.09628328861225
  H          -0.59609278778493      1.24577551766162     -0.50310326334037
  H          -0.00416502849753     -1.09053554446222     -1.03722775491532
  H          -0.61964950025534     -1.62156291508423      0.53956473180157
  H          -2.30031921620748     -0.30061939265855     -1.40577211149217
  H          -2.87340334177624      1.01075678570798     -0.64218986324762
  H           1.66682119811250     -1.19725152219790      0.56077702676465
  O          -3.15965557745773     -0.73656876743635      1.58535040652265
  C          -3.40106483733372     -0.79685897726963      0.40081241568054
  O          -4.20417176774236     -1.33159010432879     -0.33478908010771
