14
Coordinates from ORCA-job irc_forward_IRC_F E -399.088865606465
  O       1.123971     -0.468896      0.616118
  N      -2.218520      0.303287     -0.636328
  C      -0.933841      0.523907      0.007419
  C      -0.122870     -0.753363     -0.002965
  H      -1.113848      0.823003      1.040158
  H      -0.342894      1.315624     -0.469250
  H       0.027633     -1.087676     -1.033973
  H      -0.653594     -1.541996      0.536869
  H      -2.101748     -0.059410     -1.574790
  H      -2.729955      1.172485     -0.719124
  H       1.664602     -1.262381      0.587700
  O      -3.245010     -0.783767      1.642772
  C      -3.688267     -1.027266      0.591674
  O      -4.307670     -1.419562     -0.312852
14
Coordinates from ORCA-job irc_forward_IRC_F E -399.088933833531
  O       1.124192     -0.469307      0.616123
  N      -2.217952      0.304475     -0.637890
  C      -0.932052      0.524659      0.007260
  C      -0.122596     -0.753231     -0.002912
  H      -1.113921      0.823188      1.039934
  H      -0.343372      1.315120     -0.469116
  H       0.027657     -1.087610     -1.033928
  H      -0.653442     -1.541697      0.536733
  H      -2.101305     -0.058749     -1.574853
  H      -2.729648      1.172516     -0.719285
  H       1.664445     -1.262370      0.587763
  O      -3.246922     -0.785059      1.641768
  C      -3.689266     -1.028032      0.592341
  O      -4.307831     -1.419911     -0.310511
14
Coordinates from ORCA-job irc_forward_IRC_F E -399.088954952932
  O       1.124324     -0.469468      0.616153
  N      -2.217331      0.305143     -0.638536
  C      -0.931394      0.524911      0.007187
  C      -0.122384     -0.753128     -0.002915
  H      -1.113930      0.823330      1.039761
  H      -0.343409      1.315058     -0.469164
  H       0.027688     -1.087567     -1.033906
  H      -0.653365     -1.541488      0.536655
  H      -2.100944     -0.058342     -1.575178
  H      -2.729505      1.172746     -0.719445
  H       1.664427     -1.262501      0.587804
  O      -3.247863     -0.785722      1.641794
  C      -3.689801     -1.028471      0.593085
  O      -4.308526     -1.420512     -0.309867
14
Coordinates from ORCA-job irc_forward_IRC_F E -399.089000910998
  O       1.124665     -0.469766      0.616245
  N      -2.215917      0.306494     -0.639762
  C      -0.930295      0.525359      0.007002
  C      -0.121907     -0.752888     -0.002945
  H      -1.113905      0.823685      1.039365
  H      -0.343190      1.315165     -0.469366
  H       0.027790     -1.087469     -1.033883
  H      -0.653214     -1.541004      0.536492
  H      -2.100031     -0.057385     -1.576105
  H      -2.729153      1.173408     -0.719845
  H       1.664449     -1.262898      0.587901
  O      -3.249573     -0.786976      1.642780
  C      -3.691682     -1.029903      0.593914
  O      -4.310050     -1.421833     -0.308365
14
Coordinates from ORCA-job irc_forward_IRC_F E -399.089019063171
  O       1.124811     -0.469854      0.616285
  N      -2.215502      0.306871     -0.640127
  C      -0.930041      0.525501      0.006913
  C      -0.121754     -0.752800     -0.002964
  H      -1.113873      0.823823      1.039230
  H      -0.342980      1.315294     -0.469460
  H       0.027847     -1.087433     -1.033889
  H      -0.653173     -1.540834      0.536444
  H      -2.099666     -0.057018     -1.576481
  H      -2.728991      1.173675     -0.719999
  H       1.664477     -1.263068      0.587939
  O      -3.250218     -0.787430      1.642956
  C      -3.692201     -1.030345      0.594704
  O      -4.310747     -1.422393     -0.308122
14
Coordinates from ORCA-job irc_forward_IRC_F E -399.089058738933
  O       1.125173     -0.470064      0.616375
  N      -2.214594      0.307713     -0.640989
  C      -0.929452      0.525872      0.006670
  C      -0.121401     -0.752583     -0.003012
  H      -1.113786      0.824163      1.038906
  H      -0.342426      1.315619     -0.469669
  H       0.027997     -1.087346     -1.033909
  H      -0.653081     -1.540431      0.536337
  H      -2.098770     -0.056107     -1.577380
  H      -2.728566      1.174307     -0.720373
  H       1.664544     -1.263478      0.588032
  O      -3.251619     -0.788429      1.643650
  C      -3.693821     -1.031648      0.596074
  O      -4.312210     -1.423598     -0.307283
14
Coordinates from ORCA-job irc_forward_IRC_F E -399.089099593442
  O       1.125567     -0.470284      0.616451
  N      -2.213816      0.308450     -0.641844
  C      -0.928891      0.526312      0.006354
  C      -0.121066     -0.752333     -0.003074
  H      -1.113657      0.824545      1.038551
  H      -0.341708      1.316003     -0.469856
  H       0.028197     -1.087247     -1.033942
  H      -0.653004     -1.540008      0.536240
  H      -2.097772     -0.055063     -1.578337
  H      -2.728031      1.174962     -0.720791
  H       1.664620     -1.263921      0.588136
  O      -3.252950     -0.789378      1.644548
  C      -3.695918     -1.033300      0.597260
  O      -4.313584     -1.424748     -0.306268
14
Coordinates from ORCA-job irc_forward_IRC_F E -399.089139190357
  O       1.125938     -0.470489      0.616511
  N      -2.213123      0.309102     -0.642638
  C      -0.928380      0.526735      0.006038
  C      -0.120762     -0.752092     -0.003138
  H      -1.113521      0.824918      1.038202
  H      -0.340991      1.316373     -0.470017
  H       0.028403     -1.087149     -1.033975
  H      -0.652940     -1.539602      0.536151
  H      -2.096807     -0.054036     -1.579242
  H      -2.727493      1.175570     -0.721198
  H       1.664690     -1.264341      0.588236
  O      -3.254286     -0.790310      1.645165
  C      -3.697728     -1.034776      0.598863
  O      -4.315013     -1.425913     -0.305532
14
Coordinates from ORCA-job irc_forward_IRC_F E -399.089178999770
  O       1.126316     -0.470694      0.616558
  N      -2.212451      0.309716     -0.643424
  C      -0.927877      0.527174      0.005696
  C      -0.120466     -0.751836     -0.003213
  H      -1.113361      0.825317      1.037825
  H      -0.340205      1.316757     -0.470161
  H       0.028637     -1.087043     -1.034011
  H      -0.652889     -1.539177      0.536065
  H      -2.095791     -0.052931     -1.580179
  H      -2.726903      1.176183     -0.721632
  H       1.664753     -1.264770      0.588341
  O      -3.255610     -0.791228      1.645826
  C      -3.699728     -1.036401      0.600505
  O      -4.316438     -1.427077     -0.304768
14
Coordinates from ORCA-job irc_forward_IRC_F E -399.089218070531
  O       1.126650     -0.470872      0.616590
  N      -2.211856      0.310248     -0.644117
  C      -0.927426      0.527573      0.005375
  C      -0.120204     -0.751602     -0.003285
  H      -1.113204      0.825689      1.037475
  H      -0.339471      1.317103     -0.470279
  H       0.028859     -1.086943     -1.034046
  H      -0.652851     -1.538787      0.535988
  H      -2.094856     -0.051904     -1.581033
  H      -2.726351      1.176729     -0.722033
  H       1.664806     -1.265156      0.588436
  O      -3.256697     -0.791997      1.646678
  C      -3.701820     -1.038048      0.601548
  O      -4.317591     -1.428042     -0.303870
14
Coordinates from ORCA-job irc_forward_IRC_F E -399.089257909577
  O       1.127004     -0.471056      0.616610
  N      -2.211221      0.310797     -0.644859
  C      -0.926940      0.528001      0.005020
  C      -0.119930     -0.751347     -0.003369
  H      -1.113014      0.826109      1.037080
  H      -0.338645      1.317469     -0.470392
  H       0.029117     -1.086831     -1.034087
  H      -0.652826     -1.538355      0.535905
  H      -2.093816     -0.050742     -1.581968
  H      -2.725724      1.177308     -0.722480
  H       1.664848     -1.265566      0.588541
  O      -3.257892     -0.792833      1.647548
  C      -3.704088     -1.039849      0.602841
  O      -4.318885     -1.429115     -0.302962
14
Coordinates from ORCA-job irc_forward_IRC_F E -399.089296791808
  O       1.127337     -0.471228      0.616627
  N      -2.210620      0.311314     -0.645568
  C      -0.926479      0.528405      0.004687
  C      -0.119671     -0.751108     -0.003450
  H      -1.112834      0.826507      1.036707
  H      -0.337864      1.317812     -0.470498
  H       0.029361     -1.086726     -1.034126
  H      -0.652805     -1.537946      0.535826
  H      -2.092829     -0.049640     -1.582851
  H      -2.725131      1.177852     -0.722900
  H       1.664885     -1.265949      0.588640
  O      -3.259124     -0.793681      1.648139
  C      -3.706032     -1.041433      0.604441
  O      -4.320206     -1.430191     -0.302245
14
Coordinates from ORCA-job irc_forward_IRC_F E -399.089336695846
  O       1.127681     -0.471401      0.616638
  N      -2.209988      0.311846     -0.646304
  C      -0.925995      0.528827      0.004332
  C      -0.119404     -0.750856     -0.003538
  H      -1.112633      0.826933      1.036309
  H      -0.337030      1.318165     -0.470603
  H       0.029624     -1.086613     -1.034170
  H      -0.652793     -1.537512      0.535742
  H      -2.091778     -0.048461     -1.583786
  H      -2.724497      1.178417     -0.723345
  H       1.664916     -1.266346      0.588744
  O      -3.260341     -0.794526      1.648942
  C      -3.708253     -1.043208      0.605847
  O      -4.321523     -1.431277     -0.301382
14
Coordinates from ORCA-job irc_forward_IRC_F E -399.089374543111
  O       1.128015     -0.471565      0.616646
  N      -2.209369      0.312363     -0.647029
  C      -0.925521      0.529238      0.003986
  C      -0.119145     -0.750610     -0.003625
  H      -1.112432      0.827355      1.035916
  H      -0.336206      1.318508     -0.470704
  H       0.029886     -1.086502     -1.034215
  H      -0.652786     -1.537084      0.535659
  H      -2.090738     -0.047291     -1.584708
  H      -2.723870      1.178967     -0.723781
  H       1.664943     -1.266731      0.588847
  O      -3.261702     -0.795448      1.649351
  C      -3.710047     -1.044721      0.607955
  O      -4.323042     -1.432486     -0.300870
14
Coordinates from ORCA-job irc_forward_IRC_F E -399.089407953657
  O       1.128263     -0.471686      0.616648
  N      -2.208896      0.312749     -0.647571
  C      -0.925162      0.529548      0.003720
  C      -0.118951     -0.750425     -0.003694
  H      -1.112273      0.827677      1.035618
  H      -0.335577      1.318760     -0.470778
  H       0.030085     -1.086418     -1.034250
  H      -0.652786     -1.536760      0.535596
  H      -2.089944     -0.046398     -1.585406
  H      -2.723393      1.179377     -0.724110
  H       1.664957     -1.267017      0.588925
  O      -3.262500     -0.796016      1.650193
  C      -3.711948     -1.046193      0.608556
  O      -4.323888     -1.433209     -0.300020
14
Coordinates from ORCA-job irc_forward_IRC_F E -399.089451357065
  O       1.128592     -0.471843      0.616649
  N      -2.208266      0.313261     -0.648299
  C      -0.924680      0.529960      0.003368
  C      -0.118694     -0.750178     -0.003786
  H      -1.112058      0.828111      1.035217
  H      -0.334732      1.319096     -0.470875
  H       0.030355     -1.086306     -1.034298
  H      -0.652791     -1.536325      0.535510
  H      -2.088874     -0.045193     -1.586346
  H      -2.722752      1.179925     -0.724550
  H       1.664974     -1.267396      0.589030
  O      -3.263744     -0.796874      1.650924
  C      -3.714130     -1.047947      0.610050
  O      -4.325214     -1.434301     -0.299166
14
Coordinates from ORCA-job irc_forward_IRC_F E -399.089486827577
  O       1.128916     -0.471996      0.616647
  N      -2.207633      0.313769     -0.649028
  C      -0.924199      0.530370      0.003014
  C      -0.118439     -0.749932     -0.003879
  H      -1.111836      0.828546      1.034816
  H      -0.333883      1.319424     -0.470972
  H       0.030624     -1.086194     -1.034347
  H      -0.652801     -1.535891      0.535424
  H      -2.087797     -0.043978     -1.587286
  H      -2.722110      1.180465     -0.724987
  H       1.664986     -1.267768      0.589136
  O      -3.264977     -0.797726      1.651680
  C      -3.716265     -1.049670      0.611606
  O      -4.326599     -1.435430     -0.298396
14
Coordinates from ORCA-job irc_forward_IRC_F E -399.089527653918
  O       1.129232     -0.472141      0.616642
  N      -2.207005      0.314268     -0.649751
  C      -0.923717      0.530773      0.002666
  C      -0.118189     -0.749690     -0.003974
  H      -1.111611      0.828981      1.034416
  H      -0.333035      1.319744     -0.471069
  H       0.030893     -1.086083     -1.034398
  H      -0.652817     -1.535458      0.535336
  H      -2.086715     -0.042760     -1.588228
  H      -2.721471      1.180999     -0.725418
  H       1.664993     -1.268131      0.589243
  O      -3.266245     -0.798597      1.652357
  C      -3.718366     -1.051370      0.613199
  O      -4.327962     -1.436544     -0.297592
14
Coordinates from ORCA-job irc_forward_IRC_F E -399.089566714225
  O       1.129535     -0.472279      0.616636
  N      -2.206391      0.314752     -0.650453
  C      -0.923250      0.531164      0.002325
  C      -0.117947     -0.749456     -0.004067
  H      -1.111389      0.829405      1.034027
  H      -0.332207      1.320050     -0.471163
  H       0.031155     -1.085977     -1.034448
  H      -0.652836     -1.535039      0.535249
  H      -2.085657     -0.041569     -1.589145
  H      -2.720849      1.181514     -0.725833
  H       1.664998     -1.268479      0.589347
  O      -3.267406     -0.799404      1.653181
  C      -3.720548     -1.053105      0.614474
  O      -4.329221     -1.437587     -0.296702
14
Coordinates from ORCA-job irc_forward_IRC_F E -399.089606226279
  O       1.129844     -0.472418      0.616628
  N      -2.205758      0.315245     -0.651176
  C      -0.922766      0.531564      0.001976
  C      -0.117700     -0.749217     -0.004164
  H      -1.111156      0.829844      1.033627
  H      -0.331353      1.320359     -0.471262
  H       0.031424     -1.085867     -1.034501
  H      -0.652859     -1.534607      0.535159
  H      -2.084559     -0.040333     -1.590095
  H      -2.720210      1.182040     -0.726258
  H       1.665000     -1.268832      0.589457
  O      -3.268623     -0.800247      1.653992
  C      -3.722758     -1.054868      0.615847
  O      -4.330538     -1.438674     -0.295802
