14
Coordinates from ORCA-job irc_reverse_IRC_B E -399.089374585040
  O       1.094124     -0.442660      0.607395
  N      -2.345733      0.165512     -0.513567
  C      -1.018184      0.451760      0.050790
  C      -0.141412     -0.781326      0.000739
  H      -1.163619      0.766687      1.081972
  H      -0.549793      1.267730     -0.502215
  H       0.007767     -1.088238     -1.038132
  H      -0.623248     -1.602933      0.535805
  H      -2.284689     -0.293879     -1.418048
  H      -2.859711      1.027595     -0.656027
  H       1.672455     -1.208163      0.558136
  O      -3.208161     -0.768067      1.614888
  C      -3.477825     -0.854889      0.446650
  O      -4.249328     -1.364205     -0.322404
14
Coordinates from ORCA-job irc_reverse_IRC_B E -399.089558684906
  O       1.093566     -0.442312      0.607055
  N      -2.349718      0.161402     -0.511470
  C      -1.018572      0.450927      0.051965
  C      -0.141711     -0.781896      0.000696
  H      -1.163748      0.766650      1.081955
  H      -0.551165      1.266699     -0.501951
  H       0.007641     -1.088192     -1.038167
  H      -0.623269     -1.603067      0.535824
  H      -2.284373     -0.292877     -1.417906
  H      -2.859704      1.027288     -0.656268
  H       1.672152     -1.207824      0.558199
  O      -3.206774     -0.767055      1.612918
  C      -3.475579     -0.853005      0.445108
  O      -4.246104     -1.361811     -0.321975
14
Coordinates from ORCA-job irc_reverse_IRC_B E -399.089680853048
  O       1.093050     -0.441965      0.606756
  N      -2.352406      0.158497     -0.509741
  C      -1.019409      0.449956      0.052903
  C      -0.142015     -0.782395      0.000691
  H      -1.163914      0.766576      1.082168
  H      -0.552790      1.265608     -0.501801
  H       0.007474     -1.088167     -1.038222
  H      -0.623290     -1.603359      0.535888
  H      -2.284322     -0.292132     -1.417563
  H      -2.859757      1.026594     -0.656286
  H       1.671875     -1.207495      0.558264
  O      -3.205383     -0.766078      1.611447
  C      -3.472592     -0.850600      0.443614
  O      -4.243880     -1.360114     -0.322136
14
Coordinates from ORCA-job irc_reverse_IRC_B E -399.089933580122
  O       1.091912     -0.441241      0.606095
  N      -2.357117      0.153595     -0.505968
  C      -1.021776      0.447393      0.054850
  C      -0.142798     -0.783457      0.000788
  H      -1.164446      0.766284      1.083103
  H      -0.557191      1.262890     -0.501655
  H       0.006963     -1.088149     -1.038378
  H      -0.623312     -1.604384      0.536116
  H      -2.284632     -0.291001     -1.416637
  H      -2.860045      1.024296     -0.655883
  H       1.671167     -1.206589      0.558437
  O      -3.201815     -0.763640      1.608902
  C      -3.464292     -0.844053      0.439708
  O      -4.239976     -1.357018     -0.323493
14
Coordinates from ORCA-job irc_reverse_IRC_B E -399.090205127897
  O       1.090626     -0.440497      0.605455
  N      -2.359793      0.150724     -0.502687
  C      -1.024402      0.444493      0.057065
  C      -0.143838     -0.784681      0.001112
  H      -1.165388      0.765547      1.084870
  H      -0.563312      1.259597     -0.501948
  H       0.006071     -1.088208     -1.038521
  H      -0.623188     -1.606260      0.536493
  H      -2.285940     -0.291114     -1.415084
  H      -2.861128      1.021166     -0.654456
  H       1.670305     -1.205361      0.558665
  O      -3.197307     -0.760531      1.606108
  C      -3.454433     -0.836362      0.433591
  O      -4.235631     -1.353589     -0.324681
14
Coordinates from ORCA-job irc_reverse_IRC_B E -399.090460121095
  O       1.089182     -0.439735      0.604979
  N      -2.362785      0.147177     -0.500161
  C      -1.025922      0.442391      0.059639
  C      -0.144795     -0.786167      0.001580
  H      -1.166583      0.764326      1.086722
  H      -0.569143      1.256923     -0.502550
  H       0.004840     -1.088305     -1.038436
  H      -0.622802     -1.608451      0.536843
  H      -2.287602     -0.292214     -1.413399
  H      -2.863044      1.019362     -0.652562
  H       1.669613     -1.204210      0.558911
  O      -3.192250     -0.756969      1.602353
  C      -3.445337     -0.829422      0.428145
  O      -4.230728     -1.349782     -0.326082
14
Coordinates from ORCA-job irc_reverse_IRC_B E -399.090694528865
  O       1.087947     -0.439157      0.604665
  N      -2.365030      0.145230     -0.497799
  C      -1.028356      0.440039      0.061488
  C      -0.145740     -0.787401      0.002131
  H      -1.167885      0.762945      1.088723
  H      -0.574624      1.254593     -0.503130
  H       0.003459     -1.088482     -1.038320
  H      -0.622329     -1.610777      0.537244
  H      -2.289577     -0.293677     -1.411643
  H      -2.864725      1.016952     -0.650437
  H       1.669052     -1.203054      0.559197
  O      -3.186795     -0.753301      1.599655
  C      -3.436512     -0.822612      0.422013
  O      -4.226243     -1.346371     -0.327805
14
Coordinates from ORCA-job irc_reverse_IRC_B E -399.090909121642
  O       1.086527     -0.438551      0.604386
  N      -2.367601      0.142494     -0.495665
  C      -1.029754      0.438189      0.063788
  C      -0.146889     -0.788787      0.002683
  H      -1.169477      0.761212      1.090428
  H      -0.580220      1.252186     -0.503480
  H       0.001913     -1.088735     -1.038105
  H      -0.621706     -1.613190      0.537658
  H      -2.291839     -0.295382     -1.409942
  H      -2.866902      1.015352     -0.648334
  H       1.668502     -1.201821      0.559508
  O      -3.181105     -0.749451      1.595583
  C      -3.427795     -0.816065      0.416873
  O      -4.221013     -1.342526     -0.329397
14
Coordinates from ORCA-job irc_reverse_IRC_B E -399.091095392184
  O       1.085139     -0.437953      0.604182
  N      -2.369404      0.141011     -0.494003
  C      -1.032314      0.435855      0.065435
  C      -0.147768     -0.790173      0.003290
  H      -1.171210      0.759427      1.092452
  H      -0.585327      1.250226     -0.503834
  H       0.000246     -1.089065     -1.037886
  H      -0.621116     -1.615640      0.538142
  H      -2.294291     -0.297062     -1.408170
  H      -2.868775      1.013321     -0.646205
  H       1.668033     -1.200619      0.559835
  O      -3.174982     -0.745559      1.593036
  C      -3.419244     -0.809640      0.411120
  O      -4.216344     -1.339203     -0.331410
14
Coordinates from ORCA-job irc_reverse_IRC_B E -399.091250982938
  O       1.083659     -0.437386      0.603971
  N      -2.371643      0.139095     -0.492376
  C      -1.033327      0.434239      0.067570
  C      -0.149196     -0.791443      0.003858
  H      -1.173337      0.757191      1.093952
  H      -0.590492      1.247984     -0.503706
  H      -0.001507     -1.089568     -1.037643
  H      -0.620429     -1.618211      0.538693
  H      -2.296847     -0.298888     -1.407026
  H      -2.870963      1.012124     -0.644300
  H       1.667511     -1.199221      0.560212
  O      -3.168694     -0.741616      1.589162
  C      -3.411074     -0.803775      0.406699
  O      -4.211017     -1.335598     -0.333080
14
Coordinates from ORCA-job irc_reverse_IRC_B E -399.091300945505
  O       1.083057     -0.437128      0.603898
  N      -2.372046      0.138724     -0.492175
  C      -1.034545      0.433347      0.068025
  C      -0.149477     -0.792140      0.004102
  H      -1.174232      0.756322      1.094778
  H      -0.592153      1.247410     -0.503678
  H      -0.002267     -1.089785     -1.037510
  H      -0.620201     -1.619147      0.538913
  H      -2.297876     -0.299385     -1.406422
  H      -2.871656      1.011570     -0.643607
  H       1.667318     -1.198692      0.560359
  O      -3.166215     -0.740168      1.587810
  C      -3.407910     -0.801550      0.405225
  O      -4.209155     -1.334452     -0.333736
14
Coordinates from ORCA-job irc_reverse_IRC_B E -399.091318911183
  O       1.082829     -0.437033      0.603870
  N      -2.372286      0.138567     -0.492030
  C      -1.034757      0.433110      0.068269
  C      -0.149686     -0.792327      0.004184
  H      -1.174602      0.755948      1.094997
  H      -0.592797      1.247133     -0.503602
  H      -0.002547     -1.089891     -1.037472
  H      -0.620112     -1.619525      0.539010
  H      -2.298254     -0.299603     -1.406311
  H      -2.871936      1.011430     -0.643374
  H       1.667246     -1.198478      0.560421
  O      -3.165194     -0.739599      1.587563
  C      -3.406973     -0.800880      0.404286
  O      -4.208288     -1.333924     -0.333829
14
Coordinates from ORCA-job irc_reverse_IRC_B E -399.091349103410
  O       1.082403     -0.436857      0.603813
  N      -2.372699      0.138301     -0.491806
  C      -1.035199      0.432644      0.068694
  C      -0.150047     -0.792691      0.004336
  H      -1.175293      0.755257      1.095421
  H      -0.593944      1.246655     -0.503462
  H      -0.003070     -1.090089     -1.037397
  H      -0.619952     -1.620209      0.539188
  H      -2.298947     -0.299980     -1.406103
  H      -2.872439      1.011180     -0.642956
  H       1.667110     -1.198082      0.560535
  O      -3.163337     -0.738570      1.587015
  C      -3.405169     -0.799611      0.402756
  O      -4.206777     -1.333022     -0.334051
14
Coordinates from ORCA-job irc_reverse_IRC_B E -399.091377787762
  O       1.081943     -0.436669      0.603748
  N      -2.373095      0.138068     -0.491639
  C      -1.035711      0.432134      0.069109
  C      -0.150410     -0.793097      0.004497
  H      -1.176055      0.754509      1.095878
  H      -0.595087      1.246189     -0.503291
  H      -0.003636     -1.090313     -1.037309
  H      -0.619791     -1.620917      0.539381
  H      -2.299669     -0.300332     -1.405911
  H      -2.872949      1.010942     -0.642544
  H       1.666961     -1.197653      0.560659
  O      -3.161389     -0.737509      1.586315
  C      -3.403174     -0.798247      0.401431
  O      -4.205296     -1.332179     -0.334341
14
Coordinates from ORCA-job irc_reverse_IRC_B E -399.091402886906
  O       1.081514     -0.436489      0.603684
  N      -2.373459      0.137874     -0.491541
  C      -1.036174      0.431672      0.069492
  C      -0.150754     -0.793469      0.004642
  H      -1.176782      0.753794      1.096283
  H      -0.596093      1.245776     -0.503103
  H      -0.004165     -1.090536     -1.037228
  H      -0.619650     -1.621563      0.539565
  H      -2.300319     -0.300619     -1.405772
  H      -2.873403      1.010757     -0.642190
  H       1.666821     -1.197252      0.560777
  O      -3.159656     -0.736569      1.585350
  C      -3.401065     -0.796859      0.400812
  O      -4.204172     -1.331590     -0.334789
