14
Coordinates from ORCA-job irc_forward_IRC_F E -399.089606226279
  O           1.12984353171199     -0.47241801604320      0.61662825301148
  N          -2.20575788183879      0.31524522779910     -0.65117614733314
  C          -0.92276613780175      0.53156423985388      0.00197607366818
  C          -0.11769978160474     -0.74921681120349     -0.00416406628377
  H          -1.11115621932202      0.82984355889231      1.03362658970255
  H          -0.33135311359435      1.32035927815623     -0.47126164944015
  H           0.03142368234181     -1.08586711061844     -1.03450139684933
  H          -0.65285928940030     -1.53460672250526      0.53515903418311
  H          -2.08455920783675     -0.04033302127212     -1.59009471346254
  H          -2.72020992103395      1.18204040507235     -0.72625773744183
  H           1.66499975659184     -1.26883232351865      0.58945675846821
  O          -3.26862300462055     -0.80024675388602      1.65399197916191
  C          -3.72275785860426     -1.05486787958234      0.61584744859163
  O          -4.33053755462717     -1.43867430508139     -0.29580226209788
