14
Coordinates from ORCA-job ./tsopt_freq E -399.087442031894
  O           1.10904730168818     -0.45577802522476      0.61175696527402
  N          -2.28212620824915      0.23439971943879     -0.57494720416601
  C          -0.97601252928554      0.48783375699444      0.02910466269674
  C          -0.13214116215503     -0.76734459372875     -0.00111259403622
  H          -1.13873365408907      0.79484532939003      1.06106483831375
  H          -0.44634377775199      1.29167694563718     -0.48573286613366
  H           0.01769963747155     -1.08795719737901     -1.03605252646978
  H          -0.63842125714665     -1.57246442837367      0.53633695342292
  H          -2.19321860927044     -0.17664452442756     -1.49641909944853
  H          -2.79483290396290      1.10004036832970     -0.68757539572703
  H           1.66852852301466     -1.23527162877280      0.57291815723069
  O          -3.22658543692039     -0.77591701217372      1.62882971288016
  C          -3.58304611703658     -0.94107728216276      0.51916174406749
  O          -4.27849909690626     -1.39188354174703     -0.31762772530459
