3
Coordinates from ORCA-job ./waterpcm E -76.322132100296
  O       0.000000      0.000000      0.000000
  H       0.758602      0.000000      0.504284
  H      -0.758602      0.000000      0.504284
3
Coordinates from ORCA-job ./waterpcm E -76.329418214087
  O      -0.000000      0.000000     -0.034699
  H       0.787726      0.000000      0.521633
  H      -0.787726      0.000000      0.521633
3
Coordinates from ORCA-job ./waterpcm E -76.330274036167
  O       0.000000      0.000000     -0.052568
  H       0.773909      0.000000      0.530568
  H      -0.773909      0.000000      0.530568
3
Coordinates from ORCA-job ./waterpcm E -76.330589568822
  O      -0.000000      0.000000     -0.070158
  H       0.754880      0.000000      0.539363
  H      -0.754880      0.000000      0.539363
3
Coordinates from ORCA-job ./waterpcm E -76.330588633196
  O      -0.000000      0.000000     -0.068909
  H       0.755187      0.000000      0.538739
  H      -0.755187      0.000000      0.538739
3
Coordinates from ORCA-job ./waterpcm E -76.330582404047
  O      -0.000000      0.000000     -0.068777
  H       0.754972      0.000000      0.538673
  H      -0.754972      0.000000      0.538673
