14
Coordinates from ORCA-job ./backwardopt_retry E -399.101098755089
  O       1.858120     -0.295925     -0.715924
  N      -1.715423     -0.028825      0.258268
  C      -0.519771     -0.098407     -0.582103
  C       0.768590     -0.232950      0.208578
  H      -0.475569      0.802479     -1.199642
  H      -0.618302     -0.952897     -1.256745
  H       0.736754     -1.142837      0.817044
  H       0.890473      0.626368      0.876348
  H      -1.753047     -0.847733      0.857533
  H      -1.642166      0.768052      0.883237
  H       2.670042     -0.414913     -0.213583
  O      -5.918522     -0.088758     -1.245263
  C      -5.111948     -0.066297     -2.072254
  O      -4.306842     -0.044015     -2.900718
14
Coordinates from ORCA-job ./backwardopt_retry E -399.101115880549
  O       1.856836     -0.305742     -0.714178
  N      -1.716168     -0.015065      0.255169
  C      -0.518946     -0.085958     -0.582147
  C       0.766314     -0.239354      0.207984
  H      -0.465268      0.820118     -1.187981
  H      -0.622816     -0.930236     -1.265710
  H       0.725214     -1.152182      0.808577
  H       0.893996      0.612307      0.881732
  H      -1.761922     -0.839260      0.843544
  H      -1.636470      0.772248      0.888447
  H       2.668483     -0.417656     -0.211059
  O      -5.907982     -0.086300     -1.235651
  C      -5.108539     -0.078596     -2.069460
  O      -4.310345     -0.070979     -2.904491
14
Coordinates from ORCA-job ./backwardopt_retry E -399.101128904665
  O       1.848694     -0.316068     -0.720719
  N      -1.719032      0.007049      0.260380
  C      -0.523868     -0.067894     -0.579575
  C       0.761420     -0.246337      0.204939
  H      -0.460497      0.844810     -1.174199
  H      -0.638754     -0.902584     -1.272861
  H       0.710398     -1.165153      0.795406
  H       0.901221      0.595991      0.887758
  H      -1.773438     -0.824119      0.837976
  H      -1.628497      0.785025      0.903583
  H       2.660998     -0.435865     -0.220571
  O      -5.888846     -0.102211     -1.232763
  C      -5.091666     -0.097129     -2.068722
  O      -4.295748     -0.092172     -2.905853
14
Coordinates from ORCA-job ./backwardopt_retry E -399.101127007309
  O       1.836784     -0.324219     -0.732024
  N      -1.720703      0.028912      0.274311
  C      -0.532305     -0.051846     -0.574608
  C       0.755503     -0.252059      0.200406
  H      -0.462283      0.866161     -1.160308
  H      -0.661387     -0.878038     -1.275587
  H       0.697927     -1.176208      0.781941
  H       0.908156      0.581890      0.890812
  H      -1.782409     -0.809525      0.840575
  H      -1.614515      0.796460      0.928048
  H       2.650944     -0.454128     -0.237401
  O      -5.866672     -0.117892     -1.236298
  C      -5.070678     -0.114571     -2.073392
  O      -4.275975     -0.111592     -2.911697
14
Coordinates from ORCA-job ./backwardopt_retry E -399.101129508409
  O       1.831193     -0.328256     -0.737211
  N      -1.720542      0.045978      0.281302
  C      -0.535679     -0.039351     -0.572304
  C       0.752379     -0.255809      0.198048
  H      -0.458737      0.881794     -1.152438
  H      -0.674386     -0.859743     -1.278444
  H       0.689016     -1.184254      0.772269
  H       0.912587      0.571467      0.895061
  H      -1.791128     -0.798211      0.838166
  H      -1.601712      0.803888      0.944053
  H       2.645180     -0.470278     -0.245535
  O      -5.857965     -0.131624     -1.239035
  C      -5.061472     -0.127853     -2.075656
  O      -4.266346     -0.124403     -2.913500
14
Coordinates from ORCA-job ./backwardopt_retry E -399.101134670220
  O       1.828165     -0.329425     -0.739592
  N      -1.719735      0.055350      0.285493
  C      -0.537788     -0.033287     -0.571884
  C       0.750082     -0.257759      0.196539
  H      -0.457378      0.889058     -1.149699
  H      -0.682438     -0.850943     -1.280079
  H       0.684116     -1.188509      0.766737
  H       0.913185      0.566048      0.897095
  H      -1.795900     -0.792041      0.836742
  H      -1.592329      0.807042      0.953584
  H       2.641729     -0.477964     -0.249113
  O      -5.853442     -0.138657     -1.240861
  C      -5.055986     -0.134646     -2.076582
  O      -4.259894     -0.130924     -2.913603
14
Coordinates from ORCA-job ./backwardopt_retry E -399.101132308022
  O       1.824844     -0.333947     -0.742696
  N      -1.720149      0.074220      0.287892
  C      -0.538607     -0.019154     -0.569944
  C       0.747960     -0.262744      0.194825
  H      -0.448929      0.906853     -1.140565
  H      -0.691305     -0.830228     -1.283940
  H       0.674440     -1.198526      0.755782
  H       0.918070      0.552597      0.903657
  H      -1.806985     -0.778628      0.829219
  H      -1.582148      0.815997      0.964740
  H       2.637375     -0.494816     -0.254396
  O      -5.849762     -0.154154     -1.242427
  C      -5.050283     -0.149379     -2.076200
  O      -4.252134     -0.144748     -2.911169
14
Coordinates from ORCA-job ./backwardopt_retry E -399.101133874609
  O       1.818243     -0.336698     -0.748573
  N      -1.720976      0.080971      0.295462
  C      -0.543739     -0.015033     -0.567852
  C       0.744417     -0.264507      0.192334
  H      -0.453332      0.912207     -1.136280
  H      -0.702324     -0.823487     -1.283555
  H       0.669898     -1.201490      0.751137
  H       0.919166      0.548574      0.902622
  H      -1.808939     -0.773965      0.833228
  H      -1.576553      0.819140      0.975436
  H       2.632052     -0.498876     -0.262839
  O      -5.837249     -0.157890     -1.244302
  C      -5.038079     -0.154388     -2.078366
  O      -4.240197     -0.151216     -2.913677
14
Coordinates from ORCA-job ./backwardopt_retry E -399.101132298094
  O       1.815801     -0.338837     -0.749200
  N      -1.722284      0.085599      0.294637
  C      -0.545338     -0.010930     -0.568923
  C       0.741713     -0.265850      0.191333
  H      -0.451970      0.917552     -1.134840
  H      -0.706127     -0.816786     -1.287078
  H       0.664263     -1.203939      0.747881
  H       0.918447      0.545055      0.903612
  H      -1.813907     -0.770819      0.829358
  H      -1.575466      0.820441      0.977334
  H       2.629178     -0.502576     -0.263277
  O      -5.828526     -0.160941     -1.240030
  C      -5.030184     -0.158422     -2.074915
  O      -4.233211     -0.156205     -2.911116
14
Coordinates from ORCA-job ./backwardopt_retry E -399.101136530811
  O       1.813647     -0.341306     -0.750345
  N      -1.723066      0.093088      0.294861
  C      -0.546269     -0.004896     -0.568846
  C       0.739767     -0.267929      0.190388
  H      -0.448907      0.925288     -1.131306
  H      -0.710176     -0.807497     -1.289943
  H       0.658625     -1.207882      0.743265
  H       0.919506      0.539493      0.905884
  H      -1.818950     -0.765469      0.825451
  H      -1.572465      0.823811      0.981076
  H       2.626472     -0.509380     -0.264978
  O      -5.823103     -0.167142     -1.238223
  C      -5.024804     -0.164572     -2.073145
  O      -4.227890     -0.162264     -2.909362
14
Coordinates from ORCA-job ./backwardopt_retry E -399.101136267634
  O       1.811004     -0.343699     -0.751137
  N      -1.724389      0.099815      0.294140
  C      -0.547763      0.000802     -0.569723
  C       0.736842     -0.269966      0.189247
  H      -0.446673      0.932783     -1.128543
  H      -0.714442     -0.798389     -1.294000
  H       0.651913     -1.211706      0.738522
  H       0.919125      0.534110      0.907866
  H      -1.823740     -0.760511      0.821244
  H      -1.571001      0.827111      0.983338
  H       2.623058     -0.515806     -0.265893
  O      -5.814598     -0.172869     -1.234343
  C      -5.016715     -0.170317     -2.069658
  O      -4.220234     -0.168015     -2.906285
14
Coordinates from ORCA-job ./backwardopt_retry E -399.101134937207
  O       1.808945     -0.345298     -0.751847
  N      -1.725366      0.105094      0.293708
  C      -0.548893      0.005241     -0.570254
  C       0.734634     -0.271646      0.188370
  H      -0.444973      0.938701     -1.126071
  H      -0.717766     -0.791136     -1.297144
  H       0.646891     -1.214962      0.734504
  H       0.918877      0.529571      0.909692
  H      -1.827046     -0.756552      0.818214
  H      -1.570016      0.829949      0.985174
  H       2.620405     -0.520756     -0.266812
  O      -5.808327     -0.176736     -1.231633
  C      -5.010640     -0.174863     -2.067141
  O      -4.214337     -0.173264     -2.903982
14
Coordinates from ORCA-job ./backwardopt_retry E -399.101129124197
  O       1.810042     -0.345578     -0.750440
  N      -1.724809      0.106217      0.292077
  C      -0.547681      0.006507     -0.571000
  C       0.734809     -0.272131      0.188744
  H      -0.442594      0.940528     -1.125640
  H      -0.716462     -0.788869     -1.299023
  H       0.645804     -1.215974      0.733764
  H       0.918918      0.528188      0.911092
  H      -1.827142     -0.755684      0.816053
  H      -1.569904      0.830696      0.984043
  H       2.620865     -0.522177     -0.264757
  O      -5.810447     -0.177843     -1.230811
  C      -5.012693     -0.176038     -2.066263
  O      -4.216317     -0.174500     -2.903062
14
Coordinates from ORCA-job ./backwardopt_retry E -399.101137756618
  O       1.811345     -0.346394     -0.749044
  N      -1.723932      0.109403      0.290497
  C      -0.545928      0.009393     -0.571357
  C       0.735247     -0.273210      0.189167
  H      -0.438551      0.944421     -1.123845
  H      -0.715246     -0.784112     -1.301299
  H       0.644031     -1.218139      0.731937
  H       0.919949      0.525140      0.913547
  H      -1.828074     -0.753327      0.812759
  H      -1.568695      0.832419      0.984012
  H       2.621369     -0.525336     -0.262895
  O      -5.813895     -0.180320     -1.230545
  C      -5.015919     -0.178879     -2.065788
  O      -4.219311     -0.177717     -2.902368
14
Coordinates from ORCA-job ./backwardopt_retry E -399.101137233238
  O       1.812216     -0.345627     -0.748485
  N      -1.723720      0.106746      0.290148
  C      -0.545541      0.007231     -0.571491
  C       0.735968     -0.272429      0.189554
  H      -0.439523      0.941612     -1.125328
  H      -0.713636     -0.787565     -1.300299
  H       0.645996     -1.216633      0.733790
  H       0.919554      0.527291      0.912699
  H      -1.826630     -0.755357      0.813664
  H      -1.569724      0.831007      0.982643
  H       2.622442     -0.522790     -0.262023
  O      -5.815651     -0.178249     -1.230824
  C      -5.017877     -0.176616     -2.066252
  O      -4.221487     -0.175277     -2.903020
14
Coordinates from ORCA-job ./backwardopt_retry E -399.101136417556
  O       1.813148     -0.345249     -0.747837
  N      -1.723403      0.105438      0.289601
  C      -0.544850      0.006247     -0.571561
  C       0.736680     -0.272038      0.189951
  H      -0.439343      0.940364     -1.125945
  H      -0.712145     -0.789133     -1.299910
  H       0.647192     -1.215899      0.734860
  H       0.919631      0.528321      0.912547
  H      -1.825902     -0.756441      0.813566
  H      -1.570203      0.830210      0.981729
  H       2.623394     -0.521576     -0.261106
  O      -5.817827     -0.177082     -1.231082
  C      -5.020145     -0.175535     -2.066595
  O      -4.223840     -0.174283     -2.903441
14
Coordinates from ORCA-job ./backwardopt_retry E -399.101135003162
  O       1.813486     -0.345232     -0.747498
  N      -1.723316      0.105322      0.289178
  C      -0.544549      0.006204     -0.571698
  C       0.736837     -0.272014      0.190081
  H      -0.438980      0.940331     -1.126052
  H      -0.711622     -0.789185     -1.300085
  H       0.647269     -1.215856      0.735009
  H       0.919627      0.528377      0.912681
  H      -1.825874     -0.756564      0.813117
  H      -1.570349      0.830107      0.981349
  H       2.623648     -0.521498     -0.260605
  O      -5.818468     -0.177008     -1.230929
  C      -5.020803     -0.175451     -2.066457
  O      -4.224517     -0.174191     -2.903315
14
Coordinates from ORCA-job ./backwardopt_retry E -399.101133498374
  O       1.814112     -0.345099     -0.746890
  N      -1.723167      0.104884      0.288450
  C      -0.544031      0.005956     -0.571944
  C       0.737141     -0.271909      0.190324
  H      -0.438468      0.940055     -1.126345
  H      -0.710639     -0.789542     -1.300316
  H       0.647551     -1.215676      0.735378
  H       0.919559      0.528633      0.912848
  H      -1.825707     -0.756955      0.812472
  H      -1.570696      0.829811      0.980578
  H       2.624144     -0.521145     -0.259704
  O      -5.819618     -0.176616     -1.230665
  C      -5.022010     -0.175124     -2.066249
  O      -4.225782     -0.173929     -2.903161
14
Coordinates from ORCA-job ./backwardopt_retry E -399.101136530524
  O       1.813836     -0.345149     -0.747156
  N      -1.723241      0.105069      0.288761
  C      -0.544262      0.006061     -0.571839
  C       0.737004     -0.271955      0.190217
  H      -0.438697      0.940174     -1.126217
  H      -0.711068     -0.789389     -1.300220
  H       0.647427     -1.215758      0.735211
  H       0.919579      0.528519      0.912778
  H      -1.825785     -0.756790      0.812750
  H      -1.570560      0.829938      0.980902
  H       2.623924     -0.521291     -0.260097
  O      -5.819093     -0.176763     -1.230765
  C      -5.021464     -0.175264     -2.066328
  O      -4.225213     -0.174060     -2.903221
14
Coordinates from ORCA-job ./backwardopt_retry E -399.101135991733
  O       1.808971     -0.346241     -0.751817
  N      -1.724497      0.108608      0.294164
  C      -0.548251      0.008135     -0.569999
  C       0.734588     -0.272805      0.188331
  H      -0.442498      0.942546     -1.123855
  H      -0.718617     -0.786353     -1.298626
  H       0.645047     -1.217228      0.732262
  H       0.920087      0.526418      0.911551
  H      -1.827371     -0.753728      0.817297
  H      -1.567967      0.832192      0.986815
  H       2.620026     -0.524122     -0.266992
  O      -5.810093     -0.179698     -1.232626
  C      -5.011920     -0.177930     -2.067670
  O      -4.215116     -0.176452     -2.904058
14
Coordinates from ORCA-job ./backwardopt_retry E -399.101135675203
  O       1.813574     -0.345211     -0.747399
  N      -1.723319      0.105254      0.289028
  C      -0.544478      0.006173     -0.571751
  C       0.736867     -0.272000      0.190115
  H      -0.438900      0.940302     -1.126098
  H      -0.711465     -0.789226     -1.300147
  H       0.647287     -1.215834      0.735055
  H       0.919596      0.528410      0.912710
  H      -1.825887     -0.756631      0.812968
  H      -1.570442      0.830053      0.981200
  H       2.623712     -0.521441     -0.260454
  O      -5.818585     -0.176918     -1.230838
  C      -5.020926     -0.175404     -2.066374
  O      -4.224647     -0.174185     -2.903239
14
Coordinates from ORCA-job ./backwardopt_retry E -399.101136747909
  O       1.813697     -0.345183     -0.747285
  N      -1.723281      0.105167      0.288906
  C      -0.544376      0.006117     -0.571792
  C       0.736933     -0.271977      0.190163
  H      -0.438806      0.940238     -1.126156
  H      -0.711279     -0.789307     -1.300178
  H       0.647356     -1.215794      0.735133
  H       0.919590      0.528466      0.912738
  H      -1.825837     -0.756707      0.812866
  H      -1.570489      0.829996      0.981066
  H       2.623813     -0.521368     -0.260287
  O      -5.818835     -0.176848     -1.230813
  C      -5.021185     -0.175336     -2.066356
  O      -4.224913     -0.174120     -2.903228
14
Coordinates from ORCA-job ./backwardopt_retry E -399.101135564393
  O       1.813988     -0.345106     -0.747011
  N      -1.723207      0.104915      0.288592
  C      -0.544144      0.005957     -0.571900
  C       0.737081     -0.271915      0.190276
  H      -0.438611      0.940048     -1.126318
  H      -0.710822     -0.789546     -1.300251
  H       0.647527     -1.215684      0.735333
  H       0.919550      0.528624      0.912792
  H      -1.825715     -0.756917      0.812633
  H      -1.570660      0.829848      0.980698
  H       2.624052     -0.521160     -0.259880
  O      -5.819379     -0.176650     -1.230715
  C      -5.021758     -0.175142     -2.066286
  O      -4.225516     -0.173929     -2.903185
14
Coordinates from ORCA-job ./backwardopt_retry E -399.101135470486
  O       1.813927     -0.345110     -0.747071
  N      -1.723231      0.104921      0.288657
  C      -0.544200      0.005953     -0.571877
  C       0.737053     -0.271916      0.190254
  H      -0.438684      0.940039     -1.126308
  H      -0.710907     -0.789557     -1.300215
  H       0.647518     -1.215684      0.735317
  H       0.919547      0.528625      0.912760
  H      -1.825721     -0.756904      0.812711
  H      -1.570658      0.829862      0.980747
  H       2.624008     -0.521160     -0.259967
  O      -5.819248     -0.176661     -1.230728
  C      -5.021628     -0.175144     -2.066301
  O      -4.225387     -0.173921     -2.903201
14
Coordinates from ORCA-job ./backwardopt_retry E -399.101136289855
  O       1.813611     -0.345200     -0.747381
  N      -1.723295      0.105201      0.289030
  C      -0.544448      0.006125     -0.571744
  C       0.736903     -0.271982      0.190132
  H      -0.438899      0.940239     -1.126123
  H      -0.711412     -0.789303     -1.300113
  H       0.647350     -1.215797      0.735109
  H       0.919611      0.528461      0.912695
  H      -1.825838     -0.756673      0.812996
  H      -1.570436      0.830025      0.981183
  H       2.623755     -0.521389     -0.260429
  O      -5.818704     -0.176895     -1.230882
  C      -5.021045     -0.175356     -2.066416
  O      -4.224764     -0.174113     -2.903280
14
Coordinates from ORCA-job ./backwardopt_retry E -399.101135753888
  O       1.813557     -0.345225     -0.747423
  N      -1.723311      0.105289      0.289067
  C      -0.544487      0.006196     -0.571735
  C       0.736865     -0.272008      0.190108
  H      -0.438901      0.940330     -1.126072
  H      -0.711502     -0.789191     -1.300137
  H       0.647278     -1.215847      0.735038
  H       0.919618      0.528390      0.912710
  H      -1.825889     -0.756604      0.812993
  H      -1.570403      0.830071      0.981251
  H       2.623700     -0.521471     -0.260492
  O      -5.818594     -0.176950     -1.230881
  C      -5.020920     -0.175431     -2.066401
  O      -4.224624     -0.174207     -2.903251
