14
Coordinates from ORCA-job ./backwardopt_retry E -399.101135753888
  O           1.81355664398822     -0.34522509817134     -0.74742312552946
  N          -1.72331133014913      0.10528923209021      0.28906716847541
  C          -0.54448666890810      0.00619580483230     -0.57173451120842
  C           0.73686535453711     -0.27200753021151      0.19010849342747
  H          -0.43890140357730      0.94033021770882     -1.12607245928476
  H          -0.71150156030900     -0.78919112643693     -1.30013728480017
  H           0.64727839839113     -1.21584683161337      0.73503839636157
  H           0.91961839958214      0.52839025937485      0.91271023509639
  H          -1.82588871723264     -0.75660362560930      0.81299277289089
  H          -1.57040324933986      0.83007108614729      0.98125120340684
  H           2.62369975350264     -0.52147054831556     -0.26049193819013
  O          -5.81859431724089     -0.17694996658030     -1.23088052023538
  C          -5.02091991486838     -0.17543129406815     -2.06640071420630
  O          -4.22462353227592     -0.17420740254701     -2.90325064470392
