14
Displaced along mode 6
O      1.8581202665    -0.2959254383    -0.7159236965
N     -1.7154233378    -0.0288252687     0.2582680511
C     -0.5197713407    -0.0984067074    -0.5821031121
C      0.7685904873    -0.2329504979     0.2085784510
H     -0.4755689683     0.8024791143    -1.1996415149
H     -0.6183024413    -0.9528965060    -1.2567448759
H      0.7367535178    -1.1428373846     0.8170435671
H      0.8904734784     0.6263684920     0.8763481557
H     -1.7530474133    -0.8477325427     0.8575327834
H     -1.6421662577     0.7680521444     0.8832367225
H      2.6700416863    -0.4149131630    -0.2135831842
O     -5.9185224392    -0.0887576714    -1.2452626239
C     -5.1119476657    -0.0662968718    -2.0722538211
O     -4.3068417162    -0.0440145223    -2.9007178307
