14
Coordinates from ORCA-job ./orca E -398.975881160266
  O           1.54392937280417     -0.15159343504927     -0.60856291264489
  N          -2.12410639108059     -0.19350139702912     -0.23004199561405
  C          -0.80754097214260     -0.07563325404719     -0.90681434573096
  C           0.30829237083951     -0.22718031368705      0.10926116302761
  H          -0.76847810668569      0.89881704696526     -1.38867576000395
  H          -0.75048540314908     -0.85423123948490     -1.66247206367797
  H           0.21885550205532     -1.19011337049860      0.62206972382105
  H           0.24981822227807      0.57061542586285      0.85475690768357
  H          -2.19171628280714     -1.10544808448518      0.22744163400638
  H          -2.20492195661791      0.50500508766772      0.50922643864562
  H           2.26252789693406     -0.19447489693954      0.03501037461376
  O          -4.35508481882662      0.40742319838120     -0.51582721345613
  C          -3.39375311130235     -0.04873239644218     -1.13465960659695
  O          -3.23918036727026     -0.42265231103798     -2.29365377584368
