14
700
O      1.8369178006    0.1665142581   -0.0399282552
N     -1.8639967105   -0.1615594701   -0.0186324802
C     -0.5550057004    0.4893869292   -0.0012746133
C      0.5920687696   -0.5227350375    0.0074749477
H     -0.4783229008    1.1316560470    0.8833793532
H     -0.4596598336    1.1512006374   -0.8698636075
H      0.5346600629   -1.1844577084   -0.8632047057
H      0.5647003792   -1.1315754994    0.9173683540
H     -1.9794467590   -0.6645356730   -0.8978474770
H     -2.5876880253    0.5570984384   -0.0112542761
H      2.5331729173   -0.5096929217    0.0235827601
O     -4.2297492519   -2.0877148377    1.4691421834
C     -4.6731241117   -1.5110883234    0.5184952475
O     -5.1164989715   -0.9344618091   -0.4321516883
