14
Coordinates from ORCA-job ./scants E -399.087454072714
  O           1.11312232242301     -0.44836081137911      0.60213517593156
  N          -2.28229812155218      0.23224390929889     -0.57859196119481
  C          -0.97557879006068      0.48926096727442      0.02320008000257
  C          -0.13079839073755     -0.76538101189200     -0.00253714402967
  H          -1.13643602281297      0.80135647259087      1.05382897952857
  H          -0.44708718531490      1.29101321797778     -0.49626894296751
  H           0.01465462174494     -1.09260925191041     -1.03620201685109
  H          -0.63353154566872     -1.56724250491927      0.54261645403766
  H          -2.19220371523825     -0.17483802188509     -1.50172690279886
  H          -2.79737705510351      1.09684847507162     -0.68846950070318
  H           1.65758338294512     -1.23935496484599      0.60436735579612
  O          -3.21470493095280     -0.78759067550643      1.62835183602016
  C          -3.58286547974242     -0.94487836052827      0.52159377182239
  O          -4.28716438052874     -1.38600955354692     -0.31259156199393
