14
Coordinates from ORCA-job ./tsopt_freq E -399.087459550739
  O       1.113122     -0.448361      0.602135
  N      -2.282298      0.232244     -0.578592
  C      -0.975579      0.489261      0.023200
  C      -0.130798     -0.765381     -0.002537
  H      -1.136436      0.801356      1.053829
  H      -0.447087      1.291013     -0.496269
  H       0.014655     -1.092609     -1.036202
  H      -0.633532     -1.567243      0.542616
  H      -2.192204     -0.174838     -1.501727
  H      -2.797377      1.096848     -0.688470
  H       1.657583     -1.239355      0.604367
  O      -3.214705     -0.787591      1.628352
  C      -3.582865     -0.944878      0.521594
  O      -4.287164     -1.386010     -0.312592
14
Coordinates from ORCA-job ./tsopt_freq E -399.087305516761
  O       1.152487     -0.423101      0.509930
  N      -2.274152      0.235199     -0.579238
  C      -0.978279      0.484627      0.048605
  C      -0.136744     -0.772332      0.030978
  H      -1.157629      0.790840      1.077948
  H      -0.437798      1.287984     -0.455835
  H      -0.076842     -1.163471     -0.988885
  H      -0.591504     -1.537033      0.664494
  H      -2.167885     -0.166513     -1.503003
  H      -2.784606      1.101974     -0.693491
  H       1.696387     -1.214459      0.516219
  O      -3.251009     -0.795418      1.603593
  C      -3.598711     -0.944924      0.489180
  O      -4.288401     -1.378916     -0.360790
14
Coordinates from ORCA-job ./tsopt_freq E -399.086931245021
  O       1.184126     -0.409460      0.412323
  N      -2.267749      0.242912     -0.578688
  C      -0.981470      0.487136      0.069205
  C      -0.141736     -0.774797      0.062089
  H      -1.182724      0.801139      1.092196
  H      -0.422417      1.282474     -0.427154
  H      -0.168956     -1.226586     -0.934629
  H      -0.544396     -1.502427      0.768600
  H      -2.145633     -0.149507     -1.504127
  H      -2.779571      1.109488     -0.689313
  H       1.715129     -1.208528      0.456045
  O      -3.272402     -0.814632      1.579302
  C      -3.604975     -0.953140      0.458869
  O      -4.281912     -1.379613     -0.405014
14
Coordinates from ORCA-job ./tsopt_freq E -399.086627475208
  O       1.195773     -0.408734      0.352514
  N      -2.265666      0.252663     -0.578128
  C      -0.981436      0.492480      0.074916
  C      -0.146507     -0.775477      0.076701
  H      -1.192485      0.822096      1.090678
  H      -0.407212      1.275521     -0.424219
  H      -0.224975     -1.260482     -0.902177
  H      -0.519923     -1.479414      0.821727
  H      -2.139103     -0.126868     -1.508314
  H      -2.782668      1.117752     -0.674831
  H       1.712295     -1.212361      0.451869
  O      -3.268232     -0.842429      1.564626
  C      -3.600206     -0.966695      0.442436
  O      -4.274339     -1.383594     -0.428093
14
Coordinates from ORCA-job ./tsopt_freq E -399.086417271780
  O       1.198688     -0.412573      0.319286
  N      -2.264716      0.262159     -0.578369
  C      -0.980125      0.497528      0.074722
  C      -0.152152     -0.776311      0.087547
  H      -1.195101      0.842577      1.084330
  H      -0.394874      1.268879     -0.430480
  H      -0.261068     -1.283352     -0.877493
  H      -0.509702     -1.461493      0.857102
  H      -2.138912     -0.103569     -1.514096
  H      -2.786967      1.125570     -0.659347
  H       1.707038     -1.216413      0.453343
  O      -3.256163     -0.870147      1.554023
  C      -3.592849     -0.980651      0.431765
  O      -4.267782     -1.387747     -0.442626
14
Coordinates from ORCA-job ./tsopt_freq E -399.086258806027
  O       1.199041     -0.417307      0.296671
  N      -2.263780      0.270605     -0.579420
  C      -0.978622      0.502000      0.072571
  C      -0.157565     -0.776850      0.095486
  H      -1.195211      0.856353      1.078558
  H      -0.385817      1.264986     -0.437005
  H      -0.287567     -1.300224     -0.858290
  H      -0.504631     -1.446504      0.883029
  H      -2.140038     -0.083243     -1.520002
  H      -2.790362      1.132318     -0.647275
  H       1.701626     -1.220013      0.456719
  O      -3.243657     -0.892477      1.546273
  C      -3.586045     -0.992866      0.424713
  O      -4.262057     -1.392320     -0.452322
14
Coordinates from ORCA-job ./tsopt_freq E -399.086106723121
  O       1.198761     -0.423145      0.274344
  N      -2.262628      0.279583     -0.581003
  C      -0.977034      0.506415      0.070148
  C      -0.163337     -0.777415      0.103170
  H      -1.194149      0.868802      1.073177
  H      -0.377739      1.261771     -0.443417
  H      -0.313620     -1.316998     -0.838595
  H      -0.500044     -1.430633      0.908534
  H      -2.141323     -0.061944     -1.526471
  H      -2.793326      1.139561     -0.635925
  H       1.696099     -1.223471      0.460455
  O      -3.230755     -0.914223      1.538513
  C      -3.579514     -1.005819      0.418216
  O      -4.256077     -1.398025     -0.461440
14
Coordinates from ORCA-job ./tsopt_freq E -399.085951403458
  O       1.197974     -0.429942      0.252694
  N      -2.261409      0.288849     -0.582995
  C      -0.975422      0.510640      0.067542
  C      -0.169205     -0.778016      0.110476
  H      -1.192335      0.880560      1.067881
  H      -0.370261      1.259006     -0.449521
  H      -0.338612     -1.333090     -0.818974
  H      -0.495890     -1.414632      0.932826
  H      -2.142758     -0.040158     -1.533208
  H      -2.795861      1.147145     -0.625174
  H       1.690512     -1.226763      0.464668
  O      -3.217863     -0.935050      1.530917
  C      -3.573445     -1.019289      0.412350
  O      -4.250110     -1.404804     -0.469776
14
Coordinates from ORCA-job ./tsopt_freq E -399.085809930017
  O       1.196803     -0.437548      0.232312
  N      -2.260036      0.298359     -0.585446
  C      -0.973721      0.514750      0.064730
  C      -0.174966     -0.778561      0.117148
  H      -1.190119      0.891615      1.062600
  H      -0.362999      1.256726     -0.455165
  H      -0.362167     -1.347868     -0.800179
  H      -0.492290     -1.399077      0.955064
  H      -2.144094     -0.018281     -1.540134
  H      -2.797884      1.155016     -0.615152
  H       1.684874     -1.229967      0.469447
  O      -3.205623     -0.954440      1.523968
  C      -3.568192     -1.033262      0.407518
  O      -4.244272     -1.413005     -0.477006
14
Coordinates from ORCA-job ./tsopt_freq E -399.085676782266
  O       1.195436     -0.445805      0.213226
  N      -2.258640      0.307896     -0.588152
  C      -0.971803      0.518788      0.061660
  C      -0.180451     -0.778994      0.122815
  H      -1.187017      0.901988      1.057368
  H      -0.355832      1.254856     -0.460626
  H      -0.384035     -1.360937     -0.782970
  H      -0.489210     -1.384441      0.974593
  H      -2.145662      0.003226     -1.546696
  H      -2.799388      1.163077     -0.605735
  H       1.679117     -1.232820      0.475818
  O      -3.194608     -0.972332      1.517923
  C      -3.563817     -1.047443      0.403620
  O      -4.238775     -1.422602     -0.483139
14
Coordinates from ORCA-job ./tsopt_freq E -399.085553400562
  O       1.193919     -0.454574      0.195474
  N      -2.257294      0.317413     -0.590867
  C      -0.969668      0.522709      0.058333
  C      -0.185637     -0.779391      0.127361
  H      -1.182933      0.911682      1.052206
  H      -0.348796      1.253257     -0.466100
  H      -0.404176     -1.372358     -0.767663
  H      -0.486728     -1.370894      0.991363
  H      -2.147528      0.024217     -1.552911
  H      -2.800410      1.171087     -0.596579
  H       1.673244     -1.235083      0.483978
  O      -3.185064     -0.988607      1.512860
  C      -3.560188     -1.061560      0.400571
  O      -4.233425     -1.433439     -0.488320
14
Coordinates from ORCA-job ./tsopt_freq E -399.085441586920
  O       1.192297     -0.463718      0.179182
  N      -2.256029      0.326852     -0.593451
  C      -0.967337      0.526452      0.054753
  C      -0.190517     -0.779825      0.130829
  H      -1.177929      0.920702      1.047092
  H      -0.341920      1.251781     -0.471726
  H      -0.422559     -1.382212     -0.754381
  H      -0.484934     -1.358601      1.005465
  H      -2.149704      0.044649     -1.558715
  H      -2.801071      1.179066     -0.587516
  H       1.667331     -1.236661      0.493730
  O      -3.177152     -1.003112      1.508806
  C      -3.557216     -1.075474      0.398332
  O      -4.227945     -1.445439     -0.492695
14
Coordinates from ORCA-job ./tsopt_freq E -399.085346847208
  O       1.190662     -0.473071      0.164607
  N      -2.254880      0.336116     -0.595787
  C      -0.964810      0.529986      0.050913
  C      -0.195033     -0.780316      0.133135
  H      -1.172006      0.929029      1.042029
  H      -0.335270      1.250374     -0.477634
  H      -0.438932     -1.390459     -0.743455
  H      -0.483974     -1.347827      1.016729
  H      -2.152217      0.064392     -1.564045
  H      -2.801415      1.186987     -0.578494
  H       1.661393     -1.237497      0.505103
  O      -3.171072     -1.015685      1.505873
  C      -3.554939     -1.089083      0.397006
  O      -4.222192     -1.458487     -0.496273
14
Coordinates from ORCA-job ./tsopt_freq E -399.085279735194
  O       1.189172     -0.482373      0.152237
  N      -2.253884      0.345048     -0.597773
  C      -0.962056      0.533292      0.046768
  C      -0.199056     -0.780833      0.134035
  H      -1.165072      0.936572      1.037015
  H      -0.328952      1.249068     -0.483977
  H      -0.452691     -1.396933     -0.735515
  H      -0.484096     -1.338994      1.024645
  H      -2.155091      0.083183     -1.568824
  H      -2.801422      1.194793     -0.569564
  H       1.655403     -1.237521      0.518400
  O      -3.167071     -1.026203      1.504278
  C      -3.553576     -1.102296      0.396853
  O      -4.216293     -1.472344     -0.498871
14
Coordinates from ORCA-job ./tsopt_freq E -399.085252771073
  O       1.187973     -0.491257      0.142773
  N      -2.253024      0.353469     -0.599343
  C      -0.959024      0.536363      0.042264
  C      -0.202468     -0.781331      0.133339
  H      -1.157049      0.943274      1.032026
  H      -0.323025      1.247915     -0.490893
  H      -0.463214     -1.401298     -0.731263
  H      -0.485721     -1.332466      1.028739
  H      -2.158273      0.100695     -1.572973
  H      -2.801016      1.202384     -0.560870
  H       1.649321     -1.236808      0.533700
  O      -3.165321     -1.034638      1.504266
  C      -3.553365     -1.115077      0.398176
  O      -4.210479     -1.486768     -0.500236
14
Coordinates from ORCA-job ./tsopt_freq E -399.085333257847
  O       1.187883     -0.498045      0.139188
  N      -2.252432      0.360208     -0.599997
  C      -0.955263      0.539203      0.037496
  C      -0.204242     -0.781401      0.130121
  H      -1.146121      0.948907      1.027497
  H      -0.318121      1.247331     -0.499012
  H      -0.466899     -1.401599     -0.733626
  H      -0.489663     -1.329806      1.026454
  H      -2.161366      0.114649     -1.576062
  H      -2.799899      1.209030     -0.553273
  H       1.643686     -1.235551      0.551098
  O      -3.168795     -1.040751      1.506846
  C      -3.556678     -1.127093      0.402261
  O      -4.206777     -1.500624     -0.499284
14
Coordinates from ORCA-job ./tsopt_freq E -399.085356060570
  O       1.188892     -0.489093      0.149024
  N      -2.253784      0.351968     -0.598700
  C      -0.958167      0.535915      0.041705
  C      -0.201045     -0.781139      0.130460
  H      -1.152032      0.941655      1.032681
  H      -0.324762      1.248673     -0.492844
  H      -0.455638     -1.397352     -0.738512
  H      -0.488455     -1.336452      1.022101
  H      -2.159621      0.097693     -1.572617
  H      -2.800828      1.201711     -0.561437
  H       1.649276     -1.236166      0.538139
  O      -3.169672     -1.032778      1.506502
  C      -3.556011     -1.113803      0.400508
  O      -4.212836     -1.486374     -0.497306
14
Coordinates from ORCA-job ./tsopt_freq E -399.085845360264
  O       1.192686     -0.483738      0.180096
  N      -2.255207      0.349455     -0.595502
  C      -0.952181      0.536783      0.034487
  C      -0.195221     -0.779186      0.114062
  H      -1.128754      0.940178      1.029571
  H      -0.328159      1.252098     -0.507609
  H      -0.420720     -1.376221     -0.775725
  H      -0.506900     -1.354195      0.985301
  H      -2.165143      0.092617     -1.570266
  H      -2.797935      1.202357     -0.559833
  H       1.643808     -1.236470      0.569022
  O      -3.189441     -1.027787      1.521710
  C      -3.570781     -1.117669      0.416983
  O      -4.220737     -1.493765     -0.482593
14
Coordinates from ORCA-job ./tsopt_freq E -399.085923395918
  O       1.193200     -0.470716      0.202912
  N      -2.257454      0.337186     -0.592863
  C      -0.955971      0.531727      0.038714
  C      -0.190136     -0.778818      0.111238
  H      -1.134933      0.929136      1.035722
  H      -0.339272      1.254206     -0.501825
  H      -0.396832     -1.365177     -0.790108
  H      -0.510294     -1.368040      0.970104
  H      -2.164012      0.067170     -1.564481
  H      -2.799066      1.191560     -0.571355
  H       1.650585     -1.237227      0.556302
  O      -3.190527     -1.015307      1.524186
  C      -3.569799     -1.098073      0.417413
  O      -4.230176     -1.473170     -0.476252
14
Coordinates from ORCA-job ./tsopt_freq E -399.086078042634
  O       1.193326     -0.462385      0.226165
  N      -2.259256      0.328832     -0.590198
  C      -0.957106      0.528689      0.038880
  C      -0.185874     -0.778142      0.104999
  H      -1.134063      0.921946      1.037930
  H      -0.347107      1.256219     -0.502358
  H      -0.372740     -1.352175     -0.808508
  H      -0.518074     -1.381325      0.949668
  H      -2.165150      0.050026     -1.559242
  H      -2.799150      1.184556     -0.577707
  H       1.652648     -1.237733      0.557229
  O      -3.193636     -1.005804      1.529602
  C      -3.571412     -1.086563      0.421800
  O      -4.237093     -1.461682     -0.468556
14
Coordinates from ORCA-job ./tsopt_freq E -399.086227917014
  O       1.192810     -0.454999      0.249930
  N      -2.261234      0.320597     -0.587466
  C      -0.958241      0.525645      0.038651
  C      -0.181691     -0.777482      0.098437
  H      -1.133187      0.914731      1.039736
  H      -0.354794      1.258115     -0.503172
  H      -0.348207     -1.338525     -0.826991
  H      -0.526215     -1.394754      0.928025
  H      -2.166925      0.033059     -1.553979
  H      -2.799468      1.177535     -0.583588
  H       1.654256     -1.238013      0.559451
  O      -3.195719     -0.995981      1.534999
  C      -3.572555     -1.075195      0.426347
  O      -4.243516     -1.450275     -0.460675
14
Coordinates from ORCA-job ./tsopt_freq E -399.086448890940
  O       1.190836     -0.445498      0.286750
  N      -2.264323      0.308444     -0.583334
  C      -0.959790      0.521119      0.037660
  C      -0.175377     -0.776438      0.087854
  H      -1.131374      0.903830      1.041865
  H      -0.366222      1.260909     -0.504976
  H      -0.310092     -1.316511     -0.855050
  H      -0.538918     -1.415235      0.892928
  H      -2.170446      0.007866     -1.545959
  H      -2.800067      1.167013     -0.591955
  H       1.655932     -1.238123      0.564964
  O      -3.198131     -0.980706      1.543445
  C      -3.574028     -1.058513      0.433754
  O      -4.252685     -1.433700     -0.448240
14
Coordinates from ORCA-job ./tsopt_freq E -399.086779193471
  O       1.184906     -0.435021      0.345312
  N      -2.268984      0.290813     -0.577110
  C      -0.961454      0.514720      0.034514
  C      -0.165582     -0.774461      0.069947
  H      -1.126647      0.887725      1.043577
  H      -0.383249      1.265345     -0.509568
  H      -0.249013     -1.279179     -0.898106
  H      -0.559145     -1.446514      0.833167
  H      -2.177242     -0.029123     -1.533730
  H      -2.800941      1.151510     -0.603755
  H       1.656389     -1.238412      0.578515
  O      -3.201502     -0.956979      1.557724
  C      -3.576453     -1.034912      0.446869
  O      -4.265767     -1.411052     -0.427650
14
Coordinates from ORCA-job ./tsopt_freq E -399.087194061043
  O       1.168472     -0.428763      0.438431
  N      -2.275601      0.265883     -0.567897
  C      -0.962454      0.506463      0.026660
  C      -0.150022     -0.770069      0.039451
  H      -1.115205      0.864980      1.043154
  H      -0.408501      1.272927     -0.520149
  H      -0.149607     -1.213373     -0.961566
  H      -0.589835     -1.492563      0.728477
  H      -2.189399     -0.082727     -1.515040
  H      -2.802044      1.129002     -0.620621
  H       1.652115     -1.240884      0.608014
  O      -3.207653     -0.919725      1.582838
  C      -3.581265     -1.003274      0.470905
  O      -4.283688     -1.383418     -0.392953
14
Coordinates from ORCA-job ./tsopt_freq E -399.087343492051
  O       1.140964     -0.436546      0.538803
  N      -2.281261      0.243180     -0.559291
  C      -0.961371      0.500816      0.014685
  C      -0.132226     -0.762906      0.003783
  H      -1.097613      0.844632      1.038829
  H      -0.433968      1.283047     -0.535538
  H      -0.036834     -1.132314     -1.022097
  H      -0.618788     -1.536279      0.600964
  H      -2.202887     -0.134530     -1.496066
  H      -2.802664      1.107620     -0.638105
  H       1.639922     -1.249612      0.648303
  O      -3.218564     -0.877932      1.614580
  C      -3.589937     -0.977352      0.502711
  O      -4.299457     -1.367367     -0.351857
14
Coordinates from ORCA-job ./tsopt_freq E -399.087376827456
  O       1.141206     -0.438455      0.541537
  N      -2.280922      0.245730     -0.560777
  C      -0.960484      0.502021      0.012925
  C      -0.130914     -0.762544      0.002212
  H      -1.095920      0.845292      1.037302
  H      -0.432689      1.284278     -0.536859
  H      -0.032153     -1.130367     -1.023765
  H      -0.618903     -1.536851      0.596995
  H      -2.203909     -0.131319     -1.497931
  H      -2.802279      1.110268     -0.638313
  H       1.638881     -1.252209      0.651552
  O      -3.222412     -0.876455      1.617376
  C      -3.594191     -0.981183      0.506644
  O      -4.299996     -1.373748     -0.349194
14
Coordinates from ORCA-job ./tsopt_freq E -399.087360980074
  O       1.138594     -0.434845      0.549268
  N      -2.285268      0.233527     -0.555734
  C      -0.965728      0.495487      0.018677
  C      -0.129130     -0.763978      0.003700
  H      -1.104328      0.835653      1.043600
  H      -0.444545      1.282504     -0.530038
  H      -0.025290     -1.125227     -1.024177
  H      -0.615466     -1.544533      0.591805
  H      -2.205674     -0.153003     -1.489108
  H      -2.805988      1.097759     -0.644086
  H       1.648098     -1.243800      0.639344
  O      -3.213172     -0.869785      1.611461
  C      -3.582437     -0.959109      0.496362
  O      -4.304351     -1.346192     -0.351368
14
Coordinates from ORCA-job ./tsopt_freq E -399.087377492015
  O       1.136790     -0.437253      0.554774
  N      -2.283752      0.236975     -0.558479
  C      -0.964612      0.496861      0.016836
  C      -0.128376     -0.763550      0.001397
  H      -1.103142      0.834877      1.042479
  H      -0.441936      1.284119     -0.530172
  H      -0.018753     -1.121342     -1.026930
  H      -0.617413     -1.545727      0.585132
  H      -2.205919     -0.149912     -1.491730
  H      -2.804309      1.101220     -0.645991
  H       1.646508     -1.246449      0.640813
  O      -3.218083     -0.865068      1.615855
  C      -3.587775     -0.963944      0.502457
  O      -4.303914     -1.356350     -0.346736
14
Coordinates from ORCA-job ./tsopt_freq E -399.087381815952
  O       1.134185     -0.436600      0.562014
  N      -2.285765      0.231162     -0.556251
  C      -0.966942      0.493747      0.019074
  C      -0.126954     -0.764059      0.000699
  H      -1.106445      0.829365      1.045338
  H      -0.448204      1.283827     -0.527264
  H      -0.011331     -1.115909     -1.028989
  H      -0.616644     -1.550797      0.577845
  H      -2.207310     -0.161131     -1.487328
  H      -2.805743      1.095317     -0.649600
  H       1.650248     -1.242958      0.636186
  O      -3.215128     -0.859420      1.614675
  C      -3.582729     -0.953124      0.499103
  O      -4.305923     -1.344963     -0.345796
14
Coordinates from ORCA-job ./tsopt_freq E -399.087392670962
  O       1.130726     -0.440053      0.570752
  N      -2.283683      0.235026     -0.559807
  C      -0.965587      0.495354      0.016833
  C      -0.126462     -0.763254     -0.002431
  H      -1.105318      0.827891      1.044113
  H      -0.444526      1.285935     -0.526792
  H      -0.002560     -1.109520     -1.032928
  H      -0.620866     -1.552544      0.567260
  H      -2.206878     -0.158512     -1.490319
  H      -2.803445      1.099151     -0.652825
  H       1.648297     -1.246128      0.637055
  O      -3.220875     -0.851898      1.620645
  C      -3.589091     -0.958908      0.507464
  O      -4.304416     -1.358084     -0.339315
14
Coordinates from ORCA-job ./tsopt_freq E -399.087398648811
  O       1.126674     -0.441236      0.580681
  N      -2.284685      0.231481     -0.559612
  C      -0.967550      0.492948      0.018605
  C      -0.125472     -0.763655     -0.003746
  H      -1.109087      0.821543      1.046887
  H      -0.448606      1.286483     -0.522488
  H       0.006563     -1.102509     -1.035608
  H      -0.622104     -1.557903      0.557233
  H      -2.207610     -0.167797     -1.487710
  H      -2.803750      1.095500     -0.658097
  H       1.651792     -1.243618      0.630676
  O      -3.220260     -0.842066      1.621629
  C      -3.586167     -0.950795      0.507253
  O      -4.304422     -1.353918     -0.335997
14
Coordinates from ORCA-job ./tsopt_freq E -399.087415276272
  O       1.119084     -0.447059      0.597826
  N      -2.282785      0.233695     -0.564250
  C      -0.967717      0.493040      0.017912
  C      -0.125006     -0.763172     -0.007538
  H      -1.112093      0.814845      1.048024
  H      -0.446487      1.289433     -0.516892
  H       0.021607     -1.090606     -1.040946
  H      -0.628878     -1.563538      0.538392
  H      -2.206257     -0.171354     -1.489693
  H      -2.800940      1.097586     -0.666669
  H       1.653090     -1.244722      0.623547
  O      -3.226516     -0.823978      1.629031
  C      -3.591090     -0.951781      0.517029
  O      -4.300698     -1.367933     -0.326069
14
Coordinates from ORCA-job ./tsopt_freq E -399.087419150223
  O       1.112627     -0.451322      0.610892
  N      -2.282720      0.232252     -0.567054
  C      -0.970356      0.490725      0.020925
  C      -0.125671     -0.764063     -0.007910
  H      -1.119834      0.805956      1.052386
  H      -0.448077      1.290866     -0.507079
  H       0.030138     -1.082848     -1.042562
  H      -0.633332     -1.569722      0.526971
  H      -2.204173     -0.179734     -1.489192
  H      -2.799521      1.096094     -0.675964
  H       1.658952     -1.241044      0.607834
  O      -3.227891     -0.805072      1.631361
  C      -3.589067     -0.945013      0.519549
  O      -4.295760     -1.372618     -0.320450
14
Coordinates from ORCA-job ./tsopt_freq E -399.087436009003
  O       1.108719     -0.454865      0.617614
  N      -2.282105      0.232935     -0.570218
  C      -0.972134      0.489700      0.023340
  C      -0.127291     -0.764911     -0.006951
  H      -1.126200      0.800640      1.055480
  H      -0.447335      1.291907     -0.499008
  H       0.032084     -1.080028     -1.042127
  H      -0.637155     -1.572712      0.522850
  H      -2.200946     -0.182144     -1.490621
  H      -2.797637      1.096982     -0.682429
  H       1.663138     -1.238591      0.594117
  O      -3.229467     -0.791068      1.632713
  C      -3.588419     -0.942951      0.521938
  O      -4.289937     -1.380437     -0.316994
14
Coordinates from ORCA-job ./tsopt_freq E -399.087437617176
  O       1.107557     -0.456150      0.618639
  N      -2.282089      0.233031     -0.571857
  C      -0.973650      0.488802      0.025588
  C      -0.128830     -0.765767     -0.005129
  H      -1.130944      0.797786      1.057840
  H      -0.447293      1.292030     -0.493588
  H       0.029534     -1.080934     -1.040437
  H      -0.638563     -1.573716      0.524713
  H      -2.198398     -0.182645     -1.491734
  H      -2.796608      1.097445     -0.685619
  H       1.666121     -1.236528      0.584425
  O      -3.229043     -0.783747      1.631938
  C      -3.586615     -0.941175      0.521478
  O      -4.285865     -1.383974     -0.316551
14
Coordinates from ORCA-job ./tsopt_freq E -399.087439347008
  O       1.107503     -0.456606      0.617429
  N      -2.282008      0.233586     -0.573231
  C      -0.974629      0.488393      0.027088
  C      -0.130187     -0.766405     -0.003500
  H      -1.134265      0.796372      1.059276
  H      -0.446820      1.292003     -0.490028
  H       0.025787     -1.083016     -1.038734
  H      -0.639181     -1.573614      0.528240
  H      -2.196218     -0.181098     -1.493340
  H      -2.795717      1.098441     -0.687136
  H       1.667694     -1.235578      0.578270
  O      -3.228469     -0.779617      1.631030
  C      -3.585455     -0.940988      0.520999
  O      -4.282719     -1.387413     -0.316658
14
Coordinates from ORCA-job ./tsopt_freq E -399.087445693791
  O       1.108114     -0.456317      0.614858
  N      -2.282145      0.233814     -0.574130
  C      -0.975545      0.487939      0.028437
  C      -0.131331     -0.767000     -0.001988
  H      -1.137051      0.795312      1.060497
  H      -0.446761      1.291779     -0.487301
  H       0.021479     -1.085611     -1.037094
  H      -0.638950     -1.573203      0.532598
  H      -2.194485     -0.179276     -1.494799
  H      -2.795206      1.099111     -0.687748
  H       1.668652     -1.234956      0.574163
  O      -3.227273     -0.777146      1.629690
  C      -3.583867     -0.940546      0.519782
  O      -4.280316     -1.389442     -0.317261
14
Coordinates from ORCA-job ./tsopt_freq E -399.087442031894
  O       1.109047     -0.455778      0.611757
  N      -2.282126      0.234400     -0.574947
  C      -0.976013      0.487834      0.029105
  C      -0.132141     -0.767345     -0.001113
  H      -1.138734      0.794845      1.061065
  H      -0.446344      1.291677     -0.485733
  H       0.017700     -1.087957     -1.036053
  H      -0.638421     -1.572464      0.536337
  H      -2.193219     -0.176645     -1.496419
  H      -2.794833      1.100040     -0.687575
  H       1.668529     -1.235272      0.572918
  O      -3.226585     -0.775917      1.628830
  C      -3.583046     -0.941077      0.519162
  O      -4.278499     -1.391884     -0.317628
