14
Coordinates from ORCA-job ./orca E -398.973014284299
  O           1.85496319710758     -0.35355733144240     -0.68160868728557
  N          -1.72823671721557      0.08027833073894      0.26725013372655
  C          -0.52520433564931     -0.04921805851257     -0.56400061760297
  C           0.75403742873568     -0.23669505301736      0.23583761227837
  H          -0.43317580385003      0.84564669496672     -1.18491554459576
  H          -0.65603448429878     -0.90052626415602     -1.23687915984254
  H           0.67801123125658     -1.14018915105815      0.85026365481311
  H           0.90600286410172      0.62014817146002      0.90068210629019
  H          -1.80761318063848     -0.73263737645098      0.87228489137749
  H          -1.62391813863215      0.87753001308207      0.88865449185939
  H           2.66348292107930     -0.46597290923944     -0.16614902067044
  O          -5.69091528313584     -0.64309955585628     -1.29855016646908
  C          -5.00929458806133     -0.21530751657185     -2.13360956560162
  O          -4.32908716109929      0.21228667855729     -2.96994046917707
