14
Coordinates from ORCA-job ./orca E -398.970108704571
  O           1.73021896496985     -0.31716374581670     -0.61924705340614
  N          -1.94060340697566      0.02774957979537     -0.04243227775013
  C          -0.65338641243951     -0.05423541042858     -0.74112936827886
  C           0.53887307212888     -0.24429101904130      0.18341314881407
  H          -0.51439355287532      0.86090052372315     -1.32268239433776
  H          -0.69401775061491     -0.88566370486314     -1.44974624424436
  H           0.41655995521561     -1.16621321665965      0.76218726717912
  H           0.60555731786924      0.59587222491970      0.88234373524959
  H          -2.06826077564815     -0.80210274764860      0.53047934405160
  H          -1.92471713329968      0.81053691401673      0.60534765739770
  H           2.48682201299424     -0.41158550642875     -0.02726019559586
  O          -4.91817981282205     -0.48280803274038     -0.72327165499733
  C          -4.29088640196576     -0.16972600161211     -1.64798721903080
  O          -3.72056812683656      0.13741681528425     -2.61069508595078
