14
Coordinates from ORCA-job ./orca E -398.969552013255
  O           1.72177326570154     -0.31682830713790     -0.61854558922363
  N          -1.95088042967860      0.02914743698072     -0.05478086310844
  C          -0.66137605146514     -0.05219790539891     -0.74882420406197
  C           0.52738116462059     -0.24510080691948      0.17966065991182
  H          -0.51987150703544      0.86402363680725     -1.32807137879113
  H          -0.69994963530870     -0.88217505619790     -1.45928728369883
  H           0.40223006293635     -1.16839072651243      0.75565135718276
  H           0.59188318582791      0.59323337424982      0.88097832710686
  H          -2.08067411842955     -0.80087698846043      0.51735112190103
  H          -1.93809476803963      0.81190376924427      0.59312001932252
  H           2.47592436497672     -0.41388278925906     -0.02385169149700
  O          -4.88172348622230     -0.48287026287137     -0.70110709318859
  C          -4.24861396292224     -0.17086923644061     -1.62256084510916
  O          -3.68499013526131      0.13357053441603     -2.59041287764616
