14
Coordinates from ORCA-job ./orca E -398.969505366808
  O           1.59387375245186     -0.21222874153700     -0.63582633424871
  N          -2.06764148248554     -0.13028116832904     -0.15853244850290
  C          -0.77221431622803     -0.07287657238084     -0.84624035022005
  C           0.38110285937942     -0.23467675056036      0.12865232173945
  H          -0.70222090756186      0.88357086530183     -1.36266410999085
  H          -0.74834518787706     -0.86994042704740     -1.58790946047073
  H           0.28475988564078     -1.18359468319122      0.66567701301608
  H           0.37679483302384      0.57963634563794      0.85875596376920
  H          -2.16216243154462     -0.99162839031366      0.37570835228075
  H          -2.18421311905123      0.64516343098634      0.48944837754769
  H           2.33493653562446     -0.27645901880410     -0.02030924671735
  O          -4.50822237467726      0.06583858824131     -0.51699242213131
  C          -3.54401021405231     -0.08502428036215     -1.22774040614990
  O          -3.22941988294211     -0.21881252514162     -2.38270759082123
