14
Coordinates from ORCA-job ./orca E -398.971571817854
  O           1.58722421361392     -0.21143128116678     -0.62962955494291
  N          -2.07423326481286     -0.13345033218900     -0.17305527737128
  C          -0.77496420336461     -0.07431288018730     -0.86008453456493
  C           0.36928421275791     -0.23318862675726      0.12536948426689
  H          -0.70636185127351      0.88218824074019     -1.37557494742894
  H          -0.74818337397650     -0.87306133676883     -1.59887912836726
  H           0.26897064436968     -1.18092409188132      0.66367296832568
  H           0.35819506612132      0.58272364617840      0.85348615745830
  H          -2.16369289478030     -0.99677196165012      0.36063318406020
  H          -2.18339376925147      0.63737015353459      0.48299199159634
  H           2.32330262928730     -0.27244786493854     -0.00778255082065
  O          -4.48119657701258      0.07455640429268     -0.49780169938966
  C          -3.50305533415287     -0.08316645978472     -1.19789216285264
  O          -3.21887754782506     -0.21939693692197     -2.36613427086899
