14
Coordinates from ORCA-job ./orca E -398.973008830696
  O           1.84354863477641     -0.35119645164304     -0.66293334323902
  N          -1.76133164048578      0.07086055395619      0.20455496275023
  C          -0.53815478474209     -0.04878801991561     -0.59805616963121
  C           0.72236798959455     -0.23976579394600      0.23051290704174
  H          -0.43377615808142      0.85112579429885     -1.20955547008712
  H          -0.64970963984484     -0.89506303387074     -1.28070895684901
  H           0.63269031114521     -1.14683928483593      0.83787943193603
  H           0.85940823286531      0.61345452078457      0.90305058235867
  H          -1.84763722212919     -0.74098028712231      0.81011814091492
  H          -1.68093807077167      0.87151239697668      0.82493750948637
  H           2.64148598547867     -0.45838200020839     -0.13028764236521
  O          -5.58201190987490     -0.62849047770536     -1.20174119785555
  C          -4.91075592296191     -0.20900804155604     -2.04930664795094
  O          -4.24216785526823      0.21024679728713     -2.89914444740984
