14
Coordinates from ORCA-job ./orca E -398.965888354917
  O           1.70186661719147     -0.26554810942179     -0.59436537015854
  N          -1.99298863803121     -0.06099668534322     -0.13962787072400
  C          -0.68357806018241     -0.08274932375199     -0.79573750275501
  C           0.48277259084117     -0.23755828143835      0.16768088261969
  H          -0.56293207916908      0.84376421937003     -1.36289758943629
  H          -0.66809658187579     -0.90769159888331     -1.51293076360322
  H           0.37183972222986     -1.16626482388883      0.73767606306200
  H           0.49756704586490      0.60001589999522      0.87259432758590
  H          -2.11240445807893     -0.90165446826278      0.41878145815182
  H          -2.03932936177534      0.71801699428668      0.51135831926552
  H           2.44052381273858     -0.33294415642688      0.02356218819013
  O          -4.76000055138368     -0.24894572018264     -0.55405586991778
  C          -4.06557444813903     -0.09889448394493     -1.47722539384036
  O          -3.55664766053026      0.04013721039280     -2.51549321933975
