14
Coordinates from ORCA-job ./orca E -398.972890419470
  O           1.81863706729796     -0.33904291655042     -0.63676141636277
  N          -1.81703717790785      0.04553564404981      0.10954107456945
  C          -0.56571351446786     -0.05743089463044     -0.65046951256520
  C           0.66789553416811     -0.23962344106133      0.21993024734417
  H          -0.44955915653851      0.84622708644529     -1.25425223323624
  H          -0.64457686918649     -0.90157273545767     -1.34032350938054
  H           0.56588531329098     -1.14899791500287      0.82197062129867
  H           0.77539331717049      0.61319181523978      0.89821495238151
  H          -1.91574897012118     -0.76958652104329      0.70887056951406
  H          -1.76767441717097      0.84451390345102      0.73521243247125
  H           2.60095231861367     -0.43242474241968     -0.07901454366300
  O          -5.38114742445508     -0.57721798675304     -1.03471020929724
  C          -4.73648951657009     -0.18720770064720     -1.91635698912109
  O          -4.09779855442306      0.20232307688002     -2.80253182485296
