14
Coordinates from ORCA-job ./orca E -398.971869435245
  O           1.76604701414756     -0.31989826848497     -0.61966708328377
  N          -1.89619627839470      0.02723319242355      0.00572901857576
  C          -0.61900924914242     -0.05787901091655     -0.71201007660647
  C           0.58534866103116     -0.24287479214742      0.19798209015471
  H          -0.48820008416428      0.85442459704167     -1.29963897758718
  H          -0.66842418434562     -0.89320249611659     -1.41531372717156
  H           0.47049120124972     -1.16188862039785      0.78289761753412
  H           0.66110746746191      0.60083637091228      0.89170372292967
  H          -2.01025526309404     -0.79667676918090      0.59020518202835
  H          -1.87283813248756      0.81730710097569      0.64420385567909
  H           2.53008223712665     -0.41271180504785     -0.03705157851744
  O          -5.07576062778596     -0.49980269090443     -0.81785366551826
  C          -4.46010668709645     -0.17139027118949     -1.74436810448905
  O          -3.86926812480579      0.15521013553285     -2.68749861462790
