14
Coordinates from ORCA-job ./orca E -398.965099585882
  O           1.67565219718043     -0.20460503376018     -0.62807564567435
  N          -2.01302683418467     -0.14051539590761     -0.10259597291134
  C          -0.71690689091988     -0.11035293590523     -0.78199229124048
  C           0.47214191477633     -0.23067651847547      0.15823875041762
  H          -0.64043460129823      0.82455909009994     -1.34287647501818
  H          -0.68670449436657     -0.92797254927128     -1.50679177306232
  H           0.40821855395639     -1.16821279371049      0.72069891180996
  H           0.46942062643099      0.60008215369233      0.87129399658209
  H          -2.10040486495533     -0.99397240158874      0.44214753784811
  H          -2.07879540499340      0.62791353835524      0.55890425931208
  H           2.42860176308413     -0.25562681020432     -0.02604382112941
  O          -4.74192865716303      0.02122264201243     -0.59532924339168
  C          -3.98089386543644     -0.04267246841092     -1.47763525057572
  O          -3.44192149241044     -0.10048384442567     -2.51062332386627
