14
Coordinates from ORCA-job ./orca E -398.966750286317
  O           1.71951444350694     -0.26787134014307     -0.57874858038209
  N          -1.98005736581530     -0.06214250234193     -0.15197384553028
  C          -0.66490513221638     -0.08678170620014     -0.79795165593007
  C           0.49473157147360     -0.23626782115063      0.17412650573171
  H          -0.53966544777346      0.83685960022206     -1.36903211106291
  H          -0.64411151011126     -0.91499189991671     -1.51133189849173
  H           0.38020713271884     -1.16169549849165      0.74875620788396
  H           0.50417575096201      0.60531697078225      0.87442620362928
  H          -2.10522186256021     -0.90554201264282      0.40111239175413
  H          -2.02369899149290      0.71150307667430      0.50580132917895
  H           2.45374896546563     -0.32866222999040      0.04512154800846
  O          -4.78828416210023     -0.25512131088519     -0.54461761958286
  C          -4.12893434861743     -0.09373157006038     -1.48959775615922
  O          -3.62448109373962      0.05781491664433     -2.52677105994721
