14
Coordinates from ORCA-job ./orca E -398.971508636140
  O           1.75764984683975     -0.31841701793587     -0.61867748577471
  N          -1.90732857275165      0.02628974115346     -0.00740187142315
  C          -0.62730605389078     -0.05755207594232     -0.71992723423417
  C           0.57366869352748     -0.24331832932411      0.19440462361071
  H          -0.49440692455370      0.85550930200045     -1.30595534562164
  H          -0.67371164054395     -0.89195904827175     -1.42456332378885
  H           0.45704589581769     -1.16324904236536      0.77753243127670
  H           0.64613188210652      0.59941749169965      0.88966645031874
  H          -2.02436762981137     -0.79890645374110      0.57463342499378
  H          -1.88643140396771      0.81488637832881      0.63302128462270
  H           2.51949010204360     -0.41105276963229     -0.03316093159789
  O          -5.03526741492199     -0.49335960532897     -0.79195190574275
  C          -4.41895846553979     -0.17014708201483     -1.71994550849769
  O          -3.83319036465393      0.15054518387421     -2.66835494904169
