14
Coordinates from ORCA-job ./orca E -398.975134918635
  O           1.57417690276554     -0.20079921598203     -0.61403362818014
  N          -2.08909246186951     -0.16201498665957     -0.20382948922347
  C          -0.78107011352435     -0.10052180596090     -0.89151990411594
  C           0.34443643833067     -0.22285166937498      0.11878585828382
  H          -0.72468316045375      0.84741499979486     -1.42188813295398
  H          -0.74144402301396     -0.91504307617158     -1.61042782369241
  H           0.24593857517821     -1.15908101951149      0.67709663796042
  H           0.30653216953848      0.60983106355205      0.82674661099023
  H          -2.17646852059919     -1.04176157713534      0.30692782114383
  H          -2.16463037606334      0.58169721740942      0.49002333152380
  H           2.29905558058196     -0.23426257172557      0.02296626476624
  O          -4.42027117915061      0.12855170738912     -0.45244210510517
  C          -3.42120728549003     -0.05338393507080     -1.13749954549211
  O          -3.19825459652977     -0.17908845805316     -2.33158623680498
