14
Coordinates from ORCA-job ./orca E -398.968202158083
  O           1.70615296785177     -0.31390052560781     -0.61662417878496
  N          -1.97160106392042      0.02316064986866     -0.08004709879012
  C          -0.67675217850566     -0.05306971144077     -0.76400187062494
  C           0.50567347491738     -0.24641609611670      0.17259840194047
  H          -0.53273800756109      0.86532510337759     -1.33916946397807
  H          -0.70756612280267     -0.88118162799483     -1.47706436560034
  H           0.37781491832008     -1.17123318681085      0.74549811101115
  H           0.56338086138889      0.59037157651754      0.87636867044132
  H          -2.10459230903610     -0.80822192841075      0.48940570227758
  H          -1.96518288599558      0.80510072122447      0.56927419448553
  H           2.45624659254242     -0.40530813487818     -0.01590648340701
  O          -4.81404396027676     -0.46368106496310     -0.65484090934839
  C          -4.16603448525222     -0.16482778047403     -1.57178022576045
  O          -3.61773985196979      0.12256867820876     -2.55439082476168
