14
Coordinates from ORCA-job ./orca E -398.963803828103
  O           1.65710830226088     -0.21281341286765     -0.63286299209987
  N          -2.02560138034569     -0.11771554242093     -0.11304256520247
  C          -0.73101033691555     -0.08433655738884     -0.79145763201733
  C           0.45279602374106     -0.23651368592470      0.15129329783167
  H          -0.64611078475575      0.86147519140907     -1.33128074903135
  H          -0.70587358129215     -0.88830346842836     -1.53102615159931
  H           0.37412491437223     -1.18338433172031      0.69580301898987
  H           0.45970687236784      0.58112218524388      0.87901435303965
  H          -2.11959411749120     -0.96867954904358      0.43387816456547
  H          -2.11198354372121      0.65933119360528      0.53517140338939
  H           2.40829258019918     -0.28601802892963     -0.03090025454894
  O          -4.68856518272891      0.00169922553815     -0.57676670132698
  C          -3.88275279311200     -0.07612214328804     -1.42456901096773
  O          -3.38751902287845     -0.15105440328433     -2.48393452192196
