14
Coordinates from ORCA-job ./orca E -398.963482012234
  O           1.63849015405855     -0.21285620439568     -0.63727435840392
  N          -2.03709631364235     -0.12079390101123     -0.12130673512288
  C          -0.74518776033237     -0.08196654315354     -0.80334594892594
  C           0.43362051197012     -0.23637195693755      0.14444517986494
  H          -0.66445549797822      0.86626998133101     -1.33813789790678
  H          -0.72239259762001     -0.88392370695549     -1.54403955661313
  H           0.35193938286869     -1.18357920422595      0.68764795832851
  H           0.43897222868778      0.58062255904785      0.87256349652449
  H          -2.13853579996123     -0.97480022808492      0.41927140818367
  H          -2.13828497397092      0.65791321902008      0.52249504163923
  H           2.38846133268557     -0.28251412124573     -0.03334692519660
  O          -4.63791305298458      0.01573671698017     -0.56315796541047
  C          -3.78124833679562     -0.07814969017723     -1.36955755000145
  O          -3.33335132728508     -0.16690024769176     -2.45693648785956
