14
Coordinates from ORCA-job ./orca E -398.970634653129
  O           1.73961228877274     -0.31697961177591     -0.61874632428202
  N          -1.92946276510904      0.02833977669473     -0.03226672537360
  C          -0.64400987357907     -0.05459478997411     -0.73386032590419
  C           0.55088551476938     -0.24388378958077      0.18768266531312
  H          -0.50628577767902      0.85982503307281     -1.31679965694884
  H          -0.68590552983112     -0.88723352558772     -1.44097666831791
  H           0.43043548332355     -1.16567823682490      0.76705625522898
  H           0.61953577076048      0.59653950954969      0.88612122267656
  H          -2.05534718339143     -0.80052505225241      0.54240021408916
  H          -1.91285500851414      0.81279773988058      0.61328178122921
  H           2.49795885640380     -0.41316613049128     -0.02927919168115
  O          -4.95757494984982     -0.48700803561970     -0.74491354405692
  C          -4.33483095726424     -0.17084895291214     -1.67133921467677
  O          -3.75913791911186      0.14110273832111     -2.62904082819555
