14
Coordinates from ORCA-job ./orca E -398.972148947973
  O           1.77504449569166     -0.32195141129185     -0.61995518347929
  N          -1.88462444402910      0.02840231370729      0.01798632297612
  C          -0.61017529723958     -0.05808523087276     -0.70457406837823
  C           0.59717578632196     -0.24275792881019      0.20149435450160
  H          -0.48105516409468      0.85352964444516     -1.29359866200936
  H          -0.66265561646206     -0.89417829135269     -1.40670997383561
  H           0.48353051829651     -1.16076611003013      0.78822112512454
  H           0.67600520527786      0.60193611446839      0.89368844216135
  H          -1.99612635040008     -0.79429845861001      0.60466889753385
  H          -1.85868129879726      0.81979731962722      0.65469515747205
  H           2.54098597186274     -0.41339973552525     -0.03962607057718
  O          -5.11864877154856     -0.50656099334530     -0.84389005818606
  C          -4.50208611408736     -0.17265537826050     -1.76777181067878
  O          -3.90567097109188      0.15967481835059     -2.70530881352493
