14
Coordinates from ORCA-job ./orca E -398.972364016067
  O           1.78378649209581     -0.32458154194664     -0.62066319278108
  N          -1.87293169833729      0.03103670800190      0.03072900096673
  C          -0.60143109407868     -0.05747657804309     -0.69690993417227
  C           0.60899248459113     -0.24284388351856      0.20486770013171
  H          -0.47371172310725      0.85355664572309     -1.28711760209165
  H          -0.65759419701773     -0.89405304031139     -1.39815572408118
  H           0.49611104793231     -1.16004696016881      0.79299768066370
  H           0.69156802548315      0.60249206339416      0.89584843817006
  H          -1.98238474156725     -0.79018754615157      0.61984733592848
  H          -1.84426619736317      0.82407891307296      0.66522390734586
  H           2.55164240593472     -0.41603547001540     -0.04287205476491
  O          -5.16247604470125     -0.51660476374862     -0.87158082897736
  C          -4.54347496829594     -0.17530529951582     -1.79105648230099
  O          -3.94081184186839      0.16465742572780     -2.72183858493702
