14
Coordinates from ORCA-job ./orca E -398.965933794381
  O           1.60784878280934     -0.21221306619917     -0.64535052872698
  N          -2.05597053503676     -0.12812153039330     -0.13233398042545
  C          -0.76644309724338     -0.07837417459808     -0.82199386109639
  C           0.40357780413916     -0.23562594522913      0.13465584402431
  H          -0.69514328143807      0.87435637657690     -1.34712251301097
  H          -0.74656913138969     -0.87773073726218     -1.56310340269282
  H           0.31774100301296     -1.18359652197354      0.67534900607961
  H           0.40756724631967      0.58041874089924      0.86318693937803
  H          -2.16106306173653     -0.98692996460304      0.40098344902294
  H          -2.17449428799387      0.65212356196557      0.50737084404936
  H           2.35706100051993     -0.27662358919506     -0.03987768472937
  O          -4.56133483069514      0.04576677118673     -0.54984695533621
  C          -3.62867738316984     -0.08073922180226     -1.28786540296361
  O          -3.25108227839746     -0.19402402687264     -2.41473209447231
