14
Coordinates from ORCA-job ./orca E -398.972960438310
  O           1.82962115414765     -0.34495607320194     -0.64625368330574
  N          -1.79476645380639      0.05567103708084      0.14573580797311
  C          -0.55362336564726     -0.05332251394592     -0.63012919889371
  C           0.69017659806757     -0.23960610386403      0.22464921980983
  H          -0.44161294577783      0.84920618792009     -1.23637245627177
  H          -0.64476397207546     -0.89798410449785     -1.31781532747634
  H           0.59198395448157     -1.14786019097052      0.82898599773282
  H           0.80992776181177      0.61343974217229      0.90060964596971
  H          -1.88860815129436     -0.75807454531173      0.74767931111280
  H          -1.73429431528270      0.85556529363395      0.76928143080869
  H           2.61799835069420     -0.44392490451654     -0.09807514526143
  O          -5.46432487346958     -0.59916425671359     -1.10119902539934
  C          -4.80827687755210     -0.19639083130147     -1.96854533185733
  O          -4.15641891459694      0.20608793601640     -2.83923158584123
