14
Coordinates from ORCA-job ./orca E -398.972997635626
  O           1.83906137211651     -0.34959422947857     -0.65727512526633
  N          -1.77251059508853      0.06614492460889      0.18466089955460
  C          -0.54310638471455     -0.04991583688256     -0.60882796625397
  C           0.71174128396218     -0.23981762127165      0.22865425214493
  H          -0.43590224468222      0.85102655273620     -1.21830548913769
  H          -0.64787369033513     -0.89545043261162     -1.29347777667415
  H           0.61883132239266     -1.14729459108096      0.83495037720842
  H           0.84334111910340      0.61324895884108      0.90243489325107
  H          -1.86133257687749     -0.74621421066661      0.78918730637876
  H          -1.69910985057611      0.86673588579347      0.80595677298412
  H           2.63379882830061     -0.45428909387322     -0.11940429512799
  O          -5.54325269758075     -0.61990284532109     -1.16841562864211
  C          -4.87693990449031     -0.20521744187102     -2.02221772904959
  O          -4.21372803183017      0.20922665357765     -2.87860083227001
