14
Coordinates from ORCA-job ./orca E -398.971096739468
  O           1.74893703380058     -0.31713124686473     -0.61841132598724
  N          -1.91838788178579      0.02682906310434     -0.02055423324188
  C          -0.63534820839944     -0.05638822448629     -0.72690864131087
  C           0.56247777618187     -0.24357461823950      0.19123512297061
  H          -0.50024587798030      0.85723352724021     -1.31164262243309
  H          -0.67923947376617     -0.89014707253253     -1.43254997840051
  H           0.44425307124337     -1.16454404586408      0.77238876601037
  H           0.63261472912322      0.59794150026029      0.88822471371463
  H          -2.04001011332102     -0.80030425503555      0.55761901386233
  H          -1.89990869965268      0.81328108435105      0.62249963386401
  H           2.50899558514325     -0.41131917375908     -0.03082559718592
  O          -4.99679900194197     -0.48884054748250     -0.76773587085292
  C          -4.37761800946922     -0.16996840374738     -1.69541855791570
  O          -3.79670297947550      0.14561908555574     -2.64860076399373
