14
Coordinates from ORCA-job ./orca E -398.972931491144
  O           1.82417041457071     -0.34222400188875     -0.64148336281004
  N          -1.80592062212703      0.05067460224375      0.12756369879281
  C          -0.55962860478812     -0.05532606341964     -0.64034099644471
  C           0.67905512563952     -0.23961963260629      0.22231389730935
  H          -0.44546717847504      0.84777723812958     -1.24533042967026
  H          -0.64465097833818     -0.89968344962726     -1.32918925103803
  H           0.57885287887455     -1.14835467456307      0.82560807950323
  H           0.79277919498927      0.61338012891922      0.89935938590220
  H          -1.90218476137391     -0.76372237445572      0.72826284268780
  H          -1.75108297747572      0.85015723754732      0.75214434996094
  H           2.60953149790626     -0.43835231754918     -0.08849995984148
  O          -5.42287944586927     -0.58870924131994     -1.06805954518148
  C          -4.77249022704446     -0.19186643496927     -1.94241124315216
  O          -4.12706636678846      0.20455565605925     -2.82061780691810
