14
Coordinates from ORCA-job ./orca E -398.967563080487
  O           1.73353109697530     -0.27399862978210     -0.56970526836618
  N          -1.96762824600131     -0.05342590135907     -0.15532836011455
  C          -0.64965291454771     -0.07732730112158     -0.79609175405604
  C           0.50618761202617     -0.23851226116974      0.17883111964223
  H          -0.51894054311820      0.85013827712349     -1.35964819683523
  H          -0.62801012295525     -0.90020966820896     -1.51573752542948
  H           0.38379873464740     -1.16608319769291      0.74841065262340
  H           0.51838580024879      0.59961091572112      0.88327502951446
  H          -2.09381112233489     -0.89692581577285      0.39729790028960
  H          -2.01344681101143      0.71999325147253      0.50247473162039
  H           2.46498069647322     -0.34179400197673      0.05672051403996
  O          -4.82031359720309     -0.25977302860090     -0.54475621309624
  C          -4.18417729746777     -0.10427919772604     -1.50522066603323
  O          -3.67788533603101      0.04127323159375     -2.54120230469899
