14
Coordinates from ORCA-job ./orca E -398.973014055834
  O           1.85498725233175     -0.35338399341952     -0.68155549692256
  N          -1.72834076004760      0.08030557587399      0.26710346105127
  C          -0.52518280596910     -0.04912861264681     -0.56404402486601
  C           0.75398050768950     -0.23674361294652      0.23582358628154
  H          -0.43321712399266      0.84568607353559     -1.18503776371451
  H          -0.65590342823623     -0.90043912417336     -1.23695688101937
  H           0.67792649846093     -1.14036691921805      0.85005734024172
  H           0.90591485204252      0.61994369712026      0.90088868250376
  H          -1.80757283078845     -0.73254798574438      0.87224106180501
  H          -1.62393303990282      0.87760652364031      0.88844148436562
  H           2.66341015947352     -0.46600584711071     -0.16598668480356
  O          -5.69089871651082     -0.64301339612409     -1.29839070648631
  C          -5.00916962885149     -0.21534663960995     -2.13342313529869
  O          -4.32898298599895      0.21212093332323     -2.96984126403784
