14
Coordinates from ORCA-job ./orca E -398.972763062497
  O           1.80500655161117     -0.33326850600878     -0.62989457484537
  N          -1.83935576788406      0.03937784531546      0.07801534382439
  C          -0.57999147540899     -0.05708735883071     -0.66970014956226
  C           0.64400654966366     -0.24113178969338      0.21376440383388
  H          -0.45923584211246      0.85023719221856     -1.26700261912035
  H          -0.65007062305159     -0.89750498154584     -1.36499698050189
  H           0.53701603237321     -1.15390886836127      0.80979373410296
  H           0.74134584234610      0.60840680710352      0.89764129080905
  H          -1.94109605077401     -0.77784800646473      0.67399548372316
  H          -1.79874974395041      0.83657466414116      0.70656254730351
  H           2.58126544461730     -0.42625828251188     -0.06369557990186
  O          -5.29289365415180     -0.55202855643722     -0.96771176495676
  C          -4.65933348443921     -0.18272251844212     -1.86616508820088
  O          -4.03489582913875      0.18584903201721     -2.77128638740750
