14
Coordinates from ORCA-job ./orca E -398.968918865400
  O           1.71416892263114     -0.31589904392204     -0.61689460592228
  N          -1.96062992304933      0.02974709533661     -0.06816350581401
  C          -0.66850043480420     -0.05044384768364     -0.75689274971913
  C           0.51623775729992     -0.24615432934805      0.17613015624018
  H          -0.52436057878688      0.86714571478379     -1.33332140648642
  H          -0.70453786769295     -0.87865708555428     -1.46956898142938
  H           0.38834512028887     -1.17103274173200      0.74895805149692
  H           0.57772665182248      0.59015127653979      0.88012764522726
  H          -2.09288505121481     -0.80049729864275      0.50302339201468
  H          -1.95169386111929      0.81258442535022      0.57972700754615
  H           2.46557079789910     -0.41483611324067     -0.01902597163901
  O          -4.84674696258730     -0.48029573000181     -0.67759182467065
  C          -4.20731487187332     -0.17120950350971     -1.59614063987601
  O          -3.65236174911320      0.12808385412453     -2.57104690786822
