14
Coordinates from ORCA-job ./orca E -398.967577898037
  O           1.60035300823007     -0.21196205589392     -0.64178074560034
  N          -2.06188530786113     -0.12933114257595     -0.14419467879584
  C          -0.76978284967209     -0.07472604213690     -0.83293446904132
  C           0.39263157767175     -0.23549548513200      0.13180117265784
  H          -0.69933536923041      0.88047927724066     -1.35261647746267
  H          -0.74822565765602     -0.87193849569319     -1.57542551013835
  H           0.30185379119939     -1.18449764735529      0.66973869241970
  H           0.39340557811638      0.57893582934665      0.86194842394271
  H          -2.16208379301776     -0.98962318452174      0.38907925701055
  H          -2.18154806894633      0.64872410804941      0.49892564806869
  H           2.34625284285491     -0.27683328067471     -0.03224993912156
  O          -4.53458968198240      0.05998815566491     -0.53581293585705
  C          -3.58522937294291     -0.08324194933844     -1.25822704556304
  O          -3.23879874706309     -0.21179141447949     -2.39893173341919
