14
Coordinates from ORCA-job ./orca E -398.973544676964
  O           1.58037524199097     -0.20933976627409     -0.62317688673782
  N          -2.08160815995946     -0.14236911945336     -0.18818177207661
  C          -0.77796553717955     -0.08166651320025     -0.87443385106856
  C           0.35732473626813     -0.22957236795530      0.12234346726842
  H          -0.71299861647016      0.87274115181595     -1.39325412729203
  H          -0.74601072183392     -0.88529604636606     -1.60677913082541
  H           0.25545918238208     -1.17330565540898      0.66727305803970
  H           0.33711209496495      0.59207963919228      0.84370732939428
  H          -2.16821438564600     -1.01065783802865      0.33985472049717
  H          -2.17889395486903      0.61927067135820      0.48173584591616
  H           2.31156615205421     -0.26142524120796      0.00526165660655
  O          -4.45271825928358      0.09059588763857     -0.47700834704469
  C          -3.46237346758398     -0.07439378975917     -1.16845492295410
  O          -3.20803635513430     -0.20797433985116     -2.34956738062291
