14
Coordinates from ORCA-job ./orca E -398.964683713988
  O           1.61661420802116     -0.21291605605216     -0.64568612397693
  N          -2.04992814099664     -0.12409777269957     -0.12447822192156
  C          -0.76130266954500     -0.07816691765386     -0.81357157730249
  C           0.41371030398459     -0.23626813755102      0.13737605904494
  H          -0.68722595681868      0.87353739413751     -1.34118749949604
  H          -0.74237081597881     -0.87760109805624     -1.55548863487240
  H           0.32973689638892     -1.18452643039790      0.67802609658267
  H           0.42031574806670      0.57930494497848      0.86663420874175
  H          -2.15480180077530     -0.98085506792201      0.41138191435709
  H          -2.16484007429537      0.65718819387271      0.51401647278729
  H           2.36725616808435     -0.28120609488862     -0.04243025571784
  O          -4.58791718806671      0.03228438231805     -0.55975192658609
  C          -3.67585021346748     -0.08156832501409     -1.31649031742624
  O          -3.27037851490141     -0.18642234257128     -2.42903053511402
