14
Coordinates from ORCA-job ./orca E -398.972981960221
  O           1.83440509954830     -0.34751066770592     -0.65173178387651
  N          -1.78366443132293      0.06103359315562      0.16507399507482
  C          -0.54828195876277     -0.05146794060035     -0.61951402615314
  C           0.70100879917052     -0.23973902169726      0.22669665739721
  H          -0.43856375237877      0.85032728627891     -1.22727272651595
  H          -0.64622197893737     -0.89649422360166     -1.30580800714669
  H           0.60529023927806     -1.14758260334187      0.83202962641914
  H           0.82684431545066      0.61330614386260      0.90157495296684
  H          -1.87499229806736     -0.75197621065684      0.76837501309610
  H          -1.71687294445016      0.86134767212669      0.78745028235928
  H           2.62597207539760     -0.44939719982970     -0.10869331053753
  O          -5.50405423696307     -0.61004188079543     -1.13491940931969
  C          -4.84277255128104     -0.20096588411553     -1.99531259260323
  O          -4.18507842698155      0.20784760942074     -2.85862901206058
