14
Coordinates from ORCA-job ./orca E -398.972532641034
  O           1.79100881975644     -0.32736830894426     -0.62357418332997
  N          -1.86179267912647      0.03338507767918      0.04632536004662
  C          -0.59423807332663     -0.05745919553821     -0.68796447276414
  C           0.62065533500056     -0.24230195609964      0.20786917410329
  H          -0.46891889482697      0.85243375460547     -1.28041761967724
  H          -0.65485619197435     -0.89524841176356     -1.38736003079113
  H           0.50970786266759     -1.15805395925700      0.79861308008621
  H           0.70799438029490      0.60443887139572      0.89654576903782
  H          -1.96845455461919     -0.78646759736526      0.63785068173594
  H          -1.82942002011772      0.82791355533355      0.67875124593902
  H           2.56164671459762     -0.41896582909693     -0.04952073806465
  O          -5.20545638600890     -0.52742319128815     -0.90273185833426
  C          -4.58230905408494     -0.17749626186388     -1.81612005205057
  O          -3.97254930853177      0.17130012470297     -2.73894669683687
