14
Coordinates from ORCA-job ./orca E -398.972837906508
  O           1.81200393541646     -0.33619821823658     -0.63296020064245
  N          -1.82803328061000      0.04257534522318      0.09377707810293
  C          -0.57279567597327     -0.05702939164971     -0.66058228973431
  C           0.65569573634871     -0.24049881897838      0.21670144124252
  H          -0.45427428811408      0.84885381405192     -1.26051614013229
  H          -0.64768583129801     -0.89891667238999     -1.35357110833558
  H           0.55077621784443     -1.15170315338259      0.81548262117648
  H           0.75789974473461      0.61052663128537      0.89801643838158
  H          -1.92754931591103     -0.77346883007723      0.69174102728005
  H          -1.78282462920988      0.84083241742116      0.72067108759072
  H           2.59101946556708     -0.42980227133904     -0.07065926446371
  O          -5.33706561123338     -0.56474935158459     -1.00084404189427
  C          -4.69787032869802     -0.18530186779761     -1.89104096723418
  O          -4.06627818916350      0.19356703995409     -2.78689602223741
