14
Coordinates from ORCA-job ./orca E -398.975783247734
  O           1.56732758438483     -0.19818962829072     -0.60747046714707
  N          -2.09817169145222     -0.16882685821303     -0.21994533272489
  C          -0.78391994179289     -0.10549310018772     -0.90515398857216
  C           0.33258245060831     -0.21920121586717      0.11569282489308
  H          -0.73011635215319      0.84082710698508     -1.43774386632404
  H          -0.73884302717657     -0.92328944716259     -1.61929268887423
  H           0.23174665807014     -1.15221121776436      0.67897366856903
  H           0.28611285675675      0.61779729036483      0.81803712623238
  H          -2.18015920485112     -1.05344939182371      0.28573124902685
  H          -2.16163795041152      0.56347434983702      0.48883723642456
  H           2.28703265707186     -0.22619190379262      0.03567742735008
  O          -4.38985370747527      0.14720982124764     -0.43085293164316
  C          -3.38142290808698     -0.04780594010947     -1.10931379375736
  O          -3.18765947379177     -0.17596319272317     -2.31385680435291
