14
Coordinates from ORCA-job ./orca E -398.973015911952
  O       1.854972     -0.353561     -0.681622
  N      -1.728409      0.080274      0.267168
  C      -0.525194     -0.049212     -0.564016
  C       0.754046     -0.236697      0.235823
  H      -0.433114      0.845666     -1.184932
  H      -0.655982     -0.900536     -1.236878
  H       0.678015     -1.140193      0.850246
  H       0.906015      0.620143      0.900670
  H      -1.807684     -0.732708      0.872312
  H      -1.623993      0.877612      0.888687
  H       2.663491     -0.465982     -0.166162
  O      -5.690925     -0.643096     -1.298549
  C      -5.009153     -0.215313     -2.133483
  O      -4.329067      0.212291     -2.969945
14
Coordinates from ORCA-job ./orca E -398.973014055834
  O       1.854987     -0.353384     -0.681555
  N      -1.728341      0.080306      0.267103
  C      -0.525183     -0.049129     -0.564044
  C       0.753981     -0.236744      0.235824
  H      -0.433217      0.845686     -1.185038
  H      -0.655903     -0.900439     -1.236957
  H       0.677926     -1.140367      0.850057
  H       0.905915      0.619944      0.900889
  H      -1.807573     -0.732548      0.872241
  H      -1.623933      0.877607      0.888441
  H       2.663410     -0.466006     -0.165987
  O      -5.690899     -0.643013     -1.298391
  C      -5.009170     -0.215347     -2.133423
  O      -4.328983      0.212121     -2.969841
14
Coordinates from ORCA-job ./orca E -398.971727251709
  O       1.856531     -0.354004     -0.683872
  N      -1.757935      0.079489      0.253090
  C      -0.523447     -0.048113     -0.566701
  C       0.755441     -0.237159      0.233382
  H      -0.422619      0.849046     -1.187855
  H      -0.646962     -0.902187     -1.236758
  H       0.678628     -1.141072      0.847095
  H       0.907959      0.619096      0.898871
  H      -1.819743     -0.744646      0.876826
  H      -1.636733      0.891633      0.893983
  H       2.664786     -0.467481     -0.168226
  O      -5.692488     -0.642484     -1.298197
  C      -4.984887     -0.216369     -2.111759
  O      -4.325511      0.212938     -2.970558
14
Coordinates from ORCA-job ./orca E -398.972791797221
  O       1.849320     -0.354988     -0.678131
  N      -1.749186      0.079606      0.245486
  C      -0.525781     -0.045700     -0.569602
  C       0.747623     -0.236468      0.237101
  H      -0.427205      0.851034     -1.186550
  H      -0.648206     -0.898186     -1.242075
  H       0.667628     -1.140309      0.850478
  H       0.900087      0.619692      0.902821
  H      -1.806355     -0.730311      0.858493
  H      -1.628558      0.870568      0.874582
  H       2.656187     -0.469563     -0.160613
  O      -5.678308     -0.644600     -1.284800
  C      -4.984089     -0.215444     -2.108576
  O      -4.320138      0.213356     -2.959294
14
Coordinates from ORCA-job ./orca E -398.972918416724
  O       1.848625     -0.355712     -0.674672
  N      -1.745401      0.079447      0.242080
  C      -0.527169     -0.045049     -0.573945
  C       0.743678     -0.236589      0.237000
  H      -0.429161      0.852202     -1.189716
  H      -0.648485     -0.895961     -1.249091
  H       0.661134     -1.140459      0.850038
  H       0.894705      0.619112      0.903676
  H      -1.804961     -0.730517      0.853574
  H      -1.628662      0.869926      0.869630
  H       2.653938     -0.470437     -0.154690
  O      -5.667751     -0.645297     -1.275384
  C      -4.983578     -0.215497     -2.107491
  O      -4.313896      0.213518     -2.951689
14
Coordinates from ORCA-job ./orca E -398.972994082242
  O       1.850295     -0.355964     -0.671435
  N      -1.741925      0.079062      0.240552
  C      -0.528407     -0.045319     -0.578644
  C       0.740781     -0.237197      0.235577
  H      -0.430663      0.852515     -1.193975
  H      -0.649156     -0.894207     -1.256636
  H       0.655763     -1.141331      0.847888
  H       0.889288      0.617811      0.903602
  H      -1.807728     -0.731985      0.850732
  H      -1.632102      0.872448      0.866714
  H       2.653714     -0.469909     -0.148392
  O      -5.657651     -0.645056     -1.266262
  C      -4.982400     -0.215582     -2.105887
  O      -4.306790      0.213399     -2.944514
14
Coordinates from ORCA-job ./orca E -398.973000150746
  O       1.851559     -0.355434     -0.671091
  N      -1.740610      0.078808      0.241517
  C      -0.528697     -0.046095     -0.579439
  C       0.740762     -0.237700      0.234659
  H      -0.431028      0.851746     -1.195013
  H      -0.650118     -0.894354     -1.257988
  H       0.655602     -1.142192      0.846424
  H       0.888083      0.617065      0.903174
  H      -1.811086     -0.732582      0.850732
  H      -1.635100      0.874133      0.866046
  H       2.654553     -0.468326     -0.147222
  O      -5.655507     -0.644035     -1.264372
  C      -4.981105     -0.215389     -2.104949
  O      -4.304289      0.213044     -2.943157
14
Coordinates from ORCA-job ./orca E -398.973011527435
  O       1.852747     -0.354101     -0.672022
  N      -1.738984      0.078375      0.243871
  C      -0.528954     -0.047587     -0.578805
  C       0.741772     -0.238482      0.233690
  H      -0.431540      0.849974     -1.195013
  H      -0.652169     -0.895580     -1.257207
  H       0.657718     -1.143658      0.844626
  H       0.887907      0.616103      0.902622
  H      -1.816728     -0.733309      0.851314
  H      -1.639828      0.876580      0.865387
  H       2.655929     -0.465173     -0.148105
  O      -5.654712     -0.641865     -1.264073
  C      -4.978635     -0.214807     -2.103887
  O      -4.301505      0.212216     -2.943078
14
Coordinates from ORCA-job ./orca E -398.973027109346
  O       1.852530     -0.353301     -0.673315
  N      -1.738695      0.078177      0.245044
  C      -0.529033     -0.048234     -0.577450
  C       0.742650     -0.238704      0.233700
  H      -0.431876      0.849030     -1.194105
  H      -0.653263     -0.896619     -1.255194
  H       0.659893     -1.144173      0.844391
  H       0.888841      0.615906      0.902606
  H      -1.819101     -0.733578      0.851669
  H      -1.641786      0.877337      0.865295
  H       2.656368     -0.463794     -0.150258
  O      -5.655375     -0.640655     -1.265187
  C      -4.977494     -0.214403     -2.103964
  O      -4.300642      0.211698     -2.943912
14
Coordinates from ORCA-job ./orca E -398.973020272599
  O       1.851998     -0.352833     -0.674406
  N      -1.738909      0.078067      0.245573
  C      -0.529091     -0.048449     -0.576285
  C       0.743230     -0.238660      0.233947
  H      -0.432180      0.848559     -1.193310
  H      -0.653771     -0.897293     -1.253435
  H       0.661516     -1.144216      0.844643
  H       0.889833      0.615995      0.902734
  H      -1.820171     -0.733750      0.851824
  H      -1.642789      0.877442      0.865471
  H       2.656437     -0.463431     -0.152270
  O      -5.655925     -0.639925     -1.266159
  C      -4.977018     -0.214162     -2.104431
  O      -4.300141      0.211340     -2.944575
14
Coordinates from ORCA-job ./orca E -398.971728706349
  O       1.853616     -0.353483     -0.676538
  N      -1.768483      0.077227      0.231648
  C      -0.527277     -0.047382     -0.579176
  C       0.744614     -0.239073      0.231501
  H      -0.421559      0.852027     -1.196403
  H      -0.644792     -0.898971     -1.253483
  H       0.662016     -1.144918      0.841651
  H       0.891721      0.615150      0.900731
  H      -1.832198     -0.745852      0.856412
  H      -1.655562      0.891431      0.871008
  H       2.657796     -0.464963     -0.154190
  O      -5.657477     -0.639416     -1.265879
  C      -4.952664     -0.215210     -2.082765
  O      -4.296734      0.212119     -2.945197
14
Coordinates from ORCA-job ./orca E -398.972790285348
  O       1.846102     -0.354423     -0.671050
  N      -1.759706      0.077206      0.223963
  C      -0.529711     -0.045142     -0.581873
  C       0.736742     -0.238226      0.235260
  H      -0.426332      0.853715     -1.194893
  H      -0.646198     -0.895288     -1.258341
  H       0.651259     -1.143840      0.845296
  H       0.883849      0.616069      0.904489
  H      -1.818737     -0.731774      0.837995
  H      -1.647120      0.870163      0.851869
  H       2.649054     -0.466976     -0.147091
  O      -5.643186     -0.641342     -1.252559
  C      -4.951788     -0.214107     -2.079682
  O      -4.291209      0.212651     -2.934064
14
Coordinates from ORCA-job ./orca E -398.972915092992
  O       1.845194     -0.355142     -0.667866
  N      -1.756059      0.076928      0.220609
  C      -0.531168     -0.044601     -0.585925
  C       0.732892     -0.238181      0.235196
  H      -0.428427      0.854692     -1.197877
  H      -0.646542     -0.893334     -1.264833
  H       0.645162     -1.143670      0.845145
  H       0.878700      0.615827      0.905113
  H      -1.817494     -0.732189      0.833082
  H      -1.647336      0.869252      0.847221
  H       2.646746     -0.467913     -0.141731
  O      -5.632602     -0.641855     -1.243373
  C      -4.951230     -0.214029     -2.078797
  O      -4.284819      0.212901     -2.926643
14
Coordinates from ORCA-job ./orca E -398.972988823774
  O       1.846571     -0.355439     -0.665046
  N      -1.752871      0.076391      0.219244
  C      -0.532481     -0.044944     -0.590176
  C       0.730191     -0.238533      0.233829
  H      -0.430116      0.854810     -1.201900
  H      -0.647198     -0.891883     -1.271639
  H       0.640374     -1.144052      0.843433
  H       0.873765      0.615033      0.904693
  H      -1.820564     -0.733923      0.830261
  H      -1.651072      0.871301      0.844799
  H       2.646439     -0.467622     -0.136258
  O      -5.622497     -0.641379     -1.234638
  C      -4.949991     -0.213968     -2.077525
  O      -4.277530      0.212893     -2.919758
14
Coordinates from ORCA-job ./orca E -398.972995165632
  O       1.847697     -0.354986     -0.664869
  N      -1.751662      0.076044      0.220300
  C      -0.532822     -0.045701     -0.590810
  C       0.730234     -0.238880      0.232933
  H      -0.430633      0.853993     -1.202902
  H      -0.648092     -0.892101     -1.272747
  H       0.640387     -1.144606      0.842225
  H       0.872781      0.614588      0.904068
  H      -1.824084     -0.734723      0.830182
  H      -1.654248      0.872704      0.844407
  H       2.647211     -0.466278     -0.135407
  O      -5.620224     -0.640253     -1.232837
  C      -4.948642     -0.213710     -2.076741
  O      -4.274884      0.212595     -2.918480
14
Coordinates from ORCA-job ./orca E -398.973006538857
  O       1.848727     -0.353799     -0.665993
  N      -1.750122      0.075455      0.222819
  C      -0.533157     -0.047142     -0.590008
  C       0.731311     -0.239414      0.231979
  H      -0.431423      0.852173     -1.202921
  H      -0.650024     -0.893390     -1.271717
  H       0.642643     -1.145587      0.840806
  H       0.872888      0.614093      0.903211
  H      -1.829956     -0.735826      0.830580
  H      -1.659199      0.874727      0.844181
  H       2.648497     -0.463504     -0.136634
  O      -5.619210     -0.637914     -1.232608
  C      -4.946047     -0.213024     -2.075849
  O      -4.271912      0.211840     -2.918526
14
Coordinates from ORCA-job ./orca E -398.973015669999
  O       1.848493     -0.353052     -0.667344
  N      -1.749821      0.075171      0.224100
  C      -0.533275     -0.047789     -0.588607
  C       0.732218     -0.239529      0.231983
  H      -0.431923      0.851191     -1.202049
  H      -0.651097     -0.894476     -1.269627
  H       0.644847     -1.145894      0.840722
  H       0.873908      0.614097      0.903060
  H      -1.832439     -0.736310      0.830830
  H      -1.661191      0.875302      0.844283
  H       2.648930     -0.462224     -0.138865
  O      -5.619807     -0.636576     -1.233739
  C      -4.944814     -0.212551     -2.075959
  O      -4.271012      0.211328     -2.919469
14
Coordinates from ORCA-job ./orca E -398.973017102048
  O       1.847972     -0.352613     -0.668424
  N      -1.750023      0.075002      0.224671
  C      -0.533358     -0.048019     -0.587459
  C       0.732790     -0.239419      0.232222
  H      -0.432337      0.850691     -1.201305
  H      -0.651597     -0.895194     -1.267862
  H       0.646434     -1.145811      0.841062
  H       0.874898      0.614307      0.903111
  H      -1.833504     -0.736623      0.830909
  H      -1.662082      0.875266      0.844583
  H       2.649003     -0.461869     -0.140837
  O      -5.620325     -0.635745     -1.234691
  C      -4.944304     -0.212255     -2.076435
  O      -4.270549      0.210969     -2.920226
14
Coordinates from ORCA-job ./orca E -398.971716573973
  O       1.850783     -0.353635     -0.670053
  N      -1.779998      0.075076      0.209935
  C      -0.530582     -0.047110     -0.590063
  C       0.735125     -0.240233      0.229978
  H      -0.421092      0.853859     -1.204047
  H      -0.643524     -0.895320     -1.269275
  H       0.647537     -1.147045      0.838019
  H       0.877146      0.612590      0.902034
  H      -1.844806     -0.746272      0.835189
  H      -1.676044      0.889503      0.849624
  H       2.651379     -0.464066     -0.142047
  O      -5.624508     -0.637808     -1.234159
  C      -4.920928     -0.213171     -2.054698
  O      -4.267470      0.212319     -2.921118
14
Coordinates from ORCA-job ./orca E -398.972796940961
  O       1.842656     -0.354063     -0.663091
  N      -1.770085      0.075039      0.200936
  C      -0.533215     -0.044560     -0.594567
  C       0.725503     -0.239651      0.233729
  H      -0.425594      0.856310     -1.203960
  H      -0.644234     -0.891698     -1.275703
  H       0.634317     -1.146671      0.840911
  H       0.866680      0.612945      0.906317
  H      -1.829859     -0.733244      0.816119
  H      -1.665370      0.868888      0.829211
  H       2.641295     -0.465806     -0.132451
  O      -5.605659     -0.638952     -1.218073
  C      -4.920118     -0.212728     -2.051079
  O      -4.263298      0.212878     -2.908980
14
Coordinates from ORCA-job ./orca E -398.972913298220
  O       1.841888     -0.354301     -0.659505
  N      -1.766331      0.074450      0.197649
  C      -0.534905     -0.044141     -0.599124
  C       0.721212     -0.239660      0.233495
  H      -0.427501      0.857190     -1.207361
  H      -0.644155     -0.890325     -1.282245
  H       0.627761     -1.146702      0.840332
  H       0.860698      0.612639      0.906858
  H      -1.828853     -0.734138      0.811169
  H      -1.665059      0.867897      0.824368
  H       2.638920     -0.466116     -0.126386
  O      -5.593423     -0.638524     -1.207821
  C      -4.919500     -0.212606     -2.050065
  O      -4.257734      0.213024     -2.902044
14
Coordinates from ORCA-job ./orca E -398.972977167520
  O       1.843215     -0.354098     -0.657516
  N      -1.763776      0.073523      0.197367
  C      -0.536405     -0.044841     -0.602437
  C       0.719100     -0.239870      0.232116
  H      -0.429145      0.856708     -1.210646
  H      -0.644681     -0.890047     -1.287080
  H       0.624396     -1.146914      0.838725
  H       0.856676      0.612237      0.906030
  H      -1.832820     -0.736213      0.809164
  H      -1.668672      0.869412      0.822747
  H       2.638994     -0.464983     -0.122369
  O      -5.584232     -0.637000     -1.200382
  C      -4.917971     -0.211973     -2.049106
  O      -4.251660      0.212745     -2.897294
14
Coordinates from ORCA-job ./orca E -398.972987433959
  O       1.844203     -0.353405     -0.657922
  N      -1.762469      0.072728      0.199134
  C      -0.537157     -0.046026     -0.602668
  C       0.719321     -0.240040      0.231100
  H      -0.430344      0.855295     -1.211523
  H      -0.645880     -0.890975     -1.287458
  H       0.625139     -1.147161      0.837662
  H       0.855985      0.612180      0.904973
  H      -1.837635     -0.737694      0.809193
  H      -1.672664      0.870599      0.822799
  H       2.639901     -0.462967     -0.122438
  O      -5.581469     -0.634788     -1.198564
  C      -4.915899     -0.211288     -2.048600
  O      -4.248014      0.212231     -2.896368
14
Coordinates from ORCA-job ./orca E -398.972999526285
  O       1.844618     -0.352193     -0.660078
  N      -1.761196      0.071661      0.202385
  C      -0.537879     -0.047809     -0.600964
  C       0.720743     -0.240152      0.230251
  H      -0.432119      0.852890     -1.211096
  H      -0.648094     -0.893048     -1.285035
  H       0.628524     -1.147376      0.836986
  H       0.856992      0.612497      0.903611
  H      -1.844211     -0.739548      0.809782
  H      -1.678030      0.871829      0.823579
  H       2.641112     -0.459877     -0.125429
  O      -5.580686     -0.631403     -1.199188
  C      -4.912685     -0.210022     -2.048362
  O      -4.244070      0.211238     -2.897122
14
Coordinates from ORCA-job ./orca E -398.973007630023
  O       1.844112     -0.351504     -0.661859
  N      -1.761064      0.071147      0.203960
  C      -0.538082     -0.048577     -0.599179
  C       0.721819     -0.240023      0.230293
  H      -0.433131      0.851651     -1.210143
  H      -0.649267     -0.894386     -1.282412
  H       0.631191     -1.147225      0.837326
  H       0.858405      0.612967      0.903182
  H      -1.846811     -0.740434      0.810091
  H      -1.680167      0.871904      0.824298
  H       2.641479     -0.458584     -0.128365
  O      -5.581504     -0.629501     -1.200761
  C      -4.911233     -0.209389     -2.048777
  O      -4.242728      0.210642     -2.898336
14
Coordinates from ORCA-job ./orca E -398.973008830696
  O       1.843549     -0.351196     -0.662933
  N      -1.761332      0.070861      0.204555
  C      -0.538155     -0.048788     -0.598056
  C       0.722368     -0.239766      0.230513
  H      -0.433776      0.851126     -1.209555
  H      -0.649710     -0.895063     -1.280709
  H       0.632690     -1.146839      0.837879
  H       0.859408      0.613455      0.903051
  H      -1.847637     -0.740980      0.810118
  H      -1.680938      0.871512      0.824938
  H       2.641486     -0.458382     -0.130288
  O      -5.582012     -0.628490     -1.201741
  C      -4.910756     -0.209008     -2.049307
  O      -4.242168      0.210247     -2.899144
14
Coordinates from ORCA-job ./orca E -398.971707776417
  O       1.846433     -0.352238     -0.664349
  N      -1.791234      0.070931      0.189847
  C      -0.535299     -0.047832     -0.600919
  C       0.724610     -0.240562      0.228261
  H      -0.422503      0.854363     -1.212591
  H      -0.641595     -0.895133     -1.282376
  H       0.633572     -1.148050      0.834809
  H       0.861447      0.611767      0.901970
  H      -1.858778     -0.750668      0.814348
  H      -1.694824      0.885691      0.829966
  H       2.643829     -0.460611     -0.131132
  O      -5.586168     -0.630574     -1.201031
  C      -4.887318     -0.209951     -2.027539
  O      -4.239154      0.211554     -2.899944
14
Coordinates from ORCA-job ./orca E -398.972785983059
  O       1.838264     -0.352626     -0.657281
  N      -1.781102      0.070810      0.180753
  C      -0.537976     -0.045430     -0.605560
  C       0.714808     -0.239937      0.231924
  H      -0.427141      0.856602     -1.212633
  H      -0.642400     -0.891663     -1.288868
  H       0.620155     -1.147562      0.837677
  H       0.850633      0.612249      0.906079
  H      -1.843495     -0.737771      0.795267
  H      -1.683613      0.865042      0.809598
  H       2.633620     -0.462193     -0.121316
  O      -5.567201     -0.631629     -1.184813
  C      -4.886462     -0.209360     -2.023715
  O      -4.235073      0.212155     -2.887793
14
Coordinates from ORCA-job ./orca E -398.972902064178
  O       1.837505     -0.352823     -0.653657
  N      -1.777321      0.070133      0.177455
  C      -0.539696     -0.045107     -0.610118
  C       0.710494     -0.239899      0.231640
  H      -0.429150      0.857353     -1.216083
  H      -0.642354     -0.890406     -1.295354
  H       0.613605     -1.147497      0.837120
  H       0.844544      0.612057      0.906484
  H      -1.842395     -0.738764      0.790320
  H      -1.683150      0.863907      0.804823
  H       2.631222     -0.462392     -0.115186
  O      -5.554927     -0.631016     -1.174545
  C      -4.885836     -0.209177     -2.022671
  O      -4.229524      0.212318     -2.880909
14
Coordinates from ORCA-job ./orca E -398.972965607914
  O       1.838816     -0.352592     -0.651697
  N      -1.774846      0.069113      0.177220
  C      -0.541230     -0.045867     -0.613362
  C       0.708417     -0.240053      0.230229
  H      -0.430902      0.856773     -1.219384
  H      -0.642866     -0.890227     -1.300061
  H       0.610329     -1.147600      0.835569
  H       0.840533      0.611781      0.905529
  H      -1.846364     -0.740944      0.788348
  H      -1.686740      0.865208      0.803337
  H       2.631283     -0.461185     -0.111225
  O      -5.545691     -0.629274     -1.167138
  C      -4.884316     -0.208462     -2.021776
  O      -4.223405      0.212016     -2.876270
14
Coordinates from ORCA-job ./orca E -398.972975596771
  O       1.839767     -0.351888     -0.652143
  N      -1.773612      0.068244      0.179033
  C      -0.542007     -0.047065     -0.613540
  C       0.708659     -0.240184      0.229214
  H      -0.432181      0.855321     -1.220265
  H      -0.644024     -0.891200     -1.300364
  H       0.611125     -1.147771      0.834571
  H       0.839872      0.611808      0.904413
  H      -1.851187     -0.742527      0.788372
  H      -1.690748      0.866218      0.803511
  H       2.632176     -0.459131     -0.111365
  O      -5.542872     -0.626871     -1.165319
  C      -4.882241     -0.207725     -2.021354
  O      -4.219710      0.211457     -2.875445
14
Coordinates from ORCA-job ./orca E -398.972987710764
  O       1.840148     -0.350660     -0.654357
  N      -1.772394      0.067066      0.182380
  C      -0.542780     -0.048868     -0.611783
  C       0.710104     -0.240246      0.228373
  H      -0.434097      0.852869     -1.219853
  H      -0.646210     -0.893328     -1.297880
  H       0.614575     -1.147893      0.833985
  H       0.840919      0.612223      0.903003
  H      -1.857834     -0.744567      0.788918
  H      -1.696188      0.867232      0.804457
  H       2.633390     -0.455960     -0.114454
  O      -5.541975     -0.623188     -1.165901
  C      -4.878974     -0.206356     -2.021215
  O      -4.215666      0.210364     -2.876352
14
Coordinates from ORCA-job ./orca E -398.972996122769
  O       1.839629     -0.349942     -0.656174
  N      -1.772251      0.066482      0.184022
  C      -0.543014     -0.049666     -0.609974
  C       0.711185     -0.240094      0.228426
  H      -0.435196      0.851595     -1.218900
  H      -0.647399     -0.894717     -1.295224
  H       0.617281     -1.147704      0.834369
  H       0.842339      0.612732      0.902565
  H      -1.860482     -0.745578      0.789187
  H      -1.698349      0.867201      0.805259
  H       2.633774     -0.454576     -0.117442
  O      -5.542753     -0.621077     -1.167446
  C      -4.877458     -0.205660     -2.021666
  O      -4.214286      0.209690     -2.877682
14
Coordinates from ORCA-job ./orca E -398.972997635626
  O       1.839061     -0.349594     -0.657275
  N      -1.772511      0.066145      0.184661
  C      -0.543106     -0.049916     -0.608828
  C       0.711741     -0.239818      0.228654
  H      -0.435902      0.851027     -1.218305
  H      -0.647874     -0.895450     -1.293478
  H       0.618831     -1.147295      0.834950
  H       0.843341      0.613249      0.902435
  H      -1.861333     -0.746214      0.789187
  H      -1.699110      0.866736      0.805957
  H       2.633799     -0.454289     -0.119404
  O      -5.543253     -0.619903     -1.168416
  C      -4.876940     -0.205217     -2.022218
  O      -4.213728      0.209227     -2.878601
14
Coordinates from ORCA-job ./orca E -398.971694080475
  O       1.842018     -0.350654     -0.658462
  N      -1.802325      0.066212      0.169969
  C      -0.540165     -0.048914     -0.611967
  C       0.713882     -0.240592      0.226394
  H      -0.424601      0.854330     -1.221652
  H      -0.639720     -0.895461     -1.295416
  H       0.619478     -1.148476      0.831852
  H       0.845155      0.611599      0.901346
  H      -1.872298     -0.755956      0.793353
  H      -1.712899      0.880848      0.810973
  H       2.636101     -0.456546     -0.119857
  O      -5.547378     -0.622003     -1.167510
  C      -4.853444     -0.206190     -2.000406
  O      -4.210787      0.210489     -2.879299
14
Coordinates from ORCA-job ./orca E -398.972770008619
  O       1.833773     -0.350952     -0.651395
  N      -1.792030      0.066020      0.160832
  C      -0.542916     -0.046702     -0.616639
  C       0.703951     -0.239944      0.229979
  H      -0.429367      0.856315     -1.221724
  H      -0.640657     -0.892229     -1.301817
  H       0.606021     -1.147927      0.834680
  H       0.834077      0.612164      0.905310
  H      -1.856806     -0.743134      0.774340
  H      -1.701237      0.860223      0.790634
  H       2.625792     -0.457890     -0.110011
  O      -5.528331     -0.622918     -1.151242
  C      -4.852503     -0.205457     -1.996449
  O      -4.206748      0.211119     -2.867180
14
Coordinates from ORCA-job ./orca E -398.972885828395
  O       1.832980     -0.351054     -0.647839
  N      -1.788271      0.065281      0.157570
  C      -0.544695     -0.046502     -0.621103
  C       0.699652     -0.239884      0.229657
  H      -0.431468      0.856907     -1.225134
  H      -0.640676     -0.891149     -1.308105
  H       0.599614     -1.147833      0.834115
  H       0.827957      0.612027      0.905629
  H      -1.855732     -0.744167      0.769475
  H      -1.700696      0.859011      0.785920
  H       2.623381     -0.457913     -0.104000
  O      -5.516036     -0.622101     -1.141040
  C      -4.851840     -0.205210     -1.995436
  O      -4.201153      0.211271     -2.860389
14
Coordinates from ORCA-job ./orca E -398.972949367211
  O       1.834236     -0.350721     -0.645991
  N      -1.785900      0.064197      0.157407
  C      -0.546294     -0.047349     -0.624210
  C       0.697627     -0.240022      0.228226
  H      -0.433311      0.856194     -1.228380
  H      -0.641211     -0.891122     -1.312588
  H       0.596539     -1.147918      0.832571
  H       0.823986      0.611792      0.904611
  H      -1.859824     -0.746385      0.767594
  H      -1.704340      0.860184      0.784532
  H       2.623434     -0.456547     -0.100237
  O      -5.506717     -0.620119     -1.133695
  C      -4.850299     -0.204418     -1.994652
  O      -4.194908      0.210919     -2.855869
14
Coordinates from ORCA-job ./orca E -398.972959358089
  O       1.835135     -0.349952     -0.646513
  N      -1.784746      0.063285      0.159276
  C      -0.547108     -0.048568     -0.624304
  C       0.697902     -0.240145      0.227222
  H      -0.434652      0.854696     -1.229234
  H      -0.642354     -0.892156     -1.312776
  H       0.597451     -1.148090      0.831590
  H       0.823369      0.611828      0.903501
  H      -1.864718     -0.748011      0.767649
  H      -1.708406      0.861093      0.784790
  H       2.624313     -0.454420     -0.100513
  O      -5.503829     -0.617539     -1.131898
  C      -4.848209     -0.203638     -1.994327
  O      -4.191131      0.210303     -2.855143
14
Coordinates from ORCA-job ./orca E -398.972971540056
  O       1.835472     -0.348646     -0.648798
  N      -1.783573      0.062038      0.162711
  C      -0.547927     -0.050385     -0.622483
  C       0.699362     -0.240194      0.226395
  H      -0.436662      0.852204     -1.228817
  H      -0.644521     -0.894331     -1.310216
  H       0.600985     -1.148205      0.831024
  H       0.824431      0.612251      0.902114
  H      -1.871449     -0.750161      0.768182
  H      -1.713932      0.861974      0.785849
  H       2.625519     -0.451165     -0.103719
  O      -5.502816     -0.613604     -1.132451
  C      -4.844883     -0.202195     -1.994282
  O      -4.186989      0.209107     -2.856190
14
Coordinates from ORCA-job ./orca E -398.972980240025
  O       1.834958     -0.347882     -0.650642
  N      -1.783419      0.061404      0.164419
  C      -0.548184     -0.051204     -0.620651
  C       0.700458     -0.240028      0.226458
  H      -0.437828      0.850901     -1.227862
  H      -0.645733     -0.895748     -1.307539
  H       0.603741     -1.148006      0.831426
  H       0.825860      0.612772      0.901695
  H      -1.874158     -0.751271      0.768415
  H      -1.716142      0.861873      0.786715
  H       2.625929     -0.449718     -0.106750
  O      -5.503563     -0.611322     -1.133979
  C      -4.843308     -0.201445     -1.994758
  O      -4.185592      0.208359     -2.857628
14
Coordinates from ORCA-job ./orca E -398.972981960221
  O       1.834405     -0.347511     -0.651732
  N      -1.783664      0.061034      0.165074
  C      -0.548282     -0.051468     -0.619514
  C       0.701009     -0.239739      0.226697
  H      -0.438564      0.850327     -1.227273
  H      -0.646222     -0.896494     -1.305808
  H       0.605290     -1.147583      0.832030
  H       0.826844      0.613306      0.901575
  H      -1.874992     -0.751976      0.768375
  H      -1.716873      0.861348      0.787450
  H       2.625972     -0.449397     -0.108693
  O      -5.504054     -0.610042     -1.134919
  C      -4.842773     -0.200966     -1.995313
  O      -4.185078      0.207848     -2.858629
14
Coordinates from ORCA-job ./orca E -398.971674625758
  O       1.837433     -0.348586     -0.652682
  N      -1.813381      0.061096      0.150393
  C      -0.545252     -0.050426     -0.622936
  C       0.703044     -0.240488      0.224426
  H      -0.427233      0.853688     -1.230939
  H      -0.638032     -0.896448     -1.308024
  H       0.605698     -1.148730      0.828905
  H       0.828425      0.611702      0.900469
  H      -1.885778     -0.761784      0.772473
  H      -1.730553      0.875390      0.792454
  H       2.628228     -0.451675     -0.108744
  O      -5.508147     -0.612152     -1.133809
  C      -4.819220     -0.201967     -1.973447
  O      -4.182214      0.209066     -2.859220
14
Coordinates from ORCA-job ./orca E -398.972748174190
  O       1.829113     -0.348801     -0.645629
  N      -1.802925      0.060850      0.141231
  C      -0.548073     -0.048389     -0.627626
  C       0.692992     -0.239821      0.227929
  H      -0.432116      0.855439     -1.231029
  H      -0.639105     -0.893440     -1.314325
  H       0.592202     -1.148129      0.831680
  H       0.817099      0.612336      0.904293
  H      -1.870082     -0.749009      0.753546
  H      -1.718464      0.854813      0.772143
  H       2.617818     -0.452817     -0.098885
  O      -5.489027     -0.612955     -1.117508
  C      -4.818178     -0.201109     -1.969359
  O      -4.178235      0.209717     -2.847142
14
Coordinates from ORCA-job ./orca E -398.972863698471
  O       1.828294     -0.348816     -0.642139
  N      -1.799190      0.060071      0.138007
  C      -0.549905     -0.048287     -0.631994
  C       0.688717     -0.239748      0.227568
  H      -0.434296      0.855900     -1.234386
  H      -0.639193     -0.892503     -1.320427
  H       0.585933     -1.148021      0.831094
  H       0.810960      0.612236      0.904534
  H      -1.869035     -0.750058      0.748769
  H      -1.717858      0.853555      0.767486
  H       2.615396     -0.452708     -0.092985
  O      -5.476708     -0.611978     -1.107381
  C      -4.817478     -0.200814     -1.968374
  O      -4.172619      0.209858     -2.840451
14
Coordinates from ORCA-job ./orca E -398.972927296807
  O       1.829503     -0.348380     -0.640391
  N      -1.796913      0.058950      0.137904
  C      -0.551565     -0.049197     -0.634971
  C       0.686739     -0.239885      0.226118
  H      -0.436215      0.855093     -1.237569
  H      -0.639756     -0.892586     -1.324714
  H       0.583034     -1.148122      0.829528
  H       0.807023      0.612002      0.903486
  H      -1.873245     -0.752278      0.746973
  H      -1.721569      0.854646      0.766165
  H       2.615435     -0.451228     -0.089396
  O      -5.467269     -0.609804     -1.100078
  C      -4.815917     -0.199975     -1.967694
  O      -4.166267      0.209452     -2.836040
14
Coordinates from ORCA-job ./orca E -398.972937259296
  O       1.830353     -0.347550     -0.640981
  N      -1.795834      0.058016      0.139815
  C      -0.552405     -0.050418     -0.634987
  C       0.687042     -0.240012      0.225126
  H      -0.437592      0.853574     -1.238380
  H      -0.640882     -0.893645     -1.324805
  H       0.584044     -1.148316      0.828544
  H       0.806445      0.612019      0.902404
  H      -1.878200     -0.753917      0.747059
  H      -1.725695      0.855483      0.766484
  H       2.616293     -0.449062     -0.089795
  O      -5.464293     -0.607094     -1.098293
  C      -4.813818     -0.199168     -1.967456
  O      -4.162439      0.208777     -2.835415
14
Coordinates from ORCA-job ./orca E -398.972949601945
  O       1.830657     -0.346164     -0.643322
  N      -1.794713      0.056732      0.143316
  C      -0.553257     -0.052226     -0.633106
  C       0.688527     -0.240067      0.224324
  H      -0.439658      0.851083     -1.237935
  H      -0.643032     -0.895823     -1.322199
  H       0.587662     -1.148470      0.827975
  H       0.807536      0.612402      0.901084
  H      -1.885020     -0.756129      0.747579
  H      -1.731321      0.856277      0.767619
  H       2.617499     -0.445759     -0.093101
  O      -5.463152     -0.602958     -1.098806
  C      -4.810454     -0.197685     -1.967501
  O      -4.158255      0.207475     -2.836607
14
Coordinates from ORCA-job ./orca E -398.972958532313
  O       1.830155     -0.345355     -0.645179
  N      -1.794541      0.056065      0.145072
  C      -0.553527     -0.053051     -0.631258
  C       0.689630     -0.239901      0.224400
  H      -0.440864      0.849777     -1.236967
  H      -0.644263     -0.897240     -1.319525
  H       0.590440     -1.148284      0.828379
  H       0.808962      0.612909      0.900703
  H      -1.887778     -0.757313      0.747767
  H      -1.733579      0.856131      0.768526
  H       2.617936     -0.444270     -0.096156
  O      -5.463852     -0.600538     -1.100299
  C      -4.808829     -0.196894     -1.967993
  O      -4.156871      0.206651     -2.838151
14
Coordinates from ORCA-job ./orca E -398.972960438310
  O       1.829621     -0.344956     -0.646254
  N      -1.794766      0.055671      0.145736
  C      -0.553623     -0.053323     -0.630129
  C       0.690177     -0.239606      0.224649
  H      -0.441613      0.849206     -1.236372
  H      -0.644764     -0.897984     -1.317815
  H       0.591984     -1.147860      0.828986
  H       0.809928      0.613440      0.900610
  H      -1.888608     -0.758075      0.747679
  H      -1.734294      0.855565      0.769281
  H       2.617998     -0.443925     -0.098075
  O      -5.464325     -0.599164     -1.101199
  C      -4.808277     -0.196391     -1.968545
  O      -4.156419      0.206088     -2.839232
14
Coordinates from ORCA-job ./orca E -398.971486975623
  O       1.833759     -0.345856     -0.646909
  N      -1.825733      0.055899      0.131881
  C      -0.549434     -0.052210     -0.634407
  C       0.692905     -0.240454      0.222144
  H      -0.429574      0.852495     -1.240866
  H      -0.631626     -0.898305     -1.321623
  H       0.592900     -1.149259      0.825358
  H       0.811971      0.611698      0.899353
  H      -1.901808     -0.767692      0.752730
  H      -1.749905      0.869626      0.774681
  H       2.621108     -0.446079     -0.097479
  O      -5.473849     -0.601287     -1.098255
  C      -4.785168     -0.197255     -1.947017
  O      -4.152529      0.207366     -2.840272
14
Coordinates from ORCA-job ./orca E -398.972692480119
  O       1.824118     -0.346418     -0.639961
  N      -1.813714      0.055689      0.121995
  C      -0.553294     -0.050028     -0.638752
  C       0.681823     -0.239624      0.225822
  H      -0.435610      0.854503     -1.240614
  H      -0.636432     -0.895029     -1.326500
  H       0.578236     -1.148356      0.828417
  H       0.799993      0.612502      0.903262
  H      -1.883434     -0.754997      0.732861
  H      -1.735316      0.849406      0.753916
  H       2.609457     -0.447782     -0.087912
  O      -5.450044     -0.603030     -1.083691
  C      -4.783452     -0.196130     -1.942321
  O      -4.149312      0.207982     -2.827202
14
Coordinates from ORCA-job ./orca E -398.972835709710
  O       1.823210     -0.346253     -0.636756
  N      -1.809942      0.054885      0.118930
  C      -0.555553     -0.050143     -0.642760
  C       0.677522     -0.239530      0.225324
  H      -0.438040      0.854685     -1.243824
  H      -0.638206     -0.894352     -1.331964
  H       0.572180     -1.148248      0.827731
  H       0.793764      0.612392      0.903398
  H      -1.882253     -0.756130      0.728441
  H      -1.734472      0.848308      0.749511
  H       2.607043     -0.447399     -0.082448
  O      -5.436286     -0.601668     -1.074031
  C      -4.782367     -0.196336     -1.941588
  O      -4.143583      0.208474     -2.820644
14
Coordinates from ORCA-job ./orca E -398.972886210082
  O       1.824263     -0.345800     -0.635487
  N      -1.808045      0.053908      0.119288
  C      -0.557355     -0.051149     -0.645198
  C       0.675786     -0.239699      0.223817
  H      -0.439865      0.853661     -1.246638
  H      -0.639714     -0.894523     -1.335661
  H       0.569840     -1.148354      0.826236
  H       0.790203      0.612190      0.902172
  H      -1.886581     -0.758009      0.727271
  H      -1.738302      0.849286      0.748683
  H       2.607120     -0.445846     -0.079633
  O      -5.426539     -0.599736     -1.067396
  C      -4.780615     -0.195504     -1.941241
  O      -4.137177      0.208263     -2.816896
14
Coordinates from ORCA-job ./orca E -398.972908675069
  O       1.825023     -0.344868     -0.636212
  N      -1.807022      0.052964      0.121471
  C      -0.558309     -0.052504     -0.645154
  C       0.676063     -0.239914      0.222753
  H      -0.441272      0.851962     -1.247442
  H      -0.641048     -0.895587     -1.335881
  H       0.571007     -1.148636      0.825212
  H       0.789480      0.612149      0.900982
  H      -1.891862     -0.759583      0.727590
  H      -1.742695      0.850091      0.749201
  H       2.607933     -0.443448     -0.080210
  O      -5.423091     -0.596789     -1.065346
  C      -4.778228     -0.194771     -1.941225
  O      -4.132962      0.207621     -2.816421
14
Coordinates from ORCA-job ./orca E -398.972925579172
  O       1.825170     -0.343569     -0.638499
  N      -1.805987      0.051806      0.124960
  C      -0.559184     -0.054207     -0.643356
  C       0.677394     -0.240055      0.221998
  H      -0.443271      0.849622     -1.246964
  H      -0.643025     -0.897493     -1.333608
  H       0.574452     -1.148863      0.824713
  H       0.790407      0.612451      0.899729
  H      -1.898346     -0.761591      0.728219
  H      -1.748027      0.850823      0.750444
  H       2.608967     -0.440326     -0.083455
  O      -5.421749     -0.592935     -1.065711
  C      -4.774877     -0.193235     -1.941390
  O      -4.128905      0.206261     -2.817758
14
Coordinates from ORCA-job ./orca E -398.972929331465
  O       1.824675     -0.342656     -0.640408
  N      -1.805734      0.051085      0.126866
  C      -0.559508     -0.055078     -0.641478
  C       0.678504     -0.239922      0.222064
  H      -0.444629      0.848295     -1.245959
  H      -0.644187     -0.898936     -1.330936
  H       0.577322     -1.148753      0.825053
  H       0.791790      0.612886      0.899397
  H      -1.901310     -0.762891      0.728405
  H      -1.750382      0.850708      0.751391
  H       2.609439     -0.438695     -0.086582
  O      -5.422424     -0.590174     -1.067149
  C      -4.773065     -0.192446     -1.941901
  O      -4.127474      0.205264     -2.819444
14
Coordinates from ORCA-job ./orca E -398.972931491144
  O       1.824170     -0.342224     -0.641483
  N      -1.805921      0.050675      0.127564
  C      -0.559629     -0.055326     -0.640341
  C       0.679055     -0.239620      0.222314
  H      -0.445467      0.847777     -1.245330
  H      -0.644651     -0.899683     -1.329189
  H       0.578853     -1.148355      0.825608
  H       0.792779      0.613380      0.899359
  H      -1.902185     -0.763722      0.728263
  H      -1.751083      0.850157      0.752144
  H       2.609531     -0.438352     -0.088500
  O      -5.422879     -0.588709     -1.068060
  C      -4.772490     -0.191866     -1.942411
  O      -4.127066      0.204556     -2.820618
14
Coordinates from ORCA-job ./orca E -398.971446906648
  O       1.828377     -0.343128     -0.641901
  N      -1.836779      0.050890      0.113719
  C      -0.555339     -0.054191     -0.644909
  C       0.681681     -0.240439      0.219791
  H      -0.433394      0.851100     -1.250150
  H      -0.631474     -0.899993     -1.333340
  H       0.579547     -1.149715      0.821950
  H       0.794583      0.611695      0.898065
  H      -1.915232     -0.773420      0.733262
  H      -1.766592      0.864157      0.757544
  H       2.612588     -0.440501     -0.087501
  O      -5.432384     -0.590810     -1.064847
  C      -4.749326     -0.192747     -1.920819
  O      -4.123239      0.205790     -2.821546
14
Coordinates from ORCA-job ./orca E -398.972651488406
  O       1.818668     -0.343606     -0.635010
  N      -1.824622      0.050641      0.103842
  C      -0.559270     -0.052151     -0.649227
  C       0.670514     -0.239591      0.223387
  H      -0.439546      0.852910     -1.249887
  H      -0.636390     -0.896897     -1.338003
  H       0.564876     -1.148783      0.824934
  H       0.782434      0.612542      0.901859
  H      -1.896682     -0.760744      0.713503
  H      -1.751637      0.843993      0.736806
  H       2.600860     -0.442040     -0.077993
  O      -5.408585     -0.592420     -1.050353
  C      -4.747492     -0.191559     -1.916011
  O      -4.120109      0.206392     -2.808529
14
Coordinates from ORCA-job ./orca E -398.972793862925
  O       1.817738     -0.343361     -0.631888
  N      -1.820891      0.049820      0.100814
  C      -0.561577     -0.052320     -0.653116
  C       0.666259     -0.239487      0.222862
  H      -0.442049      0.853019     -1.253006
  H      -0.638210     -0.896326     -1.343252
  H       0.558961     -1.148686      0.824207
  H       0.776252      0.612430      0.901965
  H      -1.895539     -0.761870      0.709164
  H      -1.750755      0.842885      0.732447
  H       2.598444     -0.441579     -0.072670
  O      -5.394848     -0.590930     -1.040821
  C      -4.746392     -0.191735     -1.915302
  O      -4.114375      0.206826     -2.802084
14
Coordinates from ORCA-job ./orca E -398.972846625593
  O       1.818747     -0.342816     -0.630702
  N      -1.819082      0.048832      0.101196
  C      -0.563430     -0.053336     -0.655440
  C       0.664567     -0.239662      0.221352
  H      -0.443932      0.851974     -1.255730
  H      -0.639725     -0.896552     -1.346789
  H       0.556747     -1.148841      0.822666
  H       0.772748      0.612183      0.900770
  H      -1.899964     -0.763729      0.708040
  H      -1.754650      0.843821      0.731642
  H       2.598503     -0.439970     -0.070002
  O      -5.384988     -0.588834     -1.034211
  C      -4.744647     -0.190898     -1.915046
  O      -4.107876      0.206514     -2.798427
14
Coordinates from ORCA-job ./orca E -398.972867251001
  O       1.819462     -0.341829     -0.631482
  N      -1.818143      0.047889      0.103390
  C      -0.564396     -0.054658     -0.655322
  C       0.664876     -0.239887      0.220313
  H      -0.445346      0.850313     -1.256460
  H      -0.641020     -0.897596     -1.346936
  H       0.557988     -1.149169      0.821620
  H       0.772089      0.612089      0.899649
  H      -1.905285     -0.765287      0.708369
  H      -1.759100      0.844578      0.732194
  H       2.599296     -0.437582     -0.070686
  O      -5.381480     -0.585780     -1.032171
  C      -4.742288     -0.190162     -1.915109
  O      -4.103635      0.205765     -2.798049
14
Coordinates from ORCA-job ./orca E -398.972883864841
  O       1.819589     -0.340456     -0.633805
  N      -1.817152      0.046712      0.106912
  C      -0.565281     -0.056328     -0.653482
  C       0.666224     -0.240048      0.219584
  H      -0.447354      0.848019     -1.255929
  H      -0.642954     -0.899451     -1.344666
  H       0.561475     -1.149462      0.821090
  H       0.773036      0.612316      0.898489
  H      -1.911858     -0.767333      0.708964
  H      -1.764547      0.845254      0.733481
  H       2.600331     -0.434438     -0.074003
  O      -5.380034     -0.581719     -1.032465
  C      -4.738919     -0.188622     -1.915347
  O      -4.099539      0.204245     -2.799503
14
Coordinates from ORCA-job ./orca E -398.972888041516
  O       1.819118     -0.339502     -0.635707
  N      -1.816876      0.045968      0.108845
  C      -0.565605     -0.057186     -0.651601
  C       0.667341     -0.239926      0.219663
  H      -0.448722      0.846723     -1.254898
  H      -0.644113     -0.900851     -1.342037
  H       0.564352     -1.149384      0.821412
  H       0.774412      0.612710      0.898213
  H      -1.914871     -0.768696      0.709083
  H      -1.766965      0.845104      0.734449
  H       2.600832     -0.432785     -0.077121
  O      -5.380676     -0.578808     -1.033843
  C      -4.737074     -0.187802     -1.915859
  O      -4.098132      0.203122     -2.801280
14
Coordinates from ORCA-job ./orca E -398.972890419470
  O       1.818637     -0.339043     -0.636761
  N      -1.817037      0.045536      0.109541
  C      -0.565714     -0.057431     -0.650470
  C       0.667896     -0.239623      0.219930
  H      -0.449559      0.846227     -1.254252
  H      -0.644577     -0.901573     -1.340324
  H       0.565885     -1.148998      0.821971
  H       0.775393      0.613192      0.898215
  H      -1.915749     -0.769587      0.708871
  H      -1.767674      0.844514      0.735212
  H       2.600952     -0.432425     -0.079015
  O      -5.381147     -0.577218     -1.034710
  C      -4.736490     -0.187208     -1.916357
  O      -4.097799      0.202323     -2.802532
14
Coordinates from ORCA-job ./orca E -398.971371663019
  O       1.822299     -0.339498     -0.638413
  N      -1.848731      0.045548      0.096476
  C      -0.561792     -0.056853     -0.653723
  C       0.671011     -0.240256      0.217566
  H      -0.437506      0.848916     -1.257894
  H      -0.631691     -0.902639     -1.342990
  H       0.568498     -1.150511      0.818191
  H       0.778312      0.611725      0.896930
  H      -1.930267     -0.779242      0.714773
  H      -1.784177      0.858499      0.741100
  H       2.604166     -0.433891     -0.080208
  O      -5.391136     -0.578483     -1.032440
  C      -4.713073     -0.187714     -1.895639
  O      -4.092895      0.203084     -2.804410
14
Coordinates from ORCA-job ./orca E -398.972582761846
  O       1.811115     -0.340170     -0.634823
  N      -1.837843      0.046892      0.089030
  C      -0.566969     -0.053241     -0.654989
  C       0.660574     -0.240153      0.220909
  H      -0.444956      0.852178     -1.254727
  H      -0.637965     -0.897697     -1.344782
  H       0.555357     -1.151083      0.819915
  H       0.769135      0.610749      0.901432
  H      -1.913265     -0.764687      0.698021
  H      -1.771371      0.840574      0.722214
  H       2.592262     -0.437075     -0.076079
  O      -5.366653     -0.580555     -1.020680
  C      -4.709323     -0.187409     -1.892662
  O      -4.087081      0.200364     -2.793460
14
Coordinates from ORCA-job ./orca E -398.972734882415
  O       1.808969     -0.340515     -0.632578
  N      -1.833877      0.047058      0.086775
  C      -0.569767     -0.051769     -0.658418
  C       0.655900     -0.240334      0.220367
  H      -0.448236      0.854343     -1.256772
  H      -0.640484     -0.894946     -1.350327
  H       0.548403     -1.151671      0.818453
  H       0.763798      0.609561      0.902354
  H      -1.911315     -0.764728      0.694505
  H      -1.770641      0.840500      0.718426
  H       2.588810     -0.438824     -0.072182
  O      -5.351658     -0.579206     -1.011179
  C      -4.706783     -0.189627     -1.892565
  O      -4.080099      0.198844     -2.787539
14
Coordinates from ORCA-job ./orca E -398.972796194438
  O       1.809650     -0.340558     -0.630772
  N      -1.831324      0.046703      0.087235
  C      -0.571634     -0.051575     -0.661874
  C       0.653361     -0.240564      0.218672
  H      -0.450302      0.855140     -1.259671
  H      -0.642505     -0.893226     -1.355940
  H       0.544000     -1.152034      0.816241
  H       0.759687      0.608707      0.901657
  H      -1.914147     -0.766143      0.693380
  H      -1.773686      0.841989      0.717869
  H       2.587995     -0.439213     -0.068375
  O      -5.340427     -0.577699     -1.003425
  C      -4.704392     -0.189907     -1.891878
  O      -4.073260      0.197066     -2.783799
14
Coordinates from ORCA-job ./orca E -398.972811633659
  O       1.810880     -0.339778     -0.630410
  N      -1.829927      0.045880      0.089098
  C      -0.572261     -0.052593     -0.663056
  C       0.653159     -0.240755      0.217421
  H      -0.451338      0.854277     -1.260903
  H      -0.643956     -0.893436     -1.357914
  H       0.543733     -1.152281      0.814873
  H       0.757975      0.608543      0.900512
  H      -1.918110     -0.767727      0.693328
  H      -1.776897      0.842571      0.718391
  H       2.588633     -0.437534     -0.067071
  O      -5.336881     -0.574730     -1.000424
  C      -4.702209     -0.189648     -1.891286
  O      -4.069784      0.195895     -2.783240
14
Coordinates from ORCA-job ./orca E -398.972824686488
  O       1.811988     -0.338404     -0.630931
  N      -1.828461      0.044555      0.091688
  C      -0.572609     -0.054498     -0.662969
  C       0.653921     -0.240862      0.216477
  H      -0.452544      0.852237     -1.261300
  H      -0.645906     -0.895095     -1.357739
  H       0.545687     -1.152341      0.814243
  H       0.757105      0.609025      0.899032
  H      -1.922962     -0.770086      0.693023
  H      -1.780312      0.842578      0.719296
  H       2.589740     -0.434313     -0.067306
  O      -5.335707     -0.570727     -0.999457
  C      -4.699700     -0.187972     -1.890561
  O      -4.067221      0.194591     -2.784176
14
Coordinates from ORCA-job ./orca E -398.972830902644
  O       1.812217     -0.337149     -0.631944
  N      -1.827940      0.043451      0.093135
  C      -0.572712     -0.056011     -0.661837
  C       0.654908     -0.240777      0.216414
  H      -0.453483      0.850356     -1.260901
  H      -0.647117     -0.897123     -1.355793
  H       0.548392     -1.152157      0.814649
  H       0.757315      0.609725      0.898322
  H      -1.925840     -0.771956      0.692451
  H      -1.781985      0.841887      0.719971
  H       2.590549     -0.431601     -0.068858
  O      -5.336445     -0.567295     -1.000093
  C      -4.698349     -0.186626     -1.890601
  O      -4.066492      0.193962     -2.785595
14
Coordinates from ORCA-job ./orca E -398.972837906508
  O       1.812004     -0.336198     -0.632960
  N      -1.828033      0.042575      0.093777
  C      -0.572796     -0.057029     -0.660582
  C       0.655696     -0.240499      0.216701
  H      -0.454274      0.848854     -1.260516
  H      -0.647686     -0.898917     -1.353571
  H       0.550776     -1.151703      0.815483
  H       0.757900      0.610527      0.898016
  H      -1.927549     -0.773469      0.691741
  H      -1.782825      0.840832      0.720671
  H       2.591019     -0.429802     -0.070659
  O      -5.337066     -0.564749     -1.000844
  C      -4.697870     -0.185302     -1.891041
  O      -4.066278      0.193567     -2.786896
14
Coordinates from ORCA-job ./orca E -398.971291078700
  O       1.815702     -0.336653     -0.634560
  N      -1.859708      0.042559      0.080779
  C      -0.568825     -0.056433     -0.663926
  C       0.658803     -0.241107      0.214315
  H      -0.442212      0.851575     -1.264288
  H      -0.634792     -0.900003     -1.356371
  H       0.553351     -1.153179      0.811683
  H       0.760768      0.609092      0.896699
  H      -1.942095     -0.783205      0.697683
  H      -1.799405      0.854802      0.726620
  H       2.594234     -0.431265     -0.071757
  O      -5.347084     -0.565965     -0.998469
  C      -4.674389     -0.185768     -1.870343
  O      -4.061327      0.194236     -2.788744
14
Coordinates from ORCA-job ./orca E -398.972507530313
  O       1.804435     -0.337302     -0.630997
  N      -1.848708      0.043825      0.073212
  C      -0.574030     -0.052978     -0.665146
  C       0.648320     -0.240972      0.217682
  H      -0.449719      0.854520     -1.261237
  H      -0.640955     -0.895320     -1.357901
  H       0.540316     -1.153640      0.813545
  H       0.751464      0.608253      0.901114
  H      -1.925036     -0.768703      0.680843
  H      -1.786351      0.836798      0.707676
  H       2.582286     -0.434189     -0.067678
  O      -5.322670     -0.568004     -0.986781
  C      -4.670633     -0.185374     -1.867315
  O      -4.055702      0.191774     -2.777697
14
Coordinates from ORCA-job ./orca E -398.972658922620
  O       1.802269     -0.337592     -0.628855
  N      -1.844831      0.043924      0.070899
  C      -0.576856     -0.051660     -0.668391
  C       0.643753     -0.241116      0.217180
  H      -0.453020      0.856372     -1.263317
  H      -0.643349     -0.892876     -1.363066
  H       0.533673     -1.154134      0.812233
  H       0.746232      0.607181      0.901970
  H      -1.923329     -0.768806      0.677269
  H      -1.785681      0.836612      0.703904
  H       2.578902     -0.435671     -0.063986
  O      -5.307740     -0.566622     -0.977482
  C      -4.668212     -0.187414     -1.867255
  O      -4.048794      0.190487     -2.771784
14
Coordinates from ORCA-job ./orca E -398.972727147688
  O       1.802880     -0.337530     -0.627262
  N      -1.842480      0.043514      0.071335
  C      -0.578761     -0.051629     -0.671534
  C       0.641396     -0.241313      0.215561
  H      -0.455104      0.856812     -1.266202
  H      -0.645195     -0.891526     -1.368143
  H       0.529744     -1.154438      0.810186
  H       0.742377      0.606415      0.901260
  H      -1.926607     -0.770260      0.676101
  H      -1.788944      0.837966      0.703401
  H       2.578172     -0.435745     -0.060590
  O      -5.296563     -0.565003     -0.969977
  C      -4.665944     -0.187544     -1.866731
  O      -4.041954      0.188968     -2.768086
14
Coordinates from ORCA-job ./orca E -398.972758010906
  O       1.804014     -0.336732     -0.627072
  N      -1.841209      0.042678      0.073200
  C      -0.579425     -0.052696     -0.672497
  C       0.641302     -0.241473      0.214373
  H      -0.456174      0.855769     -1.267426
  H      -0.646512     -0.891919     -1.369770
  H       0.529736     -1.154638      0.808947
  H       0.740901      0.606312      0.900126
  H      -1.930915     -0.771880      0.675972
  H      -1.792364      0.838465      0.703994
  H       2.578825     -0.433957     -0.059609
  O      -5.292922     -0.562038     -0.967123
  C      -4.663814     -0.187173     -1.866261
  O      -4.038425      0.187968     -2.767536
14
Coordinates from ORCA-job ./orca E -398.972747230884
  O       1.805045     -0.335315     -0.627769
  N      -1.839806      0.041331      0.075869
  C      -0.579817     -0.054650     -0.672212
  C       0.642165     -0.241559      0.213473
  H      -0.457453      0.853554     -1.267845
  H      -0.648359     -0.893745     -1.369302
  H       0.531924     -1.154671      0.808387
  H       0.740255      0.606806      0.898662
  H      -1.936263     -0.774337      0.675538
  H      -1.796098      0.838412      0.705017
  H       2.579971     -0.430595     -0.060148
  O      -5.291574     -0.557914     -0.966196
  C      -4.661243     -0.185414     -1.865655
  O      -4.035729      0.186783     -2.768500
14
Coordinates from ORCA-job ./orca E -398.972755894718
  O       1.805231     -0.334119     -0.628873
  N      -1.839276      0.040225      0.077381
  C      -0.579923     -0.056141     -0.670976
  C       0.643209     -0.241438      0.213448
  H      -0.458441      0.851656     -1.267420
  H      -0.649531     -0.895788     -1.367223
  H       0.534697     -1.154420      0.808889
  H       0.740649      0.607568      0.897943
  H      -1.939371     -0.776299      0.674830
  H      -1.797921      0.837670      0.705800
  H       2.580791     -0.427927     -0.061871
  O      -5.292261     -0.554499     -0.966918
  C      -4.659826     -0.184009     -1.865723
  O      -4.035009      0.186208     -2.769966
14
Coordinates from ORCA-job ./orca E -398.972763062497
  O       1.805007     -0.333269     -0.629895
  N      -1.839356      0.039378      0.078015
  C      -0.579991     -0.057087     -0.669700
  C       0.644007     -0.241132      0.213764
  H      -0.459236      0.850237     -1.267003
  H      -0.650071     -0.897505     -1.364997
  H       0.537016     -1.153909      0.809794
  H       0.741346      0.608407      0.897641
  H      -1.941096     -0.777848      0.673995
  H      -1.798750      0.836575      0.706563
  H       2.581265     -0.426258     -0.063696
  O      -5.292894     -0.552029     -0.967712
  C      -4.659333     -0.182723     -1.866165
  O      -4.034896      0.185849     -2.771286
14
Coordinates from ORCA-job ./orca E -398.971196175752
  O       1.808740     -0.333723     -0.631447
  N      -1.871017      0.039338      0.065091
  C      -0.575973     -0.056475     -0.673132
  C       0.647107     -0.241714      0.211355
  H      -0.447162      0.852985     -1.270905
  H      -0.637167     -0.898613     -1.367923
  H       0.539556     -1.155344      0.805978
  H       0.744169      0.607008      0.896285
  H      -1.955679     -0.787664      0.679971
  H      -1.815418      0.850520      0.712588
  H       2.584483     -0.427716     -0.064705
  O      -5.302941     -0.553190     -0.965243
  C      -4.635782     -0.183155     -1.845495
  O      -4.029897      0.186429     -2.773099
14
Coordinates from ORCA-job ./orca E -398.972409738338
  O       1.797457     -0.334406     -0.627787
  N      -1.859803      0.040561      0.057448
  C      -0.581168     -0.053095     -0.674476
  C       0.636508     -0.241537      0.214686
  H      -0.454726      0.855823     -1.267941
  H      -0.643348     -0.893978     -1.369472
  H       0.526373     -1.155694      0.807877
  H       0.734647      0.606289      0.900581
  H      -1.938306     -0.773220      0.663119
  H      -1.801958      0.832502      0.693588
  H       2.572460     -0.430600     -0.060439
  O      -5.278653     -0.555245     -0.953577
  C      -4.631952     -0.182782     -1.842309
  O      -4.024513      0.184069     -2.761978
14
Coordinates from ORCA-job ./orca E -398.972559783011
  O       1.795344     -0.334708     -0.625580
  N      -1.855903      0.040634      0.055080
  C      -0.583980     -0.051845     -0.677739
  C       0.631954     -0.241649      0.214175
  H      -0.458035      0.857600     -1.270048
  H      -0.645740     -0.891624     -1.374597
  H       0.519757     -1.156110      0.806624
  H       0.729369      0.605309      0.901352
  H      -1.936532     -0.773355      0.659492
  H      -1.801148      0.832261      0.689810
  H       2.569102     -0.432031     -0.056651
  O      -5.263818     -0.553911     -0.944381
  C      -4.629609     -0.184748     -1.842162
  O      -4.017743      0.182862     -2.756053
14
Coordinates from ORCA-job ./orca E -398.972627572851
  O       1.795989     -0.334615     -0.623968
  N      -1.853620      0.040217      0.055465
  C      -0.585878     -0.051876     -0.680842
  C       0.629644     -0.241838      0.212557
  H      -0.460100      0.857956     -1.272929
  H      -0.647564     -0.890373     -1.379581
  H       0.515926     -1.156389      0.804608
  H       0.725519      0.604578      0.900598
  H      -1.939859     -0.774799      0.658274
  H      -1.804369      0.833542      0.689299
  H       2.568400     -0.432016     -0.053238
  O      -5.252675     -0.552264     -0.936950
  C      -4.627439     -0.184863     -1.841648
  O      -4.010957      0.181426     -2.752325
14
Coordinates from ORCA-job ./orca E -398.972639909724
  O       1.797102     -0.333794     -0.623808
  N      -1.852434      0.039413      0.057300
  C      -0.586532     -0.052952     -0.681744
  C       0.629589     -0.242010      0.211391
  H      -0.461124      0.856879     -1.274131
  H      -0.648845     -0.890812     -1.381113
  H       0.516004     -1.156611      0.803385
  H       0.724092      0.604458      0.899484
  H      -1.944235     -0.776374      0.658117
  H      -1.807784      0.834016      0.689909
  H       2.569054     -0.430198     -0.052320
  O      -5.249039     -0.549352     -0.934186
  C      -4.625392     -0.184452     -1.841213
  O      -4.007436      0.180476     -2.751752
14
Coordinates from ORCA-job ./orca E -398.972649075851
  O       1.798083     -0.332395     -0.624562
  N      -1.851099      0.038117      0.059973
  C      -0.586925     -0.054871     -0.681388
  C       0.630485     -0.242104      0.210519
  H      -0.462361      0.854679     -1.274513
  H      -0.650657     -0.892619     -1.380572
  H       0.518240     -1.156657      0.802850
  H       0.723543      0.604933      0.898048
  H      -1.949704     -0.778793      0.657632
  H      -1.811565      0.833954      0.690990
  H       2.570178     -0.426889     -0.052973
  O      -5.247661     -0.545304     -0.933352
  C      -4.622839     -0.182725     -1.840672
  O      -4.004701      0.179361     -2.752662
14
Coordinates from ORCA-job ./orca E -398.972656258308
  O       1.798265     -0.331165     -0.625702
  N      -1.850547      0.037044      0.061533
  C      -0.587051     -0.056361     -0.680123
  C       0.631545     -0.242007      0.210498
  H      -0.463353      0.852768     -1.274086
  H      -0.651874     -0.894663     -1.378471
  H       0.521050     -1.156461      0.803325
  H       0.723961      0.605636      0.897373
  H      -1.952977     -0.780758      0.656849
  H      -1.813459      0.833234      0.691815
  H       2.571019     -0.424183     -0.054748
  O      -5.248301     -0.541860     -0.934085
  C      -4.621361     -0.181309     -1.840750
  O      -4.003900      0.178772     -2.754108
14
Coordinates from ORCA-job ./orca E -398.972663459556
  O       1.798036     -0.330325     -0.626716
  N      -1.850604      0.036259      0.062158
  C      -0.587120     -0.057263     -0.678857
  C       0.632324     -0.241728      0.210826
  H      -0.464115      0.851400     -1.273663
  H      -0.652425     -0.896318     -1.376284
  H       0.523315     -1.156003      0.804200
  H       0.724668      0.606405      0.897135
  H      -1.954717     -0.782259      0.655965
  H      -1.814256      0.832184      0.692585
  H       2.571491     -0.422551     -0.056568
  O      -5.248942     -0.539458     -0.934896
  C      -4.620852     -0.180063     -1.841182
  O      -4.003784      0.178406     -2.755383
14
Coordinates from ORCA-job ./orca E -398.971066760531
  O       1.801805     -0.330780     -0.628218
  N      -1.882250      0.036195      0.049308
  C      -0.583053     -0.056636     -0.682380
  C       0.635417     -0.242284      0.208393
  H      -0.452030      0.854174     -1.277701
  H      -0.639514     -0.897448     -1.379339
  H       0.525818     -1.157396      0.800370
  H       0.727443      0.605045      0.895739
  H      -1.969336     -0.792159      0.661971
  H      -1.831009      0.846102      0.698692
  H       2.574710     -0.424002     -0.057484
  O      -5.259013     -0.540560     -0.932336
  C      -4.597226     -0.180461     -1.820543
  O      -3.998744      0.178897     -2.757151
14
Coordinates from ORCA-job ./orca E -398.972280644146
  O       1.790503     -0.331460     -0.624483
  N      -1.870826      0.037384      0.041620
  C      -0.588249     -0.053346     -0.683835
  C       0.624709     -0.242071      0.211684
  H      -0.459654      0.856885     -1.274827
  H      -0.645727     -0.892885     -1.380890
  H       0.512528     -1.157665      0.802278
  H       0.717703      0.604420      0.899933
  H      -1.951677     -0.777758      0.645154
  H      -1.817167      0.828090      0.679637
  H       2.562618     -0.426816     -0.053070
  O      -5.234883     -0.542599     -0.920711
  C      -4.593295     -0.180126     -1.817206
  O      -3.993564      0.176634     -2.745964
14
Coordinates from ORCA-job ./orca E -398.972429359650
  O       1.788436     -0.331753     -0.622231
  N      -1.866895      0.037450      0.039216
  C      -0.591057     -0.052165     -0.687102
  C       0.620169     -0.242161      0.211158
  H      -0.462974      0.858575     -1.276958
  H      -0.648137     -0.890626     -1.385952
  H       0.505953     -1.158027      0.801056
  H       0.712379      0.603504      0.900634
  H      -1.949846     -0.777895      0.641498
  H      -1.816229      0.827828      0.675851
  H       2.559283     -0.428194     -0.049213
  O      -5.220161     -0.541342     -0.911652
  C      -4.591009     -0.182013     -1.816969
  O      -3.986895      0.175504     -2.740017
14
Coordinates from ORCA-job ./orca E -398.972496675935
  O       1.789096     -0.331610     -0.620635
  N      -1.864678      0.037049      0.039575
  C      -0.592963     -0.052251     -0.690139
  C       0.617907     -0.242350      0.209541
  H      -0.465025      0.858845     -1.279817
  H      -0.649964     -0.889473     -1.390810
  H       0.502248     -1.158306      0.799054
  H       0.708548      0.602788      0.899851
  H      -1.953247     -0.779293      0.640264
  H      -1.819427      0.829086      0.675332
  H       2.558604     -0.428115     -0.045842
  O      -5.209081     -0.539719     -0.904354
  C      -4.588910     -0.182124     -1.816471
  O      -3.980092      0.174159     -2.736230
14
Coordinates from ORCA-job ./orca E -398.972508982589
  O       1.790176     -0.330777     -0.620527
  N      -1.863573      0.036295      0.041404
  C      -0.593621     -0.053318     -0.690968
  C       0.617893     -0.242530      0.208393
  H      -0.466016      0.857753     -1.280983
  H      -0.651231     -0.889931     -1.392244
  H       0.502414     -1.158548      0.797839
  H       0.707198      0.602652      0.898752
  H      -1.957715     -0.780802      0.640099
  H      -1.822869      0.829571      0.675963
  H       2.559246     -0.426329     -0.045021
  O      -5.205462     -0.536914     -0.901715
  C      -4.586918     -0.181708     -1.816080
  O      -3.976504      0.173271     -2.735594
14
Coordinates from ORCA-job ./orca E -398.972518150922
  O       1.791103     -0.329365     -0.621361
  N      -1.862310      0.035086      0.044097
  C      -0.594026     -0.055191     -0.690531
  C       0.618821     -0.242647      0.207542
  H      -0.467213      0.855576     -1.281323
  H      -0.653037     -0.891711     -1.391622
  H       0.504715     -1.158649      0.797288
  H       0.706749      0.603062      0.897373
  H      -1.963328     -0.783125      0.639595
  H      -1.826710      0.829564      0.677088
  H       2.560348     -0.423096     -0.045814
  O      -5.204095     -0.532995     -0.901012
  C      -4.584369     -0.180041     -1.815605
  O      -3.973629      0.172218     -2.736397
14
Coordinates from ORCA-job ./orca E -398.972525532942
  O       1.791251     -0.328157     -0.622562
  N      -1.861751      0.034080      0.045709
  C      -0.594166     -0.056636     -0.689217
  C       0.619898     -0.242564      0.207533
  H      -0.468193      0.853704     -1.280857
  H      -0.654292     -0.893701     -1.389494
  H       0.507538     -1.158478      0.797762
  H       0.707250      0.603729      0.896728
  H      -1.966736     -0.785052      0.638766
  H      -1.828666      0.828895      0.677970
  H       2.561187     -0.420469     -0.047697
  O      -5.204762     -0.529658     -0.901854
  C      -4.582833     -0.178656     -1.815699
  O      -3.972707      0.171649     -2.737769
14
Coordinates from ORCA-job ./orca E -398.972532641034
  O       1.791009     -0.327368     -0.623574
  N      -1.861793      0.033385      0.046325
  C      -0.594238     -0.057459     -0.687964
  C       0.620655     -0.242302      0.207869
  H      -0.468919      0.852434     -1.280418
  H      -0.654856     -0.895248     -1.387360
  H       0.509708     -1.158054      0.798613
  H       0.707994      0.604439      0.896546
  H      -1.968455     -0.786468      0.637851
  H      -1.829420      0.827914      0.678751
  H       2.561647     -0.418966     -0.049521
  O      -5.205456     -0.527423     -0.902732
  C      -4.582309     -0.177496     -1.816120
  O      -3.972549      0.171300     -2.738947
14
Coordinates from ORCA-job ./orca E -398.970900635080
  O       1.794812     -0.327824     -0.625028
  N      -1.893422      0.033293      0.033554
  C      -0.590122     -0.056820     -0.691575
  C       0.623742     -0.242831      0.205414
  H      -0.456827      0.855229     -1.284591
  H      -0.641941     -0.896403     -1.390542
  H       0.512178     -1.159404      0.794770
  H       0.710723      0.603120      0.895107
  H      -1.983112     -0.796456      0.643888
  H      -1.846261      0.841805      0.684944
  H       2.564866     -0.420409     -0.050348
  O      -5.215543     -0.528459     -0.900093
  C      -4.558604     -0.177858     -1.795517
  O      -3.967471      0.171705     -2.740663
14
Coordinates from ORCA-job ./orca E -398.972113908592
  O       1.783476     -0.328493     -0.621252
  N      -1.881793      0.034468      0.025863
  C      -0.595329     -0.053617     -0.693119
  C       0.612936     -0.242580      0.208662
  H      -0.464522      0.857819     -1.281782
  H      -0.648206     -0.891906     -1.392079
  H       0.498801     -1.159599      0.796673
  H       0.700795      0.602581      0.899207
  H      -1.965191     -0.782082      0.627152
  H      -1.832064      0.823821      0.665856
  H       2.552704     -0.423182     -0.045845
  O      -5.191594     -0.530498     -0.888547
  C      -4.554534     -0.177587     -1.792040
  O      -3.962460      0.169542     -2.729430
14
Coordinates from ORCA-job ./orca E -398.972261170539
  O       1.781432     -0.328787     -0.618989
  N      -1.877832      0.034551      0.023455
  C      -0.598146     -0.052490     -0.696366
  C       0.608410     -0.242647      0.208122
  H      -0.467864      0.859437     -1.283907
  H      -0.650663     -0.889724     -1.397051
  H       0.492275     -1.159907      0.795485
  H       0.695454      0.601729      0.899834
  H      -1.963311     -0.782196      0.623491
  H      -1.831007      0.823572      0.662088
  H       2.549382     -0.424556     -0.041981
  O      -5.176996     -0.529386     -0.879672
  C      -4.552271     -0.179403     -1.791725
  O      -3.955847      0.168495     -2.723463
14
Coordinates from ORCA-job ./orca E -398.972328055840
  O       1.782092     -0.328635     -0.617429
  N      -1.875672      0.034205      0.023819
  C      -0.600078     -0.052592     -0.699327
  C       0.606192     -0.242831      0.206496
  H      -0.469925      0.859669     -1.286729
  H      -0.652532     -0.888620     -1.401789
  H       0.488666     -1.160174      0.793492
  H       0.691678      0.601030      0.899012
  H      -1.966791     -0.783515      0.622259
  H      -1.834193      0.824849      0.661586
  H       2.548710     -0.424511     -0.038681
  O      -5.165965     -0.527884     -0.872545
  C      -4.550199     -0.179563     -1.791253
  O      -3.948966      0.167259     -2.719591
14
Coordinates from ORCA-job ./orca E -398.972340536885
  O       1.783121     -0.327820     -0.617395
  N      -1.874646      0.033543      0.025666
  C      -0.600750     -0.053615     -0.700071
  C       0.606214     -0.243019      0.205361
  H      -0.470888      0.858599     -1.287843
  H      -0.653816     -0.889059     -1.403116
  H       0.488897     -1.160432      0.792282
  H       0.690435      0.600875      0.897922
  H      -1.971351     -0.784914      0.622106
  H      -1.837658      0.825392      0.662258
  H       2.549326     -0.422838     -0.037991
  O      -5.162370     -0.525304     -0.870083
  C      -4.548236     -0.179171     -1.790909
  O      -3.945259      0.166450     -2.718867
14
Coordinates from ORCA-job ./orca E -398.972349637731
  O       1.783971     -0.326460     -0.618343
  N      -1.873460      0.032479      0.028414
  C      -0.601181     -0.055390     -0.699535
  C       0.607173     -0.243152      0.204527
  H      -0.472055      0.856502     -1.288110
  H      -0.655661     -0.890743     -1.402407
  H       0.491228     -1.160567      0.791720
  H       0.690145      0.601236      0.896582
  H      -1.977122     -0.787082      0.621618
  H      -1.841562      0.825498      0.663459
  H       2.550393     -0.419818     -0.038979
  O      -5.161028     -0.521679     -0.869589
  C      -4.545655     -0.177636     -1.790516
  O      -3.942170      0.165499     -2.719521
14
Coordinates from ORCA-job ./orca E -398.972357181725
  O       1.784067     -0.325293     -0.619626
  N      -1.872901      0.031603      0.030098
  C      -0.601346     -0.056753     -0.698166
  C       0.608258     -0.243088      0.204523
  H      -0.473020      0.854707     -1.287595
  H      -0.656985     -0.892639     -1.400248
  H       0.494031     -1.160439      0.792165
  H       0.690751      0.601841      0.895982
  H      -1.980667     -0.788896      0.620772
  H      -1.843563      0.824952      0.664411
  H       2.551210     -0.417355     -0.040999
  O      -5.161720     -0.518586     -0.870588
  C      -4.544039     -0.176337     -1.790633
  O      -3.941060      0.164969     -2.720776
14
Coordinates from ORCA-job ./orca E -398.972364016067
  O       1.783786     -0.324582     -0.620663
  N      -1.872932      0.031037      0.030729
  C      -0.601431     -0.057477     -0.696910
  C       0.608992     -0.242844      0.204868
  H      -0.473712      0.853557     -1.287118
  H      -0.657594     -0.894053     -1.398156
  H       0.496111     -1.160047      0.792998
  H       0.691568      0.602492      0.895848
  H      -1.982385     -0.790188      0.619847
  H      -1.844266      0.824079      0.665224
  H       2.551642     -0.416035     -0.042872
  O      -5.162476     -0.516605     -0.871581
  C      -4.543475     -0.175305     -1.791056
  O      -3.940812      0.164657     -2.721839
14
Coordinates from ORCA-job ./orca E -398.970839073706
  O       1.786848     -0.324418     -0.622449
  N      -1.902676      0.031013      0.018445
  C      -0.598157     -0.057333     -0.700127
  C       0.611556     -0.243456      0.202449
  H      -0.468514      0.853754     -1.289837
  H      -0.644412     -0.895926     -1.401002
  H       0.498778     -1.161766      0.788873
  H       0.693547      0.600928      0.894665
  H      -1.995502     -0.799430      0.626232
  H      -1.859380      0.838238      0.671256
  H       2.554331     -0.416668     -0.044289
  O      -5.170489     -0.516398     -0.869925
  C      -4.516849     -0.174635     -1.771603
  O      -3.936063      0.164784     -2.723366
14
Coordinates from ORCA-job ./orca E -398.971909951750
  O       1.775828     -0.325545     -0.619261
  N      -1.892306      0.031507      0.012074
  C      -0.603358     -0.054422     -0.701514
  C       0.601197     -0.242818      0.205342
  H      -0.474791      0.857818     -1.288914
  H      -0.651039     -0.892098     -1.401777
  H       0.485742     -1.161065      0.791151
  H       0.684442      0.601276      0.897769
  H      -1.979396     -0.786368      0.611080
  H      -1.846558      0.819713      0.653695
  H       2.542619     -0.419777     -0.040533
  O      -5.146882     -0.518738     -0.858473
  C      -4.513183     -0.174353     -1.768119
  O      -3.929295      0.163556     -2.713200
14
Coordinates from ORCA-job ./orca E -398.972060403349
  O       1.773548     -0.326015     -0.617467
  N      -1.888894      0.031203      0.010195
  C      -0.606295     -0.053359     -0.704432
  C       0.596805     -0.242541      0.204730
  H      -0.477095      0.859470     -1.291143
  H      -0.653994     -0.890067     -1.406126
  H       0.479387     -1.160738      0.790345
  H       0.679636      0.601069      0.897883
  H      -1.977941     -0.786906      0.607681
  H      -1.845917      0.818845      0.650548
  H       2.539232     -0.421312     -0.037380
  O      -5.132397     -0.517663     -0.850090
  C      -4.511084     -0.176242     -1.767878
  O      -3.921972      0.162943     -2.707546
14
Coordinates from ORCA-job ./orca E -398.972117817621
  O       1.773838     -0.326031     -0.616318
  N      -1.887066      0.030682      0.010861
  C      -0.608477     -0.053444     -0.707136
  C       0.594582     -0.242446      0.203086
  H      -0.478204      0.859483     -1.293754
  H      -0.656574     -0.889014     -1.410456
  H       0.475880     -1.160473      0.788774
  H       0.676231      0.600915      0.896648
  H      -1.981471     -0.788635      0.606473
  H      -1.849328      0.819872      0.650586
  H       2.538358     -0.421451     -0.034730
  O      -5.121213     -0.516449     -0.843494
  C      -4.509038     -0.176351     -1.767583
  O      -3.914500      0.162029     -2.703639
14
Coordinates from ORCA-job ./orca E -398.972127170502
  O       1.774619     -0.325278     -0.616555
  N      -1.886284      0.030103      0.012764
  C      -0.609218     -0.054422     -0.707625
  C       0.594672     -0.242584      0.202065
  H      -0.478642      0.858302     -1.294512
  H      -0.658170     -0.889498     -1.411421
  H       0.476403     -1.160595      0.787879
  H       0.675272      0.600928      0.895503
  H      -1.985642     -0.790014      0.606407
  H      -1.852592      0.820354      0.651523
  H       2.538898     -0.419861     -0.034540
  O      -5.118263     -0.514119     -0.841741
  C      -4.507117     -0.176052     -1.767460
  O      -3.910917      0.161422     -2.702968
14
Coordinates from ORCA-job ./orca E -398.972139924452
  O       1.775314     -0.323834     -0.617744
  N      -1.885143      0.029253      0.015778
  C      -0.609849     -0.056259     -0.706985
  C       0.595619     -0.242813      0.201204
  H      -0.479488      0.856046     -1.294578
  H      -0.660580     -0.891255     -1.410589
  H       0.479028     -1.160818      0.787370
  H       0.674925      0.601233      0.894091
  H      -1.991428     -0.792065      0.606045
  H      -1.856558      0.820648      0.653043
  H       2.539919     -0.416734     -0.035911
  O      -5.117107     -0.510712     -0.841704
  C      -4.504267     -0.174510     -1.767234
  O      -3.907370      0.160508     -2.703465
14
Coordinates from ORCA-job ./orca E -398.972143692483
  O       1.775322     -0.322664     -0.619000
  N      -1.884623      0.028694      0.017392
  C      -0.610078     -0.057490     -0.705704
  C       0.596560     -0.242886      0.201198
  H      -0.480354      0.854460     -1.294030
  H      -0.662014     -0.892972     -1.408588
  H       0.481686     -1.160923      0.787653
  H       0.675352      0.601563      0.893666
  H      -1.994578     -0.793427      0.605405
  H      -1.858216      0.820365      0.653975
  H       2.540625     -0.414485     -0.037902
  O      -5.117910     -0.508069     -0.842861
  C      -4.502652     -0.173486     -1.767408
  O      -3.906102      0.160006     -2.704477
14
Coordinates from ORCA-job ./orca E -398.972148947973
  O       1.775044     -0.321951     -0.619955
  N      -1.884624      0.028402      0.017986
  C      -0.610175     -0.058085     -0.704574
  C       0.597176     -0.242758      0.201494
  H      -0.481055      0.853530     -1.293599
  H      -0.662656     -0.894178     -1.406710
  H       0.483531     -1.160766      0.788221
  H       0.676005      0.601936      0.893688
  H      -1.996126     -0.794298      0.604669
  H      -1.858681      0.819797      0.654695
  H       2.540986     -0.413400     -0.039626
  O      -5.118649     -0.506561     -0.843890
  C      -4.502086     -0.172655     -1.767772
  O      -3.905671      0.159675     -2.705309
14
Coordinates from ORCA-job ./orca E -398.970564861694
  O       1.778139     -0.321807     -0.621721
  N      -1.914345      0.028426      0.005714
  C      -0.606859     -0.057935     -0.707820
  C       0.599760     -0.243367      0.199069
  H      -0.475841      0.853725     -1.296366
  H      -0.649499     -0.896061     -1.409655
  H       0.486204     -1.162470      0.784100
  H       0.677997      0.600382      0.892485
  H      -2.009305     -0.803592      0.611049
  H      -1.873945      0.834023      0.660789
  H       2.543695     -0.414052     -0.041010
  O      -5.126648     -0.506415     -0.842231
  C      -4.475429     -0.171967     -1.748316
  O      -3.900906      0.159797     -2.706767
14
Coordinates from ORCA-job ./orca E -398.971631716725
  O       1.767130     -0.322854     -0.618543
  N      -1.903819      0.028924     -0.000532
  C      -0.612049     -0.055062     -0.709252
  C       0.589373     -0.242727      0.201907
  H      -0.482182      0.857770     -1.295481
  H      -0.656155     -0.892216     -1.410413
  H       0.473149     -1.161814      0.786247
  H       0.668797      0.600697      0.895582
  H      -1.993101     -0.790434      0.596131
  H      -1.860856      0.815581      0.643195
  H       2.531965     -0.417160     -0.037244
  O      -5.103418     -0.508680     -0.830933
  C      -4.471576     -0.171865     -1.744733
  O      -3.894239      0.158525     -2.696611
14
Coordinates from ORCA-job ./orca E -398.971780730503
  O       1.764873     -0.323362     -0.616753
  N      -1.900358      0.028772     -0.002366
  C      -0.614986     -0.053965     -0.712148
  C       0.584994     -0.242471      0.201269
  H      -0.484485      0.859458     -1.297688
  H      -0.659190     -0.890133     -1.414723
  H       0.466766     -1.161527      0.785377
  H       0.664024      0.600449      0.895687
  H      -1.991615     -0.790760      0.592827
  H      -1.860088      0.814922      0.640031
  H       2.528580     -0.418854     -0.034099
  O      -5.089105     -0.508111     -0.822812
  C      -4.469466     -0.173699     -1.744381
  O      -3.886925      0.157969     -2.690899
14
Coordinates from ORCA-job ./orca E -398.971838133930
  O       1.765144     -0.323420     -0.615639
  N      -1.898535      0.028431     -0.001665
  C      -0.617211     -0.053942     -0.714815
  C       0.582760     -0.242409      0.199593
  H      -0.485600      0.859598     -1.300229
  H      -0.661873     -0.888931     -1.419065
  H       0.463195     -1.161334      0.783698
  H       0.660677      0.600207      0.894470
  H      -1.995223     -0.792234      0.591708
  H      -1.863452      0.816182      0.640007
  H       2.527669     -0.419249     -0.031505
  O      -5.077966     -0.507264     -0.816381
  C      -4.467357     -0.174099     -1.744094
  O      -3.879210      0.157153     -2.686763
14
Coordinates from ORCA-job ./orca E -398.971847388035
  O       1.765860     -0.322783     -0.615950
  N      -1.897805      0.028071      0.000264
  C      -0.617962     -0.054776     -0.715239
  C       0.582860     -0.242574      0.198574
  H      -0.485984      0.858570     -1.300893
  H      -0.663532     -0.889244     -1.420003
  H       0.463662     -1.161503      0.782763
  H       0.659864      0.600155      0.893355
  H      -1.999447     -0.793343      0.591714
  H      -1.866705      0.816901      0.640935
  H       2.528154     -0.417988     -0.031442
  O      -5.075078     -0.505515     -0.814874
  C      -4.465439     -0.173923     -1.743980
  O      -3.875430      0.156640     -2.685904
14
Coordinates from ORCA-job ./orca E -398.971860188104
  O       1.766452     -0.321513     -0.617278
  N      -1.896735      0.027564      0.003358
  C      -0.618619     -0.056375     -0.714506
  C       0.583818     -0.242854      0.197710
  H      -0.486746      0.856578     -1.300799
  H      -0.666059     -0.890700     -1.419167
  H       0.466192     -1.161815      0.782168
  H       0.659752      0.600328      0.892013
  H      -2.005373     -0.794988      0.591468
  H      -1.870704      0.817583      0.642474
  H       2.529104     -0.415374     -0.033043
  O      -5.074060     -0.502846     -0.815182
  C      -4.462503     -0.172782     -1.743817
  O      -3.871503      0.155881     -2.686080
14
Coordinates from ORCA-job ./orca E -398.971863981759
  O       1.766383     -0.320489     -0.618642
  N      -1.896209      0.027293      0.005073
  C      -0.618884     -0.057431     -0.713172
  C       0.584752     -0.242969      0.197693
  H      -0.487549      0.855184     -1.300153
  H      -0.667658     -0.892188     -1.417172
  H       0.468755     -1.161988      0.782387
  H       0.660339      0.600555      0.891632
  H      -2.008658     -0.796050      0.590890
  H      -1.872403      0.817627      0.643452
  H       2.529760     -0.413504     -0.035209
  O      -5.074929     -0.500851     -0.816616
  C      -4.460772     -0.171969     -1.743995
  O      -3.869908      0.155467     -2.686850
14
Coordinates from ORCA-job ./orca E -398.971869435245
  O       1.766047     -0.319898     -0.619667
  N      -1.896196      0.027233      0.005729
  C      -0.619009     -0.057879     -0.712010
  C       0.585349     -0.242875      0.197982
  H      -0.488200      0.854425     -1.299639
  H      -0.668424     -0.893202     -1.415314
  H       0.470491     -1.161889      0.782898
  H       0.661107      0.600836      0.891704
  H      -2.010255     -0.796677      0.590205
  H      -1.872838      0.817307      0.644204
  H       2.530082     -0.412712     -0.037052
  O      -5.075761     -0.499803     -0.817854
  C      -4.460107     -0.171390     -1.744368
  O      -3.869268      0.155210     -2.687499
14
Coordinates from ORCA-job ./orca E -398.970209760720
  O       1.769173     -0.319743     -0.621437
  N      -1.925901      0.027213     -0.006517
  C      -0.615657     -0.057734     -0.715268
  C       0.587966     -0.243464      0.195548
  H      -0.482966      0.854605     -1.302437
  H      -0.655289     -0.895123     -1.418317
  H       0.473214     -1.163564      0.778778
  H       0.663122      0.599311      0.890474
  H      -2.023551     -0.806078      0.596608
  H      -1.888261      0.831549      0.650360
  H       2.532822     -0.413339     -0.038441
  O      -5.083783     -0.499571     -0.816209
  C      -4.433407     -0.170652     -1.724929
  O      -3.864463      0.155278     -2.688894
14
Coordinates from ORCA-job ./orca E -398.971274209758
  O       1.758263     -0.320805     -0.618147
  N      -1.915147      0.027679     -0.012778
  C      -0.620830     -0.054924     -0.716808
  C       0.577551     -0.242871      0.198304
  H      -0.489335      0.858582     -1.301661
  H      -0.662009     -0.891319     -1.419096
  H       0.460109     -1.162899      0.780912
  H       0.653777      0.599628      0.893457
  H      -2.007089     -0.792935      0.581727
  H      -1.874784      0.813059      0.632675
  H       2.521097     -0.416222     -0.034400
  O      -5.060987     -0.501881     -0.805016
  C      -4.429519     -0.170405     -1.721104
  O      -3.858081      0.153999     -2.678746
14
Coordinates from ORCA-job ./orca E -398.971420722962
  O       1.756133     -0.321343     -0.616247
  N      -1.911606      0.027524     -0.014692
  C      -0.623712     -0.053868     -0.719760
  C       0.573207     -0.242671      0.197627
  H      -0.491572      0.860228     -1.303922
  H      -0.665022     -0.889276     -1.423440
  H       0.453727     -1.162641      0.780034
  H       0.648942      0.599345      0.893511
  H      -2.005503     -0.793253      0.578355
  H      -1.873810      0.812403      0.629452
  H       2.517775     -0.417693     -0.031031
  O      -5.047091     -0.501334     -0.796991
  C      -4.427498     -0.172182     -1.720588
  O      -3.850951      0.153448     -2.672989
14
Coordinates from ORCA-job ./orca E -398.971477437861
  O       1.756509     -0.321478     -0.614978
  N      -1.909728      0.027208     -0.014168
  C      -0.625879     -0.053834     -0.722524
  C       0.570971     -0.242678      0.195921
  H      -0.492551      0.860386     -1.306537
  H      -0.667645     -0.888039     -1.427913
  H       0.450055     -1.162506      0.778324
  H       0.645508      0.599034      0.892275
  H      -2.009056     -0.794680      0.577049
  H      -1.877028      0.813651      0.629275
  H       2.516891     -0.417882     -0.028146
  O      -5.036223     -0.500502     -0.790502
  C      -4.425553     -0.172627     -1.720148
  O      -3.843255      0.152631     -2.668608
14
Coordinates from ORCA-job ./orca E -398.971486843817
  O       1.757278     -0.320954     -0.615205
  N      -1.909028      0.026899     -0.012399
  C      -0.626541     -0.054622     -0.722991
  C       0.571102     -0.242883      0.194921
  H      -0.492769      0.859414     -1.307209
  H      -0.669177     -0.888289     -1.428928
  H       0.450462     -1.162708      0.777400
  H       0.644736      0.598942      0.891177
  H      -2.013271     -0.795723      0.576893
  H      -1.880228      0.814362      0.630099
  H       2.517407     -0.416541     -0.027939
  O      -5.033624     -0.498852     -0.789011
  C      -4.423831     -0.172475     -1.719940
  O      -3.839498      0.152116     -2.667549
14
Coordinates from ORCA-job ./orca E -398.971499447194
  O       1.757948     -0.319851     -0.616417
  N      -1.907976      0.026481     -0.009534
  C      -0.627068     -0.056141     -0.722334
  C       0.572095     -0.243224      0.194086
  H      -0.493263      0.857526     -1.307121
  H      -0.671511     -0.889616     -1.428242
  H       0.452882     -1.163089      0.776805
  H       0.644689      0.599028      0.889884
  H      -2.019272     -0.797282      0.576366
  H      -1.884226      0.815072      0.631482
  H       2.518410     -0.413822     -0.029346
  O      -5.033022     -0.496283     -0.789298
  C      -4.421150     -0.171436     -1.719640
  O      -3.835518      0.151327     -2.667371
14
Coordinates from ORCA-job ./orca E -398.971503171075
  O       1.757936     -0.318940     -0.617714
  N      -1.907399      0.026285     -0.007944
  C      -0.627249     -0.057149     -0.721051
  C       0.573055     -0.243382      0.194089
  H      -0.493884      0.856202     -1.306471
  H      -0.673017     -0.891014     -1.426355
  H       0.455366     -1.163308      0.777019
  H       0.645326      0.599192      0.889541
  H      -2.022697     -0.798308      0.575535
  H      -1.885986      0.815167      0.632362
  H       2.519119     -0.411880     -0.031405
  O      -5.034179     -0.494365     -0.790722
  C      -4.419537     -0.170665     -1.719683
  O      -3.833834      0.150853     -2.667882
14
Coordinates from ORCA-job ./orca E -398.971508636140
  O       1.757650     -0.318417     -0.618677
  N      -1.907329      0.026290     -0.007402
  C      -0.627306     -0.057552     -0.719927
  C       0.573669     -0.243318      0.194405
  H      -0.494407      0.855509     -1.305955
  H      -0.673712     -0.891959     -1.424563
  H       0.457046     -1.163249      0.777532
  H       0.646132      0.599417      0.889666
  H      -2.024368     -0.798906      0.574633
  H      -1.886431      0.814886      0.633021
  H       2.519490     -0.411053     -0.033161
  O      -5.035267     -0.493360     -0.791952
  C      -4.418958     -0.170147     -1.719946
  O      -3.833190      0.150545     -2.668355
14
Coordinates from ORCA-job ./orca E -398.969855067222
  O       1.760806     -0.318249     -0.620452
  N      -1.937028      0.026221     -0.019598
  C      -0.623919     -0.057417     -0.723196
  C       0.576318     -0.243887      0.191962
  H      -0.489157      0.855669     -1.308785
  H      -0.660601     -0.893921     -1.427628
  H       0.459821     -1.164895      0.773415
  H       0.648166      0.597923      0.888410
  H      -2.037782     -0.808413      0.581065
  H      -1.902012      0.829137      0.639253
  H       2.522260     -0.411652     -0.034554
  O      -5.043304     -0.493028     -0.790343
  C      -4.392203     -0.169354     -1.700544
  O      -3.828346      0.150554     -2.669684
14
Coordinates from ORCA-job ./orca E -398.970891803661
  O       1.749869     -0.319292     -0.617170
  N      -1.926082      0.026765     -0.025785
  C      -0.629057     -0.054605     -0.724773
  C       0.565872     -0.243260      0.194704
  H      -0.495555      0.859654     -1.308018
  H      -0.667307     -0.890070     -1.428377
  H       0.446675     -1.164229      0.775481
  H       0.638780      0.598233      0.891421
  H      -2.021084     -0.795203      0.566340
  H      -1.888288      0.810729      0.621563
  H       2.510491     -0.414646     -0.030532
  O      -5.020920     -0.495410     -0.779337
  C      -4.388142     -0.169266     -1.696577
  O      -3.822233      0.149285     -2.659621
14
Coordinates from ORCA-job ./orca E -398.971013199215
  O       1.747765     -0.319851     -0.615270
  N      -1.922506      0.026713     -0.027690
  C      -0.631898     -0.053516     -0.727693
  C       0.561566     -0.243042      0.194042
  H      -0.497746      0.861340     -1.310239
  H      -0.670292     -0.887994     -1.432664
  H       0.440315     -1.163960      0.774593
  H       0.634013      0.597955      0.891493
  H      -2.019419     -0.795418      0.562982
  H      -1.887226      0.810184      0.618375
  H       2.507197     -0.416280     -0.027200
  O      -5.007364     -0.495134     -0.771526
  C      -4.386127     -0.171065     -1.695972
  O      -3.815261      0.148753     -2.653912
14
Coordinates from ORCA-job ./orca E -398.971069693333
  O       1.748131     -0.320074     -0.613967
  N      -1.920611      0.026557     -0.027237
  C      -0.634067     -0.053349     -0.730458
  C       0.559311     -0.243027      0.192347
  H      -0.498656      0.861654     -1.312820
  H      -0.672905     -0.886603     -1.437169
  H       0.436532     -1.163804      0.772868
  H       0.630644      0.597644      0.890277
  H      -2.022940     -0.796665      0.561570
  H      -1.890407      0.811540      0.618140
  H       2.506275     -0.416809     -0.024294
  O      -4.996547     -0.494674     -0.765087
  C      -4.384218     -0.171701     -1.695484
  O      -3.807523      0.147998     -2.649365
14
Coordinates from ORCA-job ./orca E -398.971079250430
  O       1.748888     -0.319640     -0.614193
  N      -1.919969      0.026406     -0.025542
  C      -0.634691     -0.053998     -0.730896
  C       0.559462     -0.243226      0.191371
  H      -0.498762      0.860829     -1.313429
  H      -0.674377     -0.886699     -1.438178
  H       0.436884     -1.164005      0.771945
  H       0.629998      0.597538      0.889217
  H      -2.027157     -0.797533      0.561347
  H      -1.893593      0.812367      0.618931
  H       2.506763     -0.415789     -0.024109
  O      -4.994066     -0.493412     -0.763701
  C      -4.382590     -0.171684     -1.695263
  O      -3.803771      0.147533     -2.648181
14
Coordinates from ORCA-job ./orca E -398.971091819944
  O       1.749552     -0.318675     -0.615410
  N      -1.918970      0.026260     -0.022755
  C      -0.635167     -0.055291     -0.730223
  C       0.560480     -0.243579      0.190553
  H      -0.499061      0.859187     -1.313257
  H      -0.676656     -0.887747     -1.437552
  H       0.439193     -1.164419      0.771307
  H       0.630126      0.597558      0.887990
  H      -2.033292     -0.798807      0.560697
  H      -1.897653      0.813325      0.620271
  H       2.507727     -0.413569     -0.025535
  O      -4.993575     -0.491422     -0.764086
  C      -4.379995     -0.170938     -1.694934
  O      -3.799692      0.146803     -2.647748
14
Coordinates from ORCA-job ./orca E -398.971095700668
  O       1.749546     -0.317853     -0.616715
  N      -1.918366      0.026293     -0.021181
  C      -0.635317     -0.056143     -0.728936
  C       0.561458     -0.243766      0.190561
  H      -0.499539      0.858038     -1.312548
  H      -0.678192     -0.888935     -1.435727
  H       0.441596     -1.164695      0.771467
  H       0.630870      0.597641      0.887709
  H      -2.036905     -0.799622      0.559742
  H      -1.899479      0.813655      0.621119
  H       2.508427     -0.411951     -0.027611
  O      -4.994809     -0.489938     -0.765582
  C      -4.378377     -0.170363     -1.694914
  O      -3.797893      0.146326     -2.648065
14
Coordinates from ORCA-job ./orca E -398.971101561444
  O       1.749259     -0.317380     -0.617687
  N      -1.918237      0.026494     -0.020653
  C      -0.635348     -0.056440     -0.727795
  C       0.562083     -0.243742      0.190891
  H      -0.499959      0.857471     -1.311973
  H      -0.678945     -0.889739     -1.433959
  H       0.443227     -1.164713      0.771926
  H       0.631739      0.597766      0.887919
  H      -2.038718     -0.800046      0.558715
  H      -1.899920      0.813573      0.621744
  H       2.508804     -0.411305     -0.029397
  O      -4.995997     -0.489225     -0.766881
  C      -4.377765     -0.170017     -1.695114
  O      -3.797204      0.145989     -2.648419
14
Coordinates from ORCA-job ./orca E -398.971096739468
  O       1.748937     -0.317131     -0.618411
  N      -1.918388      0.026829     -0.020554
  C      -0.635348     -0.056388     -0.726909
  C       0.562478     -0.243575      0.191235
  H      -0.500246      0.857234     -1.311643
  H      -0.679239     -0.890147     -1.432550
  H       0.444253     -1.164544      0.772389
  H       0.632615      0.597942      0.888225
  H      -2.040010     -0.800304      0.557619
  H      -1.899909      0.813281      0.622500
  H       2.508996     -0.411319     -0.030826
  O      -4.996799     -0.488841     -0.767736
  C      -4.377618     -0.169968     -1.695419
  O      -3.796703      0.145619     -2.648601
14
Coordinates from ORCA-job ./orca E -398.969359438035
  O       1.752117     -0.316946     -0.620225
  N      -1.948106      0.026689     -0.032677
  C      -0.631937     -0.056284     -0.730146
  C       0.565181     -0.244123      0.188788
  H      -0.494989      0.857346     -1.314472
  H      -0.666165     -0.892174     -1.435626
  H       0.447132     -1.166158      0.768289
  H       0.634703      0.596485      0.886937
  H      -2.053575     -0.809917      0.564082
  H      -1.915699      0.827532      0.628838
  H       2.511811     -0.411872     -0.032285
  O      -5.004855     -0.488381     -0.766230
  C      -4.350796     -0.169085     -1.676084
  O      -3.791804      0.145573     -2.649868
14
Coordinates from ORCA-job ./orca E -398.970428630674
  O       1.741135     -0.318159     -0.616996
  N      -1.937085      0.027235     -0.038556
  C      -0.637119     -0.053451     -0.731851
  C       0.554651     -0.243429      0.191408
  H      -0.501380      0.861386     -1.313736
  H      -0.672831     -0.888141     -1.436589
  H       0.433762     -1.165328      0.770345
  H       0.625320      0.596965      0.889673
  H      -2.036748     -0.796761      0.549885
  H      -1.901866      0.809127      0.611433
  H       2.499957     -0.415077     -0.028289
  O      -4.982585     -0.490953     -0.755359
  C      -4.346471     -0.169088     -1.672063
  O      -3.785721      0.144361     -2.639986
14
Coordinates from ORCA-job ./orca E -398.970549345714
  O       1.738982     -0.318900     -0.615066
  N      -1.933426      0.027226     -0.040326
  C      -0.640024     -0.052303     -0.734862
  C       0.550240     -0.243179      0.190679
  H      -0.503590      0.863189     -1.315933
  H      -0.675847     -0.885896     -1.441054
  H       0.427145     -1.164950      0.769472
  H       0.620517      0.596793      0.889570
  H      -2.034847     -0.796885      0.546708
  H      -1.900609      0.808586      0.608412
  H       2.496564     -0.416933     -0.024884
  O      -4.968997     -0.490982     -0.747648
  C      -4.344307     -0.170948     -1.671401
  O      -3.778784      0.143869     -2.634346
14
Coordinates from ORCA-job ./orca E -398.970605726938
  O       1.739300     -0.319361     -0.613715
  N      -1.931499      0.027168     -0.039761
  C      -0.642302     -0.052015     -0.737735
  C       0.547858     -0.243144      0.188898
  H      -0.504528      0.863709     -1.318474
  H      -0.678547     -0.884264     -1.445797
  H       0.423034     -1.164700      0.767731
  H       0.617110      0.596560      0.888185
  H      -2.038118     -0.797982      0.545476
  H      -1.903592      0.810014      0.608321
  H       2.495519     -0.417790     -0.021861
  O      -4.957982     -0.490908     -0.741245
  C      -4.342258     -0.171795     -1.670922
  O      -3.770978      0.143195     -2.629780
14
Coordinates from ORCA-job ./orca E -398.970614890411
  O       1.740003     -0.319091     -0.613970
  N      -1.930931      0.027132     -0.038000
  C      -0.642967     -0.052558     -0.738169
  C       0.547981     -0.243345      0.187903
  H      -0.504621      0.863033     -1.318997
  H      -0.680073     -0.884219     -1.446847
  H       0.423261     -1.164874      0.766815
  H       0.616541      0.596470      0.887070
  H      -2.042184     -0.798680      0.545407
  H      -1.906647      0.810939      0.609206
  H       2.495944     -0.417010     -0.021702
  O      -4.955465     -0.490018     -0.740013
  C      -4.340601     -0.171896     -1.670763
  O      -3.767223      0.142804     -2.628620
14
Coordinates from ORCA-job ./orca E -398.970626814417
  O       1.740561     -0.318341     -0.615272
  N      -1.930031      0.027201     -0.035066
  C      -0.643539     -0.053690     -0.737477
  C       0.548943     -0.243730      0.187044
  H      -0.504921      0.861601     -1.318701
  H      -0.682527     -0.885048     -1.446273
  H       0.425391     -1.165307      0.766135
  H       0.616766      0.596446      0.885799
  H      -2.048216     -0.799662      0.545005
  H      -1.910581      0.812129      0.610679
  H       2.496802     -0.415117     -0.023229
  O      -4.954785     -0.488582     -0.740599
  C      -4.337882     -0.171392     -1.670561
  O      -3.762963      0.142180     -2.628165
14
Coordinates from ORCA-job ./orca E -398.970631147400
  O       1.740454     -0.317625     -0.616715
  N      -1.929442      0.027430     -0.033279
  C      -0.643793     -0.054459     -0.736129
  C       0.549890     -0.243973      0.187012
  H      -0.505434      0.860550     -1.317894
  H      -0.684328     -0.886117     -1.444424
  H       0.427727     -1.165658      0.766226
  H       0.617583      0.596441      0.885508
  H      -2.051952     -0.800248      0.544236
  H      -1.912428      0.812721      0.611658
  H       2.497446     -0.413650     -0.025502
  O      -4.955815     -0.487500     -0.742287
  C      -4.336042     -0.170981     -1.670637
  O      -3.760849      0.141754     -2.628456
14
Coordinates from ORCA-job ./orca E -398.970633111838
  O       1.740061     -0.317174     -0.617855
  N      -1.929300      0.027810     -0.032545
  C      -0.643916     -0.054715     -0.734870
  C       0.550509     -0.244008      0.187335
  H      -0.505920      0.860009     -1.317223
  H      -0.685356     -0.886883     -1.442526
  H       0.429397     -1.165775      0.766629
  H       0.618538      0.596457      0.885764
  H      -2.053943     -0.800480      0.543346
  H      -1.912894      0.812871      0.612397
  H       2.497802     -0.413046     -0.027565
  O      -4.956893     -0.487052     -0.743813
  C      -4.335189     -0.170765     -1.670927
  O      -3.759878      0.141438     -2.628826
14
Coordinates from ORCA-job ./orca E -398.970634653129
  O       1.739612     -0.316980     -0.618746
  N      -1.929463      0.028340     -0.032267
  C      -0.644010     -0.054595     -0.733860
  C       0.550886     -0.243884      0.187683
  H      -0.506286      0.859825     -1.316800
  H      -0.685906     -0.887234     -1.440977
  H       0.430435     -1.165678      0.767056
  H       0.619536      0.596540      0.886121
  H      -2.055347     -0.800525      0.542400
  H      -1.912855      0.812798      0.613282
  H       2.497959     -0.413166     -0.029279
  O      -4.957575     -0.487008     -0.744914
  C      -4.334831     -0.170849     -1.671339
  O      -3.759138      0.141103     -2.629041
14
Coordinates from ORCA-job ./orca E -398.969120978555
  O       1.737609     -0.316082     -0.620554
  N      -1.951371      0.028031     -0.042164
  C      -0.645807     -0.054219     -0.738790
  C       0.547765     -0.244163      0.184335
  H      -0.503643      0.860039     -1.321499
  H      -0.670812     -0.891309     -1.444123
  H       0.427068     -1.166987      0.762019
  H       0.615140      0.595308      0.884045
  H      -2.062020     -0.809998      0.549310
  H      -1.920883      0.825015      0.620571
  H       2.495160     -0.412896     -0.030166
  O      -4.960369     -0.486303     -0.745233
  C      -4.300326     -0.167836     -1.649858
  O      -3.754492      0.140089     -2.628573
14
Coordinates from ORCA-job ./orca E -398.969959008015
  O       1.729971     -0.318082     -0.617318
  N      -1.945699      0.028479     -0.047979
  C      -0.649660     -0.051599     -0.740566
  C       0.540072     -0.243520      0.186486
  H      -0.508817      0.863671     -1.320856
  H      -0.678607     -0.886238     -1.446025
  H       0.416334     -1.165984      0.763947
  H       0.608844      0.595940      0.886163
  H      -2.050940     -0.797760      0.536203
  H      -1.913034      0.808566      0.604297
  H       2.486526     -0.416690     -0.025980
  O      -4.936393     -0.489487     -0.730483
  C      -4.299761     -0.168998     -1.647987
  O      -3.745817      0.140388     -2.620580
14
Coordinates from ORCA-job ./orca E -398.970047248806
  O       1.728734     -0.318789     -0.616027
  N      -1.944281      0.028240     -0.049565
  C      -0.651412     -0.050823     -0.742557
  C       0.537332     -0.243452      0.185997
  H      -0.510713      0.865236     -1.321788
  H      -0.682796     -0.883599     -1.449970
  H       0.411925     -1.165818      0.763335
  H       0.605989      0.595666      0.886112
  H      -2.051359     -0.797838      0.533500
  H      -1.913948      0.808061      0.601183
  H       2.484477     -0.417992     -0.023703
  O      -4.923721     -0.487805     -0.722856
  C      -4.298742     -0.172497     -1.648581
  O      -3.738468      0.140096     -2.615762
14
Coordinates from ORCA-job ./orca E -398.970074475264
  O       1.729118     -0.319556     -0.615543
  N      -1.943323      0.028190     -0.048942
  C      -0.652439     -0.051177     -0.743925
  C       0.536329     -0.243375      0.184902
  H      -0.511737      0.864921     -1.323333
  H      -0.686927     -0.882823     -1.452676
  H       0.410002     -1.165172      0.763006
  H       0.604533      0.596081      0.884583
  H      -2.054923     -0.798926      0.532393
  H      -1.916916      0.809198      0.601363
  H       2.484257     -0.418133     -0.022340
  O      -4.915100     -0.490359     -0.719674
  C      -4.298011     -0.169456     -1.648008
  O      -3.731845      0.139274     -2.612485
14
Coordinates from ORCA-job ./orca E -398.970084274944
  O       1.730085     -0.318764     -0.615921
  N      -1.942614      0.027739     -0.047239
  C      -0.652740     -0.051953     -0.744016
  C       0.536694     -0.243830      0.183963
  H      -0.512458      0.864349     -1.323333
  H      -0.689397     -0.882513     -1.454021
  H       0.410879     -1.165832      0.761873
  H       0.603965      0.595427      0.883895
  H      -2.059114     -0.799953      0.532551
  H      -1.919987      0.810195      0.602051
  H       2.485106     -0.416408     -0.022432
  O      -4.914085     -0.485838     -0.718539
  C      -4.295566     -0.172676     -1.648515
  O      -3.727750      0.138744     -2.610998
14
Coordinates from ORCA-job ./orca E -398.970093855965
  O       1.730542     -0.318116     -0.616874
  N      -1.941716      0.027606     -0.045237
  C      -0.652811     -0.052967     -0.743258
  C       0.537525     -0.244128      0.183498
  H      -0.513038      0.863039     -1.323195
  H      -0.691320     -0.883464     -1.453166
  H       0.412855     -1.166119      0.761678
  H       0.604236      0.595438      0.883092
  H      -2.062585     -0.800671      0.532349
  H      -1.922035      0.810505      0.603176
  H       2.485901     -0.414417     -0.023609
  O      -4.915648     -0.484532     -0.720095
  C      -4.293645     -0.171693     -1.648155
  O      -3.725242      0.138206     -2.610884
14
Coordinates from ORCA-job ./orca E -398.970105484887
  O       1.730497     -0.317298     -0.618599
  N      -1.940560      0.027610     -0.042804
  C      -0.653168     -0.054170     -0.741734
  C       0.538607     -0.244381      0.183273
  H      -0.514109      0.861231     -1.322837
  H      -0.693783     -0.885176     -1.450828
  H       0.415799     -1.166326      0.761918
  H       0.605002      0.595693      0.882318
  H      -2.067072     -0.801753      0.531189
  H      -1.924319      0.810663      0.604755
  H       2.486696     -0.411877     -0.026129
  O      -4.917737     -0.483182     -0.722614
  C      -4.291220     -0.169914     -1.647801
  O      -3.721615      0.137566     -2.610788
14
Coordinates from ORCA-job ./orca E -398.970108704571
  O       1.730219     -0.317164     -0.619247
  N      -1.940603      0.027750     -0.042432
  C      -0.653386     -0.054235     -0.741129
  C       0.538873     -0.244291      0.183413
  H      -0.514394      0.860901     -1.322682
  H      -0.694018     -0.885664     -1.449746
  H       0.416560     -1.166213      0.762187
  H       0.605557      0.595872      0.882344
  H      -2.068261     -0.802103      0.530479
  H      -1.924717      0.810537      0.605348
  H       2.486822     -0.411586     -0.027260
  O      -4.918180     -0.482808     -0.723272
  C      -4.290886     -0.169726     -1.647987
  O      -3.720568      0.137417     -2.610695
14
Coordinates from ORCA-job ./orca E -398.968554834020
  O       1.728166     -0.316277     -0.621020
  N      -1.962333      0.027380     -0.052168
  C      -0.655212     -0.053887     -0.746257
  C       0.535632     -0.244567      0.179982
  H      -0.511858      0.861093     -1.327598
  H      -0.678993     -0.889837     -1.453176
  H       0.413032     -1.167509      0.757071
  H       0.600965      0.594659      0.880169
  H      -2.074909     -0.811611      0.537386
  H      -1.932570      0.823045      0.613646
  H       2.483915     -0.411310     -0.028039
  O      -4.920649     -0.482062     -0.723610
  C      -4.256125     -0.166669     -1.626456
  O      -3.716043      0.136239     -2.610611
14
Coordinates from ORCA-job ./orca E -398.969408615749
  O       1.720640     -0.318049     -0.617800
  N      -1.956480      0.028101     -0.058184
  C      -0.658917     -0.051040     -0.747830
  C       0.528162     -0.244026      0.182258
  H      -0.516852      0.864979     -1.326670
  H      -0.686536     -0.884513     -1.454725
  H       0.402547     -1.166949      0.758594
  H       0.594864      0.594780      0.882896
  H      -2.063607     -0.798872      0.524660
  H      -1.925340      0.806930      0.594998
  H       2.475407     -0.415420     -0.023964
  O      -4.897985     -0.485552     -0.709116
  C      -4.255656     -0.168687     -1.624257
  O      -3.707228      0.137005     -2.601542
14
Coordinates from ORCA-job ./orca E -398.969490874369
  O       1.719578     -0.318712     -0.616489
  N      -1.954975      0.028163     -0.059915
  C      -0.660457     -0.050187     -0.749753
  C       0.525661     -0.243991      0.181848
  H      -0.518409      0.866547     -1.327617
  H      -0.690379     -0.881998     -1.458373
  H       0.398351     -1.166968      0.757816
  H       0.592247      0.594296      0.883133
  H      -2.063871     -0.798621      0.521924
  H      -1.926578      0.807430      0.591598
  H       2.473512     -0.417162     -0.021726
  O      -4.886309     -0.485505     -0.702182
  C      -4.255013     -0.171344     -1.624376
  O      -3.700341      0.136740     -2.596569
14
Coordinates from ORCA-job ./orca E -398.969520202213
  O       1.720216     -0.319101     -0.615876
  N      -1.953938      0.028333     -0.059590
  C      -0.661235     -0.050297     -0.751084
  C       0.524860     -0.244066      0.180824
  H      -0.519046      0.866621     -1.328859
  H      -0.694013     -0.880860     -1.461209
  H       0.396608     -1.166853      0.756949
  H       0.590856      0.594119      0.882209
  H      -2.067431     -0.799226      0.520738
  H      -1.929934      0.809261      0.591104
  H       2.473459     -0.417717     -0.020262
  O      -4.878923     -0.487219     -0.698823
  C      -4.254224     -0.170285     -1.623801
  O      -3.694239      0.135977     -2.592999
14
Coordinates from ORCA-job ./orca E -398.969531306662
  O       1.721237     -0.318327     -0.616054
  N      -1.952978      0.028246     -0.058239
  C      -0.661410     -0.050805     -0.751276
  C       0.525201     -0.244542      0.179942
  H      -0.519427      0.866341     -1.328868
  H      -0.696484     -0.880215     -1.462710
  H       0.397252     -1.167642      0.755659
  H       0.590279      0.593300      0.881750
  H      -2.071742     -0.799793      0.520419
  H      -1.933338      0.810678      0.591138
  H       2.474231     -0.416709     -0.020105
  O      -4.877642     -0.483838     -0.697433
  C      -4.252029     -0.173371     -1.623881
  O      -3.690130      0.135366     -2.591022
14
Coordinates from ORCA-job ./orca E -398.969536233098
  O       1.721921     -0.317756     -0.616779
  N      -1.951790      0.028478     -0.056417
  C      -0.661378     -0.051641     -0.750740
  C       0.526016     -0.244869      0.179387
  H      -0.519640      0.865216     -1.328903
  H      -0.698770     -0.880794     -1.462301
  H       0.398956     -1.167976      0.755297
  H       0.590456      0.593223      0.880929
  H      -2.076007     -0.800254      0.519650
  H      -1.936112      0.811539      0.591905
  H       2.475064     -0.415369     -0.020905
  O      -4.878290     -0.483940     -0.698525
  C      -4.250312     -0.171699     -1.623020
  O      -3.687095      0.134530     -2.590257
14
Coordinates from ORCA-job ./orca E -398.969544433569
  O       1.721995     -0.317027     -0.617955
  N      -1.950898      0.028830     -0.054975
  C      -0.661320     -0.052248     -0.749496
  C       0.527015     -0.245129      0.179414
  H      -0.519861      0.864209     -1.328374
  H      -0.699970     -0.881801     -1.460437
  H       0.401338     -1.168361      0.755406
  H       0.591248      0.593190      0.880746
  H      -2.079400     -0.800679      0.518370
  H      -1.937754      0.811901      0.592714
  H       2.475741     -0.414021     -0.022746
  O      -4.880834     -0.483187     -0.700462
  C      -4.248819     -0.170872     -1.622520
  O      -3.685464      0.133882     -2.590364
14
Coordinates from ORCA-job ./orca E -398.969552013255
  O       1.721773     -0.316828     -0.618546
  N      -1.950880      0.029147     -0.054781
  C      -0.661376     -0.052198     -0.748824
  C       0.527381     -0.245101      0.179661
  H      -0.519872      0.864024     -1.328071
  H      -0.699950     -0.882175     -1.459287
  H       0.402230     -1.168391      0.755651
  H       0.591883      0.593233      0.880978
  H      -2.080674     -0.800877      0.517351
  H      -1.938095      0.811904      0.593120
  H       2.475924     -0.413883     -0.023852
  O      -4.881723     -0.482870     -0.701107
  C      -4.248614     -0.170869     -1.622561
  O      -3.684990      0.133571     -2.590413
14
Coordinates from ORCA-job ./orca E -398.967940718808
  O       1.719736     -0.315919     -0.620346
  N      -1.972586      0.028704     -0.064427
  C      -0.663183     -0.051896     -0.753928
  C       0.524180     -0.245371      0.176224
  H      -0.517346      0.864184     -1.332983
  H      -0.684996     -0.886422     -1.462784
  H       0.398797     -1.169677      0.750535
  H       0.587315      0.592034      0.878777
  H      -2.087456     -0.810477      0.524352
  H      -1.946115      0.824469      0.601532
  H       2.473047     -0.413556     -0.024682
  O      -4.884150     -0.482022     -0.701649
  C      -4.213760     -0.167691     -1.601065
  O      -3.680466      0.132328     -2.590237
14
Coordinates from ORCA-job ./orca E -398.968751789351
  O       1.712230     -0.317652     -0.617141
  N      -1.966465      0.029267     -0.070268
  C      -0.666791     -0.049163     -0.755502
  C       0.516764     -0.244824      0.178505
  H      -0.522342      0.867942     -1.332026
  H      -0.692474     -0.881170     -1.464227
  H       0.388438     -1.169037      0.752170
  H       0.581214      0.592255      0.881405
  H      -2.075982     -0.797928      0.511744
  H      -1.938572      0.808146      0.582980
  H       2.464573     -0.417409     -0.020620
  O      -4.862257     -0.485368     -0.687461
  C      -4.213102     -0.169362     -1.598619
  O      -3.672216      0.132989     -2.581621
14
Coordinates from ORCA-job ./orca E -398.968858882423
  O       1.711309     -0.318203     -0.615730
  N      -1.964881      0.029215     -0.072061
  C      -0.668240     -0.048389     -0.757439
  C       0.514336     -0.244840      0.178107
  H      -0.523828      0.869467     -1.332929
  H      -0.696170     -0.878708     -1.467898
  H       0.384376     -1.169128      0.751367
  H       0.578531      0.591699      0.881691
  H      -2.076165     -0.797773      0.508963
  H      -1.939701      0.808571      0.579476
  H       2.462791     -0.418883     -0.018228
  O      -4.851074     -0.484877     -0.680478
  C      -4.212488     -0.172083     -1.598636
  O      -3.665779      0.132619     -2.576886
14
Coordinates from ORCA-job ./orca E -398.968888205323
  O       1.712085     -0.318543     -0.614900
  N      -1.963778      0.029302     -0.071989
  C      -0.668951     -0.048537     -0.758892
  C       0.513518     -0.244952      0.177086
  H      -0.524345      0.869546     -1.334219
  H      -0.699734     -0.877546     -1.470925
  H       0.382575     -1.169073      0.750457
  H       0.576968      0.591451      0.880822
  H      -2.079697     -0.798466      0.507491
  H      -1.943093      0.810345      0.578689
  H       2.462783     -0.419276     -0.016419
  O      -4.843475     -0.486458     -0.676701
  C      -4.211951     -0.170748     -1.597895
  O      -3.659887      0.131644     -2.573285
14
Coordinates from ORCA-job ./orca E -398.968896564100
  O       1.713239     -0.317678     -0.614907
  N      -1.962883      0.029118     -0.070917
  C      -0.668982     -0.049056     -0.759123
  C       0.513921     -0.245475      0.176262
  H      -0.524514      0.869299     -1.334178
  H      -0.701837     -0.876898     -1.472504
  H       0.383295     -1.169971      0.749127
  H       0.576335      0.590527      0.880497
  H      -2.083867     -0.799083      0.506996
  H      -1.946468      0.811637      0.578469
  H       2.463637     -0.418087     -0.016015
  O      -4.842449     -0.482646     -0.675047
  C      -4.210070     -0.173844     -1.597889
  O      -3.656339      0.130843     -2.571451
14
Coordinates from ORCA-job ./orca E -398.968903965601
  O       1.714010     -0.317013     -0.615440
  N      -1.961782      0.029246     -0.069458
  C      -0.668777     -0.049849     -0.758644
  C       0.514770     -0.245839      0.175811
  H      -0.524478      0.868287     -1.334137
  H      -0.703617     -0.877414     -1.472207
  H       0.385011     -1.170431      0.748725
  H       0.576462      0.590325      0.879892
  H      -2.087839     -0.799584      0.506030
  H      -1.949153      0.812320      0.578938
  H       2.464510     -0.416633     -0.016556
  O      -4.843367     -0.482150     -0.675777
  C      -4.208711     -0.172370     -1.596990
  O      -3.654021      0.129792     -2.570866
14
Coordinates from ORCA-job ./orca E -398.968912202413
  O       1.714289     -0.316136     -0.616473
  N      -1.960695      0.029515     -0.068172
  C      -0.668531     -0.050511     -0.757442
  C       0.515892     -0.246172      0.175868
  H      -0.524467      0.867260     -1.333591
  H      -0.704710     -0.878382     -1.470498
  H       0.387561     -1.170961      0.748761
  H       0.577194      0.590171      0.879813
  H      -2.091673     -0.800208      0.504221
  H      -1.951260      0.812645      0.579504
  H       2.465351     -0.415014     -0.018175
  O      -4.845998     -0.480887     -0.677317
  C      -4.207356     -0.171266     -1.596209
  O      -3.652579      0.128635     -2.570970
14
Coordinates from ORCA-job ./orca E -398.968918865400
  O       1.714169     -0.315899     -0.616895
  N      -1.960630      0.029747     -0.068164
  C      -0.668500     -0.050444     -0.756893
  C       0.516238     -0.246154      0.176130
  H      -0.524361      0.867146     -1.333321
  H      -0.704538     -0.878657     -1.469569
  H       0.388345     -1.171033      0.748958
  H       0.577727      0.590151      0.880128
  H      -2.092885     -0.800497      0.503023
  H      -1.951694      0.812584      0.579727
  H       2.465571     -0.414836     -0.019026
  O      -4.846747     -0.480296     -0.677592
  C      -4.207315     -0.171210     -1.596141
  O      -3.652362      0.128084     -2.571047
14
Coordinates from ORCA-job ./orca E -398.967264071453
  O       1.709902     -0.316185     -0.618528
  N      -1.979649      0.028813     -0.079160
  C      -0.672460     -0.050076     -0.761548
  C       0.511032     -0.245915      0.173032
  H      -0.522314      0.867313     -1.337851
  H      -0.701979     -0.880462     -1.471955
  H       0.382332     -1.170819      0.745638
  H       0.571858      0.590416      0.877057
  H      -2.094258     -0.812098      0.509305
  H      -1.956195      0.824706      0.588296
  H       2.460543     -0.415307     -0.019734
  O      -4.841206     -0.482484     -0.674745
  C      -4.168678     -0.167655     -1.577725
  O      -3.645911      0.128440     -2.572763
14
Coordinates from ORCA-job ./orca E -398.968008651325
  O       1.705127     -0.316255     -0.616671
  N      -1.974440      0.028922     -0.080232
  C      -0.674313     -0.049021     -0.761889
  C       0.506739     -0.245964      0.174855
  H      -0.526558      0.869006     -1.336431
  H      -0.705191     -0.878619     -1.473068
  H       0.377199     -1.171002      0.746954
  H       0.567869      0.590165      0.879160
  H      -2.087054     -0.798543      0.500137
  H      -1.950714      0.807290      0.573687
  H       2.455531     -0.415353     -0.017585
  O      -4.831213     -0.481080     -0.669894
  C      -4.167218     -0.168415     -1.573192
  O      -3.642748      0.127558     -2.566512
14
Coordinates from ORCA-job ./orca E -398.968067119574
  O       1.704589     -0.316168     -0.615883
  N      -1.972836      0.028343     -0.080407
  C      -0.675132     -0.049148     -0.763404
  C       0.505224     -0.246209      0.174461
  H      -0.528283      0.869322     -1.337376
  H      -0.705934     -0.877940     -1.475638
  H       0.375180     -1.171289      0.746389
  H       0.565714      0.589684      0.879128
  H      -2.088210     -0.799157      0.498533
  H      -1.951631      0.807189      0.571613
  H       2.454551     -0.414619     -0.016095
  O      -4.825318     -0.479134     -0.666367
  C      -4.166588     -0.168688     -1.571975
  O      -3.638309      0.126501     -2.563658
14
Coordinates from ORCA-job ./orca E -398.968187973267
  O       1.705160     -0.315508     -0.614391
  N      -1.970432      0.026236     -0.080314
  C      -0.676941     -0.050405     -0.766614
  C       0.502958     -0.246850      0.172671
  H      -0.532019      0.868897     -1.339837
  H      -0.707464     -0.877324     -1.481143
  H       0.372258     -1.172005      0.744327
  H       0.561204      0.588605      0.877997
  H      -2.095174     -0.802674      0.494633
  H      -1.957365      0.808368      0.568290
  H       2.453974     -0.411314     -0.012699
  O      -4.812371     -0.472871     -0.656708
  C      -4.165516     -0.168461     -1.570227
  O      -3.625254      0.123991     -2.556666
14
Coordinates from ORCA-job ./orca E -398.968200765089
  O       1.705765     -0.315033     -0.614825
  N      -1.970725      0.025220     -0.080033
  C      -0.677142     -0.051318     -0.766284
  C       0.503542     -0.246855      0.172207
  H      -0.532601      0.867855     -1.339921
  H      -0.707791     -0.878256     -1.480726
  H       0.373478     -1.171951      0.744113
  H       0.561286      0.588892      0.877187
  H      -2.099026     -0.804467      0.493095
  H      -1.960603      0.807940      0.568147
  H       2.454660     -0.409354     -0.013036
  O      -4.811115     -0.470018     -0.654770
  C      -4.165469     -0.167500     -1.570706
  O      -3.621240      0.123533     -2.555128
14
Coordinates from ORCA-job ./orca E -398.968205829057
  O       1.706076     -0.314438     -0.615862
  N      -1.971322      0.024095     -0.079891
  C      -0.677009     -0.052342     -0.765028
  C       0.504747     -0.246662      0.172255
  H      -0.532750      0.866429     -1.339477
  H      -0.707856     -0.879858     -1.478758
  H       0.375883     -1.171626      0.744678
  H       0.562408      0.589670      0.876552
  H      -2.102557     -0.806500      0.491205
  H      -1.963562      0.806650      0.568683
  H       2.455558     -0.407100     -0.014573
  O      -4.812263     -0.466716     -0.654504
  C      -4.165665     -0.166067     -1.571483
  O      -3.618669      0.123153     -2.554477
14
Coordinates from ORCA-job ./orca E -398.968202158083
  O       1.706153     -0.313901     -0.616624
  N      -1.971601      0.023161     -0.080047
  C      -0.676752     -0.053070     -0.764002
  C       0.505673     -0.246416      0.172598
  H      -0.532738      0.865325     -1.339169
  H      -0.707566     -0.881182     -1.477064
  H       0.377815     -1.171233      0.745498
  H       0.563381      0.590372      0.876369
  H      -2.104592     -0.808222      0.489406
  H      -1.965183      0.805101      0.569274
  H       2.456247     -0.405308     -0.015906
  O      -4.814044     -0.463681     -0.654841
  C      -4.166034     -0.164828     -1.571780
  O      -3.617740      0.122569     -2.554391
14
Coordinates from ORCA-job ./orca E -398.966536421427
  O       1.701930     -0.314185     -0.618147
  N      -1.990528      0.022251     -0.091114
  C      -0.680637     -0.052629     -0.768776
  C       0.500440     -0.246157      0.169490
  H      -0.530644      0.865596     -1.343812
  H      -0.704915     -0.882913     -1.479564
  H       0.371692     -1.171009      0.742136
  H       0.557440      0.590640      0.873308
  H      -2.106061     -0.820010      0.495641
  H      -1.969682      0.817257      0.577830
  H       2.451200     -0.405812     -0.016434
  O      -4.808522     -0.465790     -0.651895
  C      -4.127385     -0.161386     -1.553306
  O      -3.611310      0.122834     -2.556037
14
Coordinates from ORCA-job ./orca E -398.967287827347
  O       1.697055     -0.314103     -0.616224
  N      -1.984803      0.022198     -0.092036
  C      -0.682346     -0.051684     -0.769275
  C       0.496073     -0.246128      0.171374
  H      -0.535041      0.867167     -1.342566
  H      -0.708268     -0.881100     -1.480869
  H       0.366525     -1.171166      0.743452
  H       0.553223      0.590416      0.875522
  H      -2.098282     -0.806412      0.486495
  H      -1.964155      0.799634      0.563197
  H       2.446077     -0.405825     -0.014218
  O      -4.799017     -0.463979     -0.647359
  C      -4.125613     -0.162001     -1.548364
  O      -3.608410      0.121670     -2.549808
14
Coordinates from ORCA-job ./orca E -398.967351400870
  O       1.696734     -0.313777     -0.615338
  N      -1.982938      0.021407     -0.092091
  C      -0.683002     -0.051973     -0.770888
  C       0.494671     -0.246308      0.170960
  H      -0.536795      0.867302     -1.343690
  H      -0.709040     -0.880560     -1.483531
  H       0.364711     -1.171422      0.742837
  H       0.550946      0.589968      0.875504
  H      -2.099183     -0.807358      0.485024
  H      -1.965256      0.799504      0.561285
  H       2.445265     -0.404958     -0.012593
  O      -4.793957     -0.461528     -0.644178
  C      -4.124857     -0.162034     -1.546882
  O      -3.604280      0.120424     -2.547101
14
Coordinates from ORCA-job ./orca E -398.967436077393
  O       1.697910     -0.312365     -0.613553
  N      -1.979854      0.018544     -0.091711
  C      -0.684377     -0.053694     -0.774243
  C       0.492770     -0.246746      0.169152
  H      -0.540643      0.866358     -1.346518
  H      -0.710564     -0.880415     -1.489107
  H       0.362501     -1.171988      0.740744
  H       0.546166      0.589088      0.874364
  H      -2.105304     -0.811671      0.481323
  H      -1.971454      0.800020      0.558017
  H       2.445129     -0.401257     -0.008800
  O      -4.783526     -0.453654     -0.635467
  C      -4.123545     -0.161007     -1.544377
  O      -3.592192      0.117474     -2.540504
14
Coordinates from ORCA-job ./orca E -398.967457130374
  O       1.698735     -0.311493     -0.613854
  N      -1.979878      0.016940     -0.091377
  C      -0.684558     -0.054895     -0.774021
  C       0.493413     -0.246697      0.168629
  H      -0.541518      0.865056     -1.346742
  H      -0.710807     -0.881594     -1.488858
  H       0.363986     -1.171888      0.740512
  H       0.545977      0.589479      0.873470
  H      -2.109222     -0.814051      0.479578
  H      -1.975221      0.799163      0.557528
  H       2.445940     -0.398903     -0.008902
  O      -4.782533     -0.449597     -0.633312
  C      -4.123464     -0.159602     -1.544565
  O      -3.587833      0.116769     -2.538764
14
Coordinates from ORCA-job ./orca E -398.967464958055
  O       1.699266     -0.310329     -0.614930
  N      -1.980445      0.014975     -0.091227
  C      -0.684428     -0.056368     -0.772648
  C       0.494834     -0.246437      0.168655
  H      -0.541976      0.863171     -1.346295
  H      -0.710594     -0.883713     -1.486721
  H       0.367036     -1.171506      0.741126
  H       0.546970      0.590428      0.872724
  H      -2.113207     -0.816967      0.477363
  H      -1.979047      0.797236      0.557678
  H       2.447058     -0.395928     -0.010474
  O      -4.783979     -0.444525     -0.632718
  C      -4.123774     -0.157474     -1.545286
  O      -3.584696      0.116124     -2.537927
14
Coordinates from ORCA-job ./orca E -398.967463351129
  O       1.699419     -0.309326     -0.615780
  N      -1.980807      0.013368     -0.091453
  C      -0.684136     -0.057435     -0.771452
  C       0.495947     -0.246108      0.169073
  H      -0.542125      0.861697     -1.345918
  H      -0.709919     -0.885491     -1.484744
  H       0.369540     -1.171045      0.742077
  H       0.547918      0.591292      0.872543
  H      -2.115364     -0.819382      0.475410
  H      -1.981182      0.795116      0.558045
  H       2.447889     -0.393617     -0.011982
  O      -4.786137     -0.440091     -0.632952
  C      -4.124327     -0.155652     -1.545633
  O      -3.583700      0.115360     -2.537914
14
Coordinates from ORCA-job ./orca E -398.967474979178
  O       1.699837     -0.307118     -0.616881
  N      -1.981133      0.009861     -0.092418
  C      -0.683343     -0.059485     -0.769611
  C       0.497878     -0.245318      0.170087
  H      -0.542346      0.858881     -1.345635
  H      -0.707761     -0.888877     -1.481487
  H       0.374058     -1.169972      0.744114
  H       0.549304      0.592990      0.872565
  H      -2.118589     -0.824621      0.470976
  H      -1.984546      0.790107      0.558777
  H       2.449521     -0.388954     -0.014242
  O      -4.790875     -0.430006     -0.633038
  C      -4.125871     -0.151822     -1.545636
  O      -3.583116      0.113021     -2.538252
14
Coordinates from ORCA-job ./orca E -398.967477678094
  O       1.700807     -0.304139     -0.617040
  N      -1.980946      0.005176     -0.094251
  C      -0.682097     -0.061885     -0.768526
  C       0.499692     -0.244255      0.171235
  H      -0.542512      0.855762     -1.346109
  H      -0.704086     -0.892524     -1.479117
  H       0.378500     -1.168604      0.746288
  H       0.549854      0.594865      0.872863
  H      -2.121225     -0.831545      0.464927
  H      -1.987582      0.783227      0.559430
  H       2.451404     -0.383239     -0.015158
  O      -4.796527     -0.416038     -0.631750
  C      -4.128291     -0.146995     -1.544643
  O      -3.583972      0.108880     -2.538829
14
Coordinates from ORCA-job ./orca E -398.967486823658
  O       1.703216     -0.299044     -0.615308
  N      -1.979858     -0.002644     -0.098074
  C      -0.679751     -0.065516     -0.768766
  C       0.501663     -0.242575      0.172641
  H      -0.542533      0.851481     -1.348021
  H      -0.697095     -0.897368     -1.478146
  H       0.383609     -1.166631      0.748787
  H       0.548673      0.597366      0.873518
  H      -2.123507     -0.842896      0.454686
  H      -1.990748      0.771686      0.559789
  H       2.454090     -0.374281     -0.013261
  O      -4.804467     -0.392043     -0.627075
  C      -4.132774     -0.139349     -1.541732
  O      -3.587503      0.100501     -2.539717
14
Coordinates from ORCA-job ./orca E -398.967498152667
  O       1.706808     -0.293445     -0.611018
  N      -1.977896     -0.011153     -0.103237
  C      -0.676792     -0.069058     -0.771426
  C       0.502652     -0.240877      0.173520
  H      -0.542050      0.847958     -1.351260
  H      -0.688674     -0.901204     -1.480568
  H       0.386472     -1.164843      0.750169
  H       0.544883      0.599497      0.874162
  H      -2.123463     -0.854982      0.443402
  H      -1.991952      0.759159      0.559150
  H       2.456398     -0.365296     -0.006951
  O      -4.811095     -0.365422     -0.618889
  C      -4.138224     -0.131522     -1.537246
  O      -3.594048      0.089874     -2.540490
14
Coordinates from ORCA-job ./orca E -398.967512824061
  O       1.711676     -0.287623     -0.603731
  N      -1.975163     -0.019928     -0.109884
  C      -0.673161     -0.072332     -0.776916
  C       0.502432     -0.239352      0.173657
  H      -0.540668      0.845642     -1.355744
  H      -0.679257     -0.903589     -1.487039
  H       0.386383     -1.163510      0.750025
  H       0.537963      0.601078      0.874545
  H      -2.120386     -0.867038      0.431752
  H      -1.990554      0.746439      0.557008
  H       2.458009     -0.356860      0.004657
  O      -4.815343     -0.337670     -0.606719
  C      -4.144660     -0.124020     -1.531268
  O      -3.604253      0.077450     -2.541024
14
Coordinates from ORCA-job ./orca E -398.967524193322
  O       1.716322     -0.282981     -0.596267
  N      -1.973019     -0.027112     -0.116265
  C      -0.669782     -0.074844     -0.782639
  C       0.501813     -0.238321      0.173306
  H      -0.538682      0.844606     -1.359425
  H      -0.671443     -0.904734     -1.494190
  H       0.384905     -1.162784      0.749040
  H       0.530734      0.602200      0.874334
  H      -2.116182     -0.876490      0.422487
  H      -1.988300      0.736397      0.553984
  H       2.458830     -0.350571      0.016963
  O      -4.816694     -0.315366     -0.594516
  C      -4.150607     -0.118260     -1.526117
  O      -3.614876      0.066946     -2.541375
14
Coordinates from ORCA-job ./orca E -398.967532548401
  O       1.721319     -0.276922     -0.588901
  N      -1.971386     -0.036671     -0.124205
  C      -0.665670     -0.078604     -0.787474
  C       0.502280     -0.236948      0.173596
  H      -0.536335      0.842258     -1.362405
  H      -0.662043     -0.907658     -1.499832
  H       0.385924     -1.161593      0.749171
  H       0.523707      0.604279      0.874026
  H      -2.113090     -0.889103      0.410175
  H      -1.988187      0.723131      0.550341
  H       2.460312     -0.341600      0.028878
  O      -4.818846     -0.286563     -0.581050
  C      -4.158030     -0.110150     -1.521013
  O      -3.626938      0.054831     -2.541987
14
Coordinates from ORCA-job ./orca E -398.967535102859
  O       1.723033     -0.274859     -0.586649
  N      -1.971793     -0.040373     -0.127826
  C      -0.663884     -0.079785     -0.788362
  C       0.503054     -0.236526      0.174076
  H      -0.534720      0.841775     -1.362263
  H      -0.658231     -0.908724     -1.500805
  H       0.387227     -1.161265      0.749613
  H       0.521923      0.605199      0.874000
  H      -2.111704     -0.893544      0.406017
  H      -1.989416      0.718362      0.548047
  H       2.461003     -0.338806      0.032437
  O      -4.818987     -0.276288     -0.576108
  C      -4.161611     -0.107191     -1.519990
  O      -3.632876      0.050714     -2.542869
14
Coordinates from ORCA-job ./orca E -398.967539269303
  O       1.723721     -0.273067     -0.585919
  N      -1.972623     -0.043733     -0.131372
  C      -0.662295     -0.080682     -0.787727
  C       0.504292     -0.236183      0.175316
  H      -0.533184      0.841192     -1.361146
  H      -0.654536     -0.909985     -1.499828
  H       0.389802     -1.161034      0.750916
  H       0.521869      0.605940      0.874864
  H      -2.111022     -0.897275      0.402354
  H      -1.992545      0.714367      0.545324
  H       2.461859     -0.336464      0.033038
  O      -4.819428     -0.267512     -0.572673
  C      -4.165026     -0.104500     -1.519739
  O      -3.637866      0.047623     -2.544089
14
Coordinates from ORCA-job ./orca E -398.967548892725
  O       1.723574     -0.272909     -0.585958
  N      -1.973085     -0.044402     -0.133023
  C      -0.661627     -0.080377     -0.787133
  C       0.504737     -0.236235      0.176164
  H      -0.532180      0.841588     -1.360310
  H      -0.652858     -0.909722     -1.499275
  H       0.390596     -1.161261      0.751526
  H       0.522607      0.605670      0.876002
  H      -2.110147     -0.897363      0.402076
  H      -1.994685      0.714255      0.543078
  H       2.462175     -0.336876      0.032395
  O      -4.819294     -0.266550     -0.571679
  C      -4.166514     -0.104307     -1.519805
  O      -3.640280      0.047177     -2.544739
14
Coordinates from ORCA-job ./orca E -398.967555095196
  O       1.723752     -0.272788     -0.585166
  N      -1.973168     -0.045391     -0.136052
  C      -0.660327     -0.079657     -0.787000
  C       0.505080     -0.236387      0.177365
  H      -0.530432      0.842567     -1.359588
  H      -0.649511     -0.908611     -1.499720
  H       0.390849     -1.161803      0.752039
  H       0.523323      0.604768      0.878118
  H      -2.108054     -0.897106      0.401721
  H      -1.998138      0.714688      0.538429
  H       2.462672     -0.338010      0.032681
  O      -4.819220     -0.265458     -0.569200
  C      -4.169035     -0.104334     -1.519013
  O      -3.644773      0.046208     -2.545294
14
Coordinates from ORCA-job ./orca E -398.967558840914
  O       1.724732     -0.272934     -0.583032
  N      -1.972630     -0.046491     -0.140088
  C      -0.658429     -0.078528     -0.787906
  C       0.505174     -0.236705      0.178380
  H      -0.528040      0.844339     -1.359268
  H      -0.644844     -0.906413     -1.501952
  H       0.389867     -1.162718      0.751856
  H       0.523491      0.603251      0.880561
  H      -2.104712     -0.896280      0.401578
  H      -2.002173      0.716059      0.531471
  H       2.463208     -0.340001      0.035146
  O      -4.819146     -0.264929     -0.565065
  C      -4.172274     -0.104823     -1.517059
  O      -3.651206      0.044861     -2.545303
14
Coordinates from ORCA-job ./orca E -398.967551750474
  O       1.727198     -0.273124     -0.578629
  N      -1.971130     -0.048653     -0.146224
  C      -0.655293     -0.077193     -0.790374
  C       0.505208     -0.237176      0.179221
  H      -0.524535      0.847016     -1.359376
  H      -0.637602     -0.903078     -1.506758
  H       0.387560     -1.164025      0.750876
  H       0.522621      0.601219      0.883258
  H      -2.099645     -0.895768      0.400598
  H      -2.007514      0.717729      0.520648
  H       2.463936     -0.342367      0.041378
  O      -4.819396     -0.263020     -0.557716
  C      -4.177103     -0.105215     -1.513107
  O      -3.661286      0.042343     -2.544476
14
Coordinates from ORCA-job ./orca E -398.967554430507
  O       1.730382     -0.273420     -0.573536
  N      -1.969230     -0.051099     -0.152019
  C      -0.652065     -0.076308     -0.793549
  C       0.505308     -0.237701      0.179403
  H      -0.521215      0.849578     -1.359726
  H      -0.630867     -0.900052     -1.512328
  H       0.384841     -1.165259      0.749371
  H       0.520851      0.599615      0.884735
  H      -2.094965     -0.895809      0.399166
  H      -2.011896      0.719156      0.509934
  H       2.464504     -0.343953      0.049417
  O      -4.819819     -0.260746     -0.549956
  C      -4.181598     -0.105313     -1.508623
  O      -3.671215      0.039998     -2.542969
14
Coordinates from ORCA-job ./orca E -398.967558919440
  O       1.732383     -0.273899     -0.570837
  N      -1.968100     -0.052338     -0.154383
  C      -0.650479     -0.076226     -0.795371
  C       0.505571     -0.238106      0.179032
  H      -0.519723      0.850730     -1.359794
  H      -0.628309     -0.898964     -1.515230
  H       0.383425     -1.165863      0.748360
  H       0.519580      0.599180      0.884420
  H      -2.093311     -0.895937      0.398488
  H      -2.013462      0.720147      0.504640
  H       2.464708     -0.344121      0.054275
  O      -4.820163     -0.260375     -0.546294
  C      -4.183407     -0.105278     -1.506233
  O      -3.675696      0.039737     -2.541753
14
Coordinates from ORCA-job ./orca E -398.967558975972
  O       1.733207     -0.273996     -0.569988
  N      -1.967714     -0.053051     -0.154988
  C      -0.649933     -0.076763     -0.795950
  C       0.505916     -0.238320      0.178812
  H      -0.519294      0.850603     -1.359707
  H      -0.627969     -0.899437     -1.515848
  H       0.383429     -1.165993      0.748210
  H       0.518829      0.599426      0.883685
  H      -2.093455     -0.896563      0.397776
  H      -2.013544      0.720094      0.503161
  H       2.464832     -0.343004      0.056089
  O      -4.820364     -0.259846     -0.545185
  C      -4.183887     -0.104761     -1.505464
  O      -3.677033      0.040298     -2.541284
14
Coordinates from ORCA-job ./orca E -398.967563080487
  O       1.733531     -0.273999     -0.569705
  N      -1.967628     -0.053426     -0.155328
  C      -0.649653     -0.077327     -0.796092
  C       0.506188     -0.238512      0.178831
  H      -0.518941      0.850138     -1.359648
  H      -0.628010     -0.900210     -1.515738
  H       0.383799     -1.166083      0.748411
  H       0.518386      0.599611      0.883275
  H      -2.093811     -0.896926      0.397298
  H      -2.013447      0.719993      0.502475
  H       2.464981     -0.341794      0.056721
  O      -4.820314     -0.259773     -0.544756
  C      -4.184177     -0.104279     -1.505221
  O      -3.677885      0.041273     -2.541202
14
Coordinates from ORCA-job ./orca E -398.965969484476
  O       1.724013     -0.272759     -0.567965
  N      -1.979128     -0.055454     -0.164773
  C      -0.658036     -0.077994     -0.807963
  C       0.492420     -0.237535      0.173616
  H      -0.525693      0.848832     -1.372194
  H      -0.620340     -0.906722     -1.520679
  H       0.367486     -1.164720      0.743277
  H       0.500039      0.601184      0.877432
  H      -2.085280     -0.911537      0.402353
  H      -2.005236      0.728925      0.512087
  H       2.451976     -0.339506      0.062645
  O      -4.807476     -0.260523     -0.534839
  C      -4.138863     -0.099738     -1.484429
  O      -3.662863      0.046233     -2.539247
14
Coordinates from ORCA-job ./orca E -398.966612219346
  O       1.722693     -0.272690     -0.569385
  N      -1.979056     -0.056790     -0.162279
  C      -0.659473     -0.079216     -0.804394
  C       0.493166     -0.236531      0.175307
  H      -0.529700      0.847173     -1.369340
  H      -0.628262     -0.906605     -1.518395
  H       0.369657     -1.163077      0.746154
  H       0.502637      0.602965      0.878215
  H      -2.086319     -0.898767      0.397492
  H      -2.006329      0.711846      0.502420
  H       2.452223     -0.338912      0.059465
  O      -4.802207     -0.259627     -0.538968
  C      -4.137877     -0.099046     -1.483497
  O      -3.658133      0.047964     -2.533476
14
Coordinates from ORCA-job ./orca E -398.966679097907
  O       1.721979     -0.271935     -0.571370
  N      -1.979345     -0.058113     -0.160116
  C      -0.660342     -0.080891     -0.802941
  C       0.493687     -0.236237      0.175307
  H      -0.531886      0.845061     -1.369034
  H      -0.632849     -0.907765     -1.517553
  H       0.371803     -1.162431      0.747144
  H       0.503569      0.603786      0.877500
  H      -2.090471     -0.900060      0.398274
  H      -2.009877      0.711201      0.503160
  H       2.452616     -0.337004      0.056314
  O      -4.798533     -0.258552     -0.541106
  C      -4.136201     -0.098107     -1.484609
  O      -3.651131      0.049733     -2.531652
14
Coordinates from ORCA-job ./orca E -398.966744831464
  O       1.720446     -0.269703     -0.576070
  N      -1.979931     -0.060991     -0.154959
  C      -0.662741     -0.084905     -0.799671
  C       0.494555     -0.235949      0.174767
  H      -0.537023      0.839808     -1.368813
  H      -0.642415     -0.911504     -1.514718
  H       0.376891     -1.161414      0.748783
  H       0.504550      0.605223      0.875427
  H      -2.100280     -0.903873      0.400239
  H      -2.018479      0.710937      0.505367
  H       2.453512     -0.331769      0.049079
  O      -4.790779     -0.256141     -0.544180
  C      -4.131786     -0.095522     -1.487714
  O      -3.633502      0.054489     -2.528219
14
Coordinates from ORCA-job ./orca E -398.966752062574
  O       1.719936     -0.268668     -0.577671
  N      -1.980059     -0.061791     -0.153133
  C      -0.663871     -0.086225     -0.798612
  C       0.494677     -0.236088      0.174361
  H      -0.538771      0.837902     -1.368956
  H      -0.644564     -0.913406     -1.513102
  H       0.378796     -1.161416      0.748950
  H       0.504325      0.605413      0.874658
  H      -2.103497     -0.905032      0.400778
  H      -2.021536      0.711053      0.505915
  H       2.453724     -0.329670      0.046721
  O      -4.788724     -0.255369     -0.544450
  C      -4.130063     -0.094433     -1.488920
  O      -3.627354      0.056415     -2.527220
14
Coordinates from ORCA-job ./orca E -398.966749029688
  O       1.719645     -0.268058     -0.578464
  N      -1.980071     -0.062062     -0.152237
  C      -0.664620     -0.086722     -0.798133
  C       0.494683     -0.236250      0.174124
  H      -0.539521      0.837041     -1.369074
  H      -0.644589     -0.914601     -1.511890
  H       0.379834     -1.161616      0.748810
  H       0.504093      0.605342      0.874384
  H      -2.104889     -0.905469      0.401003
  H      -2.023126      0.711327      0.505964
  H       2.453746     -0.328730      0.045579
  O      -4.788187     -0.255092     -0.544447
  C      -4.129177     -0.093869     -1.489488
  O      -3.624804      0.057446     -2.526811
14
Coordinates from ORCA-job ./orca E -398.966750286317
  O       1.719514     -0.267871     -0.578749
  N      -1.980057     -0.062143     -0.151974
  C      -0.664905     -0.086782     -0.797952
  C       0.494732     -0.236268      0.174127
  H      -0.539665      0.836860     -1.369032
  H      -0.644112     -0.914992     -1.511332
  H       0.380207     -1.161695      0.748756
  H       0.504176      0.605317      0.874426
  H      -2.105222     -0.905542      0.401112
  H      -2.023699      0.711503      0.505801
  H       2.453749     -0.328662      0.045122
  O      -4.788284     -0.255121     -0.544618
  C      -4.128934     -0.093732     -1.489598
  O      -3.624481      0.057815     -2.526771
14
Coordinates from ORCA-job ./orca E -398.965154619491
  O       1.706649     -0.267501     -0.585590
  N      -1.992338     -0.062529     -0.153290
  C      -0.678151     -0.087118     -0.801235
  C       0.483011     -0.235821      0.169144
  H      -0.554096      0.836227     -1.373055
  H      -0.658214     -0.915707     -1.514201
  H       0.369597     -1.160985      0.744420
  H       0.493317      0.606123      0.869001
  H      -2.101218     -0.917499      0.415612
  H      -2.020689      0.722785      0.521721
  H       2.441854     -0.327792      0.037187
  O      -4.773410     -0.256366     -0.546237
  C      -4.074556     -0.092532     -1.476045
  O      -3.588738      0.057402     -2.528113
14
Coordinates from ORCA-job ./orca E -398.965793194454
  O       1.705369     -0.267203     -0.586127
  N      -1.992494     -0.062211     -0.150097
  C      -0.678556     -0.086115     -0.800041
  C       0.482675     -0.235923      0.169725
  H      -0.555050      0.837758     -1.371125
  H      -0.659445     -0.914274     -1.513498
  H       0.369267     -1.161743      0.743913
  H       0.493601      0.605257      0.870436
  H      -2.101171     -0.902641      0.411715
  H      -2.022211      0.708688      0.511959
  H       2.440978     -0.328835      0.036035
  O      -4.769450     -0.255067     -0.549498
  C      -4.074373     -0.093666     -1.473353
  O      -3.586124      0.054662     -2.520726
14
Coordinates from ORCA-job ./orca E -398.965837943174
  O       1.704669     -0.266652     -0.587417
  N      -1.992589     -0.062064     -0.147942
  C      -0.679183     -0.085648     -0.799921
  C       0.482499     -0.236276      0.169237
  H      -0.556226      0.838623     -1.370299
  H      -0.660686     -0.913259     -1.513915
  H       0.369476     -1.162742      0.742475
  H       0.493785      0.604104      0.870888
  H      -2.103624     -0.902425      0.413123
  H      -2.025336      0.710560      0.511711
  H       2.440665     -0.329219      0.034207
  O      -4.766823     -0.253808     -0.550808
  C      -4.073031     -0.094600     -1.473430
  O      -3.580577      0.052093     -2.518590
14
Coordinates from ORCA-job ./orca E -398.965873913095
  O       1.703337     -0.265626     -0.590509
  N      -1.992742     -0.061592     -0.143542
  C      -0.681127     -0.084527     -0.798768
  C       0.482300     -0.237047      0.168211
  H      -0.559583      0.840742     -1.367594
  H      -0.664371     -0.910933     -1.514055
  H       0.370279     -1.164824      0.739514
  H       0.494698      0.601647      0.871824
  H      -2.108527     -0.902225      0.416123
  H      -2.032017      0.714946      0.511288
  H       2.440398     -0.330345      0.029647
  O      -4.762282     -0.251367     -0.552480
  C      -4.069585     -0.096647     -1.474598
  O      -3.567761      0.046485     -2.515741
14
Coordinates from ORCA-job ./orca E -398.965883791607
  O       1.702581     -0.265444     -0.592478
  N      -1.992833     -0.061263     -0.141232
  C      -0.682476     -0.083707     -0.797479
  C       0.482375     -0.237375      0.167752
  H      -0.561671      0.842207     -1.365437
  H      -0.666694     -0.909413     -1.513636
  H       0.370921     -1.165707      0.738255
  H       0.495838      0.600616      0.872176
  H      -2.110932     -0.901986      0.417607
  H      -2.035893      0.716995      0.511140
  H       2.440387     -0.331483      0.026633
  O      -4.760441     -0.250297     -0.553144
  C      -4.067380     -0.097839     -1.475823
  O      -3.560765      0.043383     -2.515015
14
Coordinates from ORCA-job ./orca E -398.965884245056
  O       1.702068     -0.265503     -0.593863
  N      -1.992943     -0.061043     -0.139954
  C      -0.683350     -0.083061     -0.796265
  C       0.482607     -0.237527      0.167621
  H      -0.562788      0.843283     -1.363671
  H      -0.667950     -0.908260     -1.513116
  H       0.371540     -1.166136      0.737745
  H       0.497000      0.600145      0.872417
  H      -2.112167     -0.901739      0.418487
  H      -2.038411      0.717908      0.511226
  H       2.440470     -0.332475      0.024421
  O      -4.759884     -0.249517     -0.553720
  C      -4.065982     -0.098605     -1.476859
  O      -3.557194      0.041216     -2.515149
14
Coordinates from ORCA-job ./orca E -398.965888354917
  O       1.701867     -0.265548     -0.594365
  N      -1.992989     -0.060997     -0.139628
  C      -0.683578     -0.082749     -0.795738
  C       0.482773     -0.237558      0.167681
  H      -0.562932      0.843764     -1.362898
  H      -0.668097     -0.907692     -1.512931
  H       0.371840     -1.166265      0.737676
  H       0.497567      0.600016      0.872594
  H      -2.112404     -0.901654      0.418781
  H      -2.039329      0.718017      0.511358
  H       2.440524     -0.332944      0.023562
  O      -4.760001     -0.248946     -0.554056
  C      -4.065574     -0.098894     -1.477225
  O      -3.556648      0.040137     -2.515493
14
Coordinates from ORCA-job ./orca E -398.964246874020
  O       1.692662     -0.264473     -0.592601
  N      -2.004232     -0.062885     -0.149572
  C      -0.691744     -0.083342     -0.807790
  C       0.469188     -0.236579      0.162441
  H      -0.569277      0.842498     -1.375662
  H      -0.660349     -0.914156     -1.518143
  H       0.355573     -1.164857      0.732613
  H       0.479423      0.601620      0.866707
  H      -2.104507     -0.916641      0.423903
  H      -2.031773      0.727498      0.520876
  H       2.427824     -0.330867      0.029614
  O      -4.747435     -0.249475     -0.544247
  C      -4.020703     -0.094847     -1.455570
  O      -3.541634      0.045193     -2.513249
14
Coordinates from ORCA-job ./orca E -398.964913301589
  O       1.690889     -0.264869     -0.594474
  N      -2.003912     -0.063910     -0.146416
  C      -0.693059     -0.083605     -0.803785
  C       0.470044     -0.235786      0.164275
  H      -0.573218      0.842282     -1.371465
  H      -0.668261     -0.912397     -1.516074
  H       0.357512     -1.163657      0.735105
  H       0.482843      0.602928      0.867916
  H      -2.105099     -0.902712      0.419111
  H      -2.033430      0.710700      0.511037
  H       2.427782     -0.331538      0.025643
  O      -4.742840     -0.248160     -0.549181
  C      -4.019043     -0.095058     -1.454499
  O      -3.537190      0.044468     -2.507874
14
Coordinates from ORCA-job ./orca E -398.964972435360
  O       1.690081     -0.264413     -0.596783
  N      -2.004083     -0.064890     -0.143770
  C      -0.693879     -0.084333     -0.802035
  C       0.470710     -0.235714      0.164257
  H      -0.575391      0.841656     -1.369919
  H      -0.672787     -0.911943     -1.515689
  H       0.359454     -1.163554      0.735461
  H       0.484431      0.603099      0.867683
  H      -2.108925     -0.903718      0.420628
  H      -2.037588      0.710983      0.511732
  H       2.428174     -0.330757      0.021948
  O      -4.740059     -0.246230     -0.552046
  C      -4.016815     -0.094975     -1.455568
  O      -3.530306      0.043475     -2.506579
14
Coordinates from ORCA-job ./orca E -398.965028070361
  O       1.688335     -0.262615     -0.602279
  N      -2.004398     -0.067024     -0.137356
  C      -0.696279     -0.086159     -0.797971
  C       0.471913     -0.236033      0.163657
  H      -0.580739      0.840018     -1.366473
  H      -0.682410     -0.911755     -1.514043
  H       0.364220     -1.164057      0.735350
  H       0.486911      0.602692      0.867011
  H      -2.117754     -0.906539      0.424399
  H      -2.047566      0.712450      0.513652
  H       2.429116     -0.327909      0.013350
  O      -4.734623     -0.240794     -0.556966
  C      -4.011011     -0.094402     -1.458554
  O      -3.512695      0.040813     -2.504459
14
Coordinates from ORCA-job ./orca E -398.965035296007
  O       1.687489     -0.261243     -0.604838
  N      -2.004495     -0.067920     -0.134259
  C      -0.697783     -0.086935     -0.796137
  C       0.472235     -0.236489      0.163126
  H      -0.583351      0.839295     -1.364894
  H      -0.685663     -0.912193     -1.512718
  H       0.366674     -1.164871      0.734628
  H       0.487375      0.601926      0.866856
  H      -2.121346     -0.907700      0.426142
  H      -2.052138      0.713033      0.514459
  H       2.429417     -0.326016      0.009447
  O      -4.733005     -0.237205     -0.558523
  C      -4.008043     -0.093892     -1.460128
  O      -3.504350      0.038896     -2.503842
14
Coordinates from ORCA-job ./orca E -398.965036306781
  O       1.686787     -0.259914     -0.606665
  N      -2.004571     -0.068612     -0.132019
  C      -0.699125     -0.087295     -0.794911
  C       0.472338     -0.236925      0.162684
  H      -0.585224      0.839010     -1.363677
  H      -0.686705     -0.912696     -1.511436
  H       0.368558     -1.165801      0.733663
  H       0.487447      0.601042      0.867019
  H      -2.123204     -0.908580      0.427459
  H      -2.055207      0.713233      0.515124
  H       2.429482     -0.324504      0.006692
  O      -4.732685     -0.233444     -0.559591
  C      -4.005880     -0.093402     -1.461288
  O      -3.498993      0.036576     -2.503736
14
Coordinates from ORCA-job ./orca E -398.965038403481
  O       1.686330     -0.259096     -0.607630
  N      -2.004664     -0.069176     -0.130875
  C      -0.699896     -0.087307     -0.794291
  C       0.472386     -0.237072      0.162539
  H      -0.586191      0.839135     -1.362837
  H      -0.686518     -0.912824     -1.510710
  H       0.369532     -1.166323      0.733044
  H       0.487587      0.600546      0.867330
  H      -2.123548     -0.909248      0.428254
  H      -2.056579      0.712983      0.515629
  H       2.429450     -0.323850      0.005187
  O      -4.733102     -0.230467     -0.560468
  C      -4.004846     -0.093113     -1.461854
  O      -3.496922      0.034497     -2.503999
14
Coordinates from ORCA-job ./orca E -398.965040995505
  O       1.685503     -0.257620     -0.609324
  N      -2.004911     -0.070557     -0.128908
  C      -0.701142     -0.087265     -0.793178
  C       0.472545     -0.237137      0.162429
  H      -0.587957      0.839573     -1.361112
  H      -0.686065     -0.912742     -1.509648
  H       0.371155     -1.167047      0.732080
  H       0.488074      0.599855      0.867996
  H      -2.123608     -0.910821      0.429795
  H      -2.058736      0.712010      0.516751
  H       2.429426     -0.322876      0.002457
  O      -4.734234     -0.224169     -0.562463
  C      -4.003181     -0.092557     -1.462790
  O      -3.493852      0.030041     -2.504766
14
Coordinates from ORCA-job ./orca E -398.965051028947
  O       1.684467     -0.255638     -0.611473
  N      -2.005295     -0.072895     -0.126380
  C      -0.702549     -0.087328     -0.791723
  C       0.472818     -0.237017      0.162369
  H      -0.590474      0.840189     -1.358705
  H      -0.685869     -0.912367     -1.508676
  H       0.373168     -1.167689      0.731059
  H       0.488807      0.599247      0.868799
  H      -2.123232     -0.913437      0.431924
  H      -2.061289      0.710038      0.518494
  H       2.429462     -0.321561     -0.001073
  O      -4.735876     -0.214749     -0.565400
  C      -4.001118     -0.091677     -1.463969
  O      -3.490003      0.023568     -2.505925
14
Coordinates from ORCA-job ./orca E -398.965053734844
  O       1.682958     -0.252154     -0.614714
  N      -2.005953     -0.077439     -0.122403
  C      -0.704509     -0.087830     -0.789496
  C       0.473261     -0.236663      0.162239
  H      -0.594949      0.840914     -1.354909
  H      -0.686335     -0.911717     -1.507726
  H       0.376385     -1.168412      0.729636
  H       0.489662      0.598564      0.869855
  H      -2.122091     -0.918479      0.435415
  H      -2.064966      0.705836      0.521660
  H       2.429595     -0.318855     -0.006408
  O      -4.738491     -0.197707     -0.570274
  C      -3.997907     -0.089839     -1.465821
  O      -3.483642      0.012468     -2.507733
14
Coordinates from ORCA-job ./orca E -398.965060201779
  O       1.681264     -0.247134     -0.618462
  N      -2.006844     -0.084275     -0.117508
  C      -0.706709     -0.089138     -0.786934
  C       0.473714     -0.236105      0.161901
  H      -0.601299      0.841227     -1.350463
  H      -0.687809     -0.911191     -1.507206
  H       0.380593     -1.169054      0.727968
  H       0.489906      0.597976      0.870809
  H      -2.119892     -0.926047      0.439812
  H      -2.069035      0.699021      0.526183
  H       2.429783     -0.314194     -0.012509
  O      -4.741555     -0.173209     -0.576434
  C      -3.993949     -0.086732     -1.468143
  O      -3.475149     -0.002459     -2.509694
14
Coordinates from ORCA-job ./orca E -398.965068050873
  O       1.679379     -0.239729     -0.622657
  N      -2.008084     -0.094441     -0.111582
  C      -0.709308     -0.091792     -0.784178
  C       0.474004     -0.235321      0.161137
  H      -0.610317      0.840572     -1.345599
  H      -0.690460     -0.911335     -1.507247
  H       0.386244     -1.169623      0.725850
  H       0.488681      0.597502      0.871488
  H      -2.115957     -0.937336      0.445170
  H      -2.073330      0.688207      0.532645
  H       2.429912     -0.306210     -0.019132
  O      -4.744794     -0.137737     -0.584056
  C      -3.989106     -0.081498     -1.471063
  O      -3.463847     -0.022573     -2.511456
14
Coordinates from ORCA-job ./orca E -398.965074745060
  O       1.678227     -0.232788     -0.625088
  N      -2.009213     -0.103988     -0.107554
  C      -0.711173     -0.095018     -0.782862
  C       0.473760     -0.234599      0.160123
  H      -0.618262      0.838685     -1.343168
  H      -0.692825     -0.912757     -1.507947
  H       0.390870     -1.169738      0.724198
  H       0.485641      0.597520      0.871333
  H      -2.111262     -0.948069      0.448727
  H      -2.075450      0.677115      0.538588
  H       2.429756     -0.297496     -0.022604
  O      -4.746494     -0.105185     -0.589325
  C      -3.985803     -0.075739     -1.473241
  O      -3.454755     -0.039257     -2.511859
14
Coordinates from ORCA-job ./orca E -398.965082095604
  O       1.677615     -0.226157     -0.625984
  N      -2.010362     -0.112893     -0.105331
  C      -0.712650     -0.098787     -0.782914
  C       0.472941     -0.233939      0.158900
  H      -0.625106      0.835467     -1.343229
  H      -0.694194     -0.915825     -1.508781
  H       0.394659     -1.169517      0.722886
  H       0.480840      0.597947      0.870491
  H      -2.105909     -0.958312      0.450386
  H      -2.075617      0.665710      0.544131
  H       2.429214     -0.287870     -0.023273
  O      -4.746800     -0.075254     -0.592116
  C      -3.984031     -0.069266     -1.474832
  O      -3.447581     -0.052616     -2.511015
14
Coordinates from ORCA-job ./orca E -398.965087049305
  O       1.677148     -0.222347     -0.626222
  N      -2.011219     -0.117748     -0.104718
  C      -0.713813     -0.101208     -0.783310
  C       0.472202     -0.233542      0.158238
  H      -0.628498      0.832840     -1.344290
  H      -0.693671     -0.918814     -1.508513
  H       0.396754     -1.169310      0.722241
  H       0.477547      0.598380      0.869896
  H      -2.103029     -0.964100      0.450362
  H      -2.075112      0.659001      0.547204
  H       2.428610     -0.281719     -0.023111
  O      -4.746301     -0.059112     -0.592670
  C      -3.983621     -0.064994     -1.475723
  O      -3.443980     -0.058641     -2.510062
14
Coordinates from ORCA-job ./orca E -398.965089566351
  O       1.676255     -0.219450     -0.627176
  N      -2.012072     -0.121396     -0.103846
  C      -0.715261     -0.102897     -0.782980
  C       0.471800     -0.233144      0.158038
  H      -0.631010      0.830950     -1.344404
  H      -0.692484     -0.921223     -1.507319
  H       0.398748     -1.169223      0.721792
  H       0.475955      0.598698      0.869848
  H      -2.101863     -0.968486      0.450462
  H      -2.075383      0.654220      0.549496
  H       2.428127     -0.277258     -0.024427
  O      -4.745823     -0.047159     -0.593741
  C      -3.982965     -0.061767     -1.476736
  O      -3.441005     -0.063180     -2.509688
14
Coordinates from ORCA-job ./orca E -398.965091586217
  O       1.675619     -0.218450     -0.627916
  N      -2.012557     -0.122813     -0.103433
  C      -0.716044     -0.103520     -0.782527
  C       0.471755     -0.232828      0.158212
  H      -0.631794      0.830188     -1.344158
  H      -0.691341     -0.922338     -1.506256
  H       0.399631     -1.169029      0.721861
  H       0.475959      0.599036      0.869986
  H      -2.102039     -0.970271      0.450335
  H      -2.075721      0.652361      0.550439
  H       2.427960     -0.275696     -0.025688
  O      -4.745584     -0.042932     -0.594419
  C      -3.982699     -0.060403     -1.477280
  O      -3.440129     -0.064617     -2.509838
14
Coordinates from ORCA-job ./orca E -398.965099820641
  O       1.675016     -0.217419     -0.628761
  N      -2.012967     -0.124456     -0.102809
  C      -0.716705     -0.104132     -0.781902
  C       0.471837     -0.232453      0.158419
  H      -0.632809      0.829609     -1.343537
  H      -0.690616     -0.923102     -1.505407
  H       0.400589     -1.168756      0.722016
  H       0.476219      0.599422      0.870152
  H      -2.102289     -0.972292      0.450371
  H      -2.076297      0.650338      0.551475
  H       2.427915     -0.274245     -0.027193
  O      -4.745418     -0.038078     -0.595470
  C      -3.982195     -0.059046     -1.477826
  O      -3.439262     -0.066702     -2.510209
14
Coordinates from ORCA-job ./orca E -398.965092614203
  O       1.673429     -0.213010     -0.631129
  N      -2.014058     -0.130728     -0.100430
  C      -0.718582     -0.106464     -0.780217
  C       0.471935     -0.231534      0.158569
  H      -0.637241      0.827728     -1.341519
  H      -0.689839     -0.925164     -1.503912
  H       0.404070     -1.168340      0.721770
  H       0.475692      0.600050      0.870595
  H      -2.101745     -0.979733      0.451200
  H      -2.078156      0.642856      0.555212
  H       2.427757     -0.268327     -0.031205
  O      -4.744790     -0.018018     -0.599175
  C      -3.980044     -0.054321     -1.479512
  O      -3.435411     -0.076309     -2.510928
14
Coordinates from ORCA-job ./orca E -398.965094407431
  O       1.673922     -0.213876     -0.630334
  N      -2.013803     -0.129725     -0.101387
  C      -0.717907     -0.106290     -0.780719
  C       0.472008     -0.231474      0.158732
  H      -0.635993      0.827672     -1.342354
  H      -0.689200     -0.925265     -1.504094
  H       0.403304     -1.167999      0.722320
  H       0.475837      0.600380      0.870422
  H      -2.102269     -0.978857      0.449897
  H      -2.077540      0.643555      0.554664
  H       2.427931     -0.269081     -0.029992
  O      -4.744675     -0.021555     -0.597821
  C      -3.980906     -0.054468     -1.478939
  O      -3.437691     -0.074331     -2.511075
14
Coordinates from ORCA-job ./orca E -398.965098358239
  O       1.674987     -0.213918     -0.628804
  N      -2.013192     -0.130062     -0.102913
  C      -0.716636     -0.106820     -0.781613
  C       0.472206     -0.231118      0.158904
  H      -0.635045      0.826871     -1.343793
  H      -0.688185     -0.925993     -1.504712
  H       0.402938     -1.167140      0.723289
  H       0.475207      0.601212      0.870019
  H      -2.103065     -0.980206      0.446573
  H      -2.076840      0.641940      0.554677
  H       2.428390     -0.268112     -0.027607
  O      -4.743999     -0.020487     -0.595360
  C      -3.982024     -0.052625     -1.477872
  O      -3.441723     -0.074857     -2.511470
14
Coordinates from ORCA-job ./orca E -398.965097313732
  O       1.675602     -0.211132     -0.628037
  N      -2.012918     -0.133755     -0.103335
  C      -0.716233     -0.108441     -0.782033
  C       0.472293     -0.230644      0.158787
  H      -0.636611      0.825366     -1.344342
  H      -0.687372     -0.927404     -1.505330
  H       0.404521     -1.166682      0.723336
  H       0.473228      0.601693      0.869922
  H      -2.102770     -0.985484      0.443685
  H      -2.077090      0.636422      0.556330
  H       2.428687     -0.263581     -0.026289
  O      -4.743044     -0.007124     -0.594348
  C      -3.982014     -0.048365     -1.477444
  O      -3.443260     -0.082183     -2.511583
14
Coordinates from ORCA-job ./orca E -398.965099950350
  O       1.675633     -0.206278     -0.628104
  N      -2.013025     -0.139378     -0.102741
  C      -0.716710     -0.110418     -0.781951
  C       0.472230     -0.230350      0.158445
  H      -0.639827      0.823970     -1.343676
  H      -0.686817     -0.928660     -1.506031
  H       0.407436     -1.167131      0.722089
  H       0.470434      0.601245      0.870492
  H      -2.101371     -0.992689      0.442058
  H      -2.078201      0.629092      0.558789
  H       2.428705     -0.257051     -0.026200
  O      -4.741959      0.014427     -0.595007
  C      -3.981067     -0.043277     -1.477653
  O      -3.442446     -0.094814     -2.511191
14
Coordinates from ORCA-job ./orca E -398.965099585882
  O       1.675652     -0.204605     -0.628076
  N      -2.013027     -0.140515     -0.102596
  C      -0.716907     -0.110353     -0.781992
  C       0.472142     -0.230677      0.158239
  H      -0.640435      0.824559     -1.342876
  H      -0.686704     -0.927973     -1.506792
  H       0.408219     -1.168213      0.720699
  H       0.469421      0.600082      0.871294
  H      -2.100405     -0.993972      0.442148
  H      -2.078795      0.627914      0.558904
  H       2.428602     -0.255627     -0.026044
  O      -4.741929      0.021223     -0.595329
  C      -3.980894     -0.042672     -1.477635
  O      -3.441921     -0.100484     -2.510623
14
Coordinates from ORCA-job ./orca E -398.963535669107
  O       1.666988     -0.204244     -0.625961
  N      -2.023882     -0.140679     -0.113562
  C      -0.724616     -0.109816     -0.794607
  C       0.458655     -0.229636      0.152995
  H      -0.645454      0.824426     -1.356240
  H      -0.678327     -0.932959     -1.512586
  H       0.391174     -1.166780      0.715705
  H       0.451661      0.601611      0.865465
  H      -2.093428     -1.008861      0.446715
  H      -2.071351      0.638319      0.568067
  H       2.416242     -0.254943     -0.019279
  O      -4.729844      0.021225     -0.584726
  C      -3.937000     -0.042124     -1.454439
  O      -3.427800     -0.096853     -2.508227
14
Coordinates from ORCA-job ./orca E -398.964245780300
  O       1.665167     -0.205403     -0.627112
  N      -2.023031     -0.140396     -0.111175
  C      -0.725381     -0.108973     -0.791003
  C       0.459260     -0.229227      0.155085
  H      -0.648207      0.825721     -1.351369
  H      -0.685990     -0.929715     -1.511535
  H       0.391779     -1.166396      0.717498
  H       0.455076      0.602066      0.867520
  H      -2.093010     -0.991696      0.439882
  H      -2.072387      0.623325      0.557366
  H       2.415847     -0.257477     -0.022360
  O      -4.725082      0.019274     -0.588520
  C      -3.935966     -0.043756     -1.452452
  O      -3.425059     -0.098659     -2.502505
14
Coordinates from ORCA-job ./orca E -398.964297621942
  O       1.664702     -0.206115     -0.628683
  N      -2.022930     -0.139722     -0.109343
  C      -0.725657     -0.107999     -0.789769
  C       0.459849     -0.229268      0.155075
  H      -0.648995      0.827235     -1.349359
  H      -0.690214     -0.927054     -1.512308
  H       0.392246     -1.166658      0.717186
  H       0.457191      0.601717      0.867786
  H      -2.096088     -0.991306      0.440703
  H      -2.076518      0.625413      0.557227
  H       2.416137     -0.259395     -0.024944
  O      -4.722355      0.017732     -0.590580
  C      -3.934419     -0.045290     -1.452837
  O      -3.419931     -0.100603     -2.500834
14
Coordinates from ORCA-job ./orca E -398.964350208101
  O       1.663909     -0.207241     -0.632271
  N      -2.022600     -0.137273     -0.105142
  C      -0.726586     -0.105365     -0.786865
  C       0.460945     -0.230074      0.154528
  H      -0.650607      0.831279     -1.344406
  H      -0.698912     -0.920875     -1.513658
  H       0.393271     -1.168420      0.715148
  H       0.461182      0.599520      0.868694
  H      -2.103159     -0.989617      0.442971
  H      -2.086243      0.631672      0.556466
  H       2.416872     -0.263584     -0.030685
  O      -4.717243      0.014284     -0.593486
  C      -3.930515     -0.049347     -1.454146
  O      -3.407296     -0.106272     -2.497830
14
Coordinates from ORCA-job ./orca E -398.964359682166
  O       1.663615     -0.207443     -0.633766
  N      -2.022260     -0.135225     -0.103334
  C      -0.727191     -0.103549     -0.785591
  C       0.461256     -0.231050      0.154034
  H      -0.650943      0.833982     -1.341683
  H      -0.701877     -0.917551     -1.514245
  H       0.393628     -1.170351      0.713063
  H       0.462576      0.597231      0.869730
  H      -2.106195     -0.987483      0.444150
  H      -2.090726      0.635597      0.555354
  H       2.417072     -0.265711     -0.033000
  O      -4.715472      0.012579     -0.593824
  C      -3.928611     -0.051971     -1.454843
  O      -3.401854     -0.110369     -2.496727
14
Coordinates from ORCA-job ./orca E -398.964361293006
  O       1.663431     -0.207508     -0.634707
  N      -2.021872     -0.132634     -0.102237
  C      -0.727696     -0.101254     -0.784706
  C       0.461409     -0.232290      0.153616
  H      -0.650496      0.837299     -1.338942
  H      -0.702938     -0.914001     -1.514906
  H       0.393623     -1.172904      0.710386
  H       0.463648      0.594243      0.871401
  H      -2.108185     -0.984434      0.445226
  H      -2.094085      0.639816      0.553772
  H       2.417118     -0.268100     -0.034484
  O      -4.714591      0.010912     -0.593604
  C      -3.927345     -0.055036     -1.455320
  O      -3.399003     -0.115420     -2.496177
14
Coordinates from ORCA-job ./orca E -398.964364100028
  O       1.663414     -0.207718     -0.634866
  N      -2.021645     -0.130801     -0.102151
  C      -0.727768     -0.099460     -0.784440
  C       0.461482     -0.233030      0.153560
  H      -0.649589      0.839849     -1.337211
  H      -0.702555     -0.911400     -1.515577
  H       0.393194     -1.174575      0.708670
  H       0.464397      0.592270      0.872799
  H      -2.108628     -0.982183      0.445701
  H      -2.095312      0.642429      0.552613
  H       2.417109     -0.270075     -0.034841
  O      -4.714544      0.009747     -0.593338
  C      -3.927199     -0.057259     -1.455346
  O      -3.399338     -0.119108     -2.496252
14
Coordinates from ORCA-job ./orca E -398.962965856095
  O       1.654871     -0.207338     -0.632752
  N      -2.032417     -0.131127     -0.113217
  C      -0.735384     -0.098973     -0.797080
  C       0.448094     -0.232044      0.148309
  H      -0.654595      0.839700     -1.350563
  H      -0.694087     -0.916408     -1.521545
  H       0.376318     -1.173229      0.703601
  H       0.446662      0.593715      0.867039
  H      -2.101781     -0.997211      0.450330
  H      -2.088287      0.653066      0.561775
  H       2.404876     -0.269375     -0.028059
  O      -4.702528      0.009748     -0.582840
  C      -3.883442     -0.056480     -1.431920
  O      -3.385282     -0.115358     -2.493758
14
Coordinates from ORCA-job ./orca E -398.963681983569
  O       1.653077     -0.208296     -0.633448
  N      -2.031085     -0.131499     -0.111172
  C      -0.735818     -0.098798     -0.793971
  C       0.448635     -0.231532      0.150538
  H      -0.657188      0.840164     -1.346393
  H      -0.701285     -0.914147     -1.520528
  H       0.376936     -1.172418      0.706059
  H       0.449588      0.594657      0.868774
  H      -2.101458     -0.980876      0.442557
  H      -2.088276      0.636938      0.551012
  H       2.404337     -0.270692     -0.030395
  O      -4.697906      0.008771     -0.586276
  C      -3.882515     -0.057305     -1.429333
  O      -3.384022     -0.116281     -2.488104
14
Coordinates from ORCA-job ./orca E -398.963730327490
  O       1.652937     -0.208884     -0.634565
  N      -2.030714     -0.131472     -0.109720
  C      -0.735789     -0.098510     -0.793119
  C       0.449295     -0.231415      0.150580
  H      -0.657837      0.840780     -1.345112
  H      -0.704914     -0.912540     -1.521187
  H       0.377537     -1.172191      0.706365
  H       0.451287      0.594866      0.868617
  H      -2.104755     -0.981480      0.442546
  H      -2.091792      0.638122      0.550883
  H       2.404774     -0.271483     -0.032213
  O      -4.695497      0.008143     -0.587954
  C      -3.881219     -0.058010     -1.429218
  O      -3.380294     -0.117239     -2.486582
14
Coordinates from ORCA-job ./orca E -398.963780306136
  O       1.652996     -0.209673     -0.636833
  N      -2.029804     -0.130734     -0.106736
  C      -0.735925     -0.097718     -0.791229
  C       0.450520     -0.231751      0.150212
  H      -0.659013      0.842321     -1.342271
  H      -0.711601     -0.909355     -1.522094
  H       0.378887     -1.172629      0.705957
  H       0.454028      0.594223      0.868440
  H      -2.111889     -0.982151      0.442475
  H      -2.099573      0.641625      0.550106
  H       2.405838     -0.272698     -0.035745
  O      -4.691438      0.007060     -0.589566
  C      -3.878243     -0.059766     -1.429263
  O      -3.371765     -0.120066     -2.484132
14
Coordinates from ORCA-job ./orca E -398.963784904096
  O       1.653122     -0.209794     -0.637899
  N      -2.029138     -0.129611     -0.105337
  C      -0.736101     -0.096886     -0.790188
  C       0.451067     -0.232427      0.149848
  H      -0.659247      0.843657     -1.340470
  H      -0.714093     -0.907456     -1.522356
  H       0.379670     -1.173782      0.704829
  H       0.455112      0.592857      0.868860
  H      -2.115730     -0.981451      0.442212
  H      -2.103974      0.644233      0.548917
  H       2.406343     -0.273294     -0.037352
  O      -4.689752      0.006536     -0.589291
  C      -3.876606     -0.061197     -1.429355
  O      -3.367655     -0.122696     -2.483096
14
Coordinates from ORCA-job ./orca E -398.963786599136
  O       1.653325     -0.209748     -0.638438
  N      -2.028460     -0.127901     -0.104712
  C      -0.736199     -0.095553     -0.789471
  C       0.451457     -0.233382      0.149582
  H      -0.658666      0.845577     -1.338685
  H      -0.714614     -0.905349     -1.522618
  H       0.380161     -1.175607      0.703078
  H       0.455886      0.590751      0.869973
  H      -2.118592     -0.979786      0.441732
  H      -2.107521      0.647177      0.547132
  H       2.406678     -0.274149     -0.038176
  O      -4.688770      0.006005     -0.588184
  C      -3.875635     -0.063070     -1.429319
  O      -3.366031     -0.126280     -2.482574
14
Coordinates from ORCA-job ./orca E -398.963795016722
  O       1.653545     -0.209772     -0.638301
  N      -2.028091     -0.126519     -0.105055
  C      -0.736027     -0.094293     -0.789321
  C       0.451652     -0.234010      0.149635
  H      -0.657550      0.847320     -1.337546
  H      -0.713656     -0.903617     -1.523028
  H       0.380055     -1.176996      0.701775
  H       0.456385      0.589136      0.871193
  H      -2.119514     -0.978226      0.441236
  H      -2.108925      0.649137      0.545668
  H       2.406829     -0.275168     -0.038069
  O      -4.688587      0.005570     -0.587118
  C      -3.875787     -0.064617     -1.429076
  O      -3.367312     -0.129259     -2.482674
14
Coordinates from ORCA-job ./orca E -398.963794848022
  O       1.654034     -0.210145     -0.637629
  N      -2.027570     -0.124360     -0.106251
  C      -0.735394     -0.092053     -0.789400
  C       0.451943     -0.234785      0.149946
  H      -0.655264      0.850425     -1.335838
  H      -0.711638     -0.900462     -1.524127
  H       0.379297     -1.178890      0.700021
  H       0.457311      0.586884      0.873215
  H      -2.120123     -0.975757      0.440150
  H      -2.110316      0.651925      0.543292
  H       2.407074     -0.277375     -0.037304
  O      -4.688554      0.004655     -0.585243
  C      -3.876752     -0.067235     -1.428410
  O      -3.371031     -0.134141     -2.483103
14
Coordinates from ORCA-job ./orca E -398.963795300448
  O       1.654814     -0.210905     -0.636437
  N      -2.026964     -0.121984     -0.108146
  C      -0.734250     -0.089374     -0.789782
  C       0.452276     -0.235468      0.150429
  H      -0.652303      0.854200     -1.333999
  H      -0.709395     -0.896462     -1.525952
  H       0.377891     -1.180678      0.698367
  H       0.458396      0.584670      0.875412
  H      -2.120294     -0.973123      0.438497
  H      -2.111344      0.654799      0.540547
  H       2.407440     -0.280311     -0.035831
  O      -4.688582      0.003490     -0.582820
  C      -3.878409     -0.070324     -1.427361
  O      -3.376258     -0.139843     -2.483603
14
Coordinates from ORCA-job ./orca E -398.963802859457
  O       1.656388     -0.212124     -0.634003
  N      -2.025923     -0.118458     -0.111596
  C      -0.732026     -0.085322     -0.790812
  C       0.452724     -0.236440      0.151122
  H      -0.647544      0.860017     -1.331516
  H      -0.706421     -0.890055     -1.529540
  H       0.375269     -1.183221      0.695943
  H       0.459632      0.581423      0.878620
  H      -2.120083     -0.969274      0.435435
  H      -2.112294      0.658862      0.536205
  H       2.408067     -0.284793     -0.032591
  O      -4.688525      0.002043     -0.578485
  C      -3.881433     -0.075039     -1.425385
  O      -3.384813     -0.148932     -2.484080
14
Coordinates from ORCA-job ./orca E -398.963803828103
  O       1.657108     -0.212813     -0.632863
  N      -2.025601     -0.117716     -0.113043
  C      -0.731010     -0.084337     -0.791458
  C       0.452796     -0.236514      0.151293
  H      -0.646111      0.861475     -1.331281
  H      -0.705874     -0.888303     -1.531026
  H       0.374125     -1.183384      0.695803
  H       0.459707      0.581122      0.879014
  H      -2.119594     -0.968680      0.433878
  H      -2.111984      0.659331      0.535171
  H       2.408293     -0.286018     -0.030900
  O      -4.688565      0.001699     -0.576767
  C      -3.882753     -0.076122     -1.424569
  O      -3.387519     -0.151054     -2.483935
14
Coordinates from ORCA-job ./orca E -398.962660653551
  O       1.648553     -0.212374     -0.630777
  N      -2.036356     -0.118259     -0.123979
  C      -0.738593     -0.083927     -0.804038
  C       0.439448     -0.235608      0.146032
  H      -0.651274      0.861292     -1.344520
  H      -0.697341     -0.893316     -1.537051
  H       0.357426     -1.182174      0.690588
  H       0.441931      0.582432      0.873340
  H      -2.112744     -0.983776      0.438597
  H      -2.105283      0.670117      0.544414
  H       2.396056     -0.285262     -0.024183
  O      -4.676454      0.001707     -0.566402
  C      -3.838822     -0.075010     -1.401294
  O      -3.373530     -0.147157     -2.481407
14
Coordinates from ORCA-job ./orca E -398.963367024646
  O       1.646677     -0.213026     -0.631278
  N      -2.034789     -0.119529     -0.121967
  C      -0.738873     -0.084777     -0.801373
  C       0.439757     -0.234922      0.148131
  H      -0.654339      0.860351     -1.341548
  H      -0.705014     -0.892585     -1.535933
  H       0.358232     -1.180714      0.693780
  H       0.443914      0.584175      0.874231
  H      -2.112291     -0.968927      0.430400
  H      -2.104433      0.652603      0.534272
  H       2.395289     -0.284992     -0.025994
  O      -4.671906      0.001857     -0.569684
  C      -3.837729     -0.074529     -1.398551
  O      -3.371478     -0.146300     -2.475165
14
Coordinates from ORCA-job ./orca E -398.963417852464
  O       1.646659     -0.213331     -0.632292
  N      -2.034381     -0.120452     -0.120474
  C      -0.738818     -0.085542     -0.800722
  C       0.440389     -0.234605      0.148066
  H      -0.655571      0.859518     -1.341249
  H      -0.709041     -0.892523     -1.536224
  H       0.359268     -1.179850      0.694815
  H       0.444972      0.585185      0.873302
  H      -2.115704     -0.970743      0.429912
  H      -2.107509      0.652364      0.534675
  H       2.395787     -0.284239     -0.027480
  O      -4.669593      0.002424     -0.571435
  C      -3.836381     -0.073946     -1.398331
  O      -3.367060     -0.145575     -2.473244
14
Coordinates from ORCA-job ./orca E -398.963456114821
  O       1.646884     -0.213402     -0.634379
  N      -2.033539     -0.121977     -0.117407
  C      -0.739039     -0.087208     -0.799223
  C       0.441510     -0.234420      0.147501
  H      -0.658076      0.857634     -1.340679
  H      -0.716076     -0.893100     -1.536035
  H       0.361667     -1.178796      0.696052
  H       0.446255      0.586421      0.871417
  H      -2.122874     -0.974296      0.428922
  H      -2.114058      0.652526      0.535308
  H       2.396923     -0.281868     -0.030381
  O      -4.665879      0.004227     -0.573223
  C      -3.833340     -0.072627     -1.398252
  O      -3.357339     -0.144428     -2.470303
14
Coordinates from ORCA-job ./orca E -398.963466344145
  O       1.646961     -0.213023     -0.635353
  N      -2.033065     -0.122367     -0.116007
  C      -0.739386     -0.087926     -0.798403
  C       0.441935     -0.234692      0.147114
  H      -0.659112      0.856776     -1.340306
  H      -0.718228     -0.893689     -1.535447
  H       0.363082     -1.178968      0.695984
  H       0.446462      0.586292      0.870876
  H      -2.126315     -0.975392      0.428306
  H      -2.117297      0.652863      0.535146
  H       2.397363     -0.280257     -0.031682
  O      -4.664503      0.005590     -0.573178
  C      -3.831749     -0.072043     -1.398384
  O      -3.353129     -0.144477     -2.469347
14
Coordinates from ORCA-job ./orca E -398.963468861659
  O       1.646954     -0.212456     -0.636048
  N      -2.032652     -0.122329     -0.115123
  C      -0.739785     -0.088202     -0.797709
  C       0.442243     -0.235150      0.146879
  H      -0.659528      0.856428     -1.339788
  H      -0.718573     -0.894076     -1.534712
  H       0.364330     -1.179704      0.695384
  H       0.446585      0.585541      0.871028
  H      -2.128950     -0.975716      0.427714
  H      -2.119949      0.653506      0.534548
  H       2.397620     -0.278939     -0.032642
  O      -4.663588      0.007026     -0.572642
  C      -3.830585     -0.071823     -1.398545
  O      -3.351103     -0.145419     -2.469022
14
Coordinates from ORCA-job ./orca E -398.963471118969
  O       1.646941     -0.212148     -0.636232
  N      -2.032474     -0.122092     -0.115046
  C      -0.739901     -0.087983     -0.797407
  C       0.442424     -0.235432      0.146949
  H      -0.659246      0.856725     -1.339279
  H      -0.717788     -0.893877     -1.534400
  H       0.364811     -1.180351      0.694852
  H       0.446841      0.584837      0.871605
  H      -2.129941     -0.975512      0.427347
  H      -2.121122      0.654048      0.533902
  H       2.397732     -0.278633     -0.032987
  O      -4.663260      0.007846     -0.572211
  C      -3.830358     -0.072028     -1.398554
  O      -3.351643     -0.146714     -2.469218
14
Coordinates from ORCA-job ./orca E -398.962679512386
  O       1.634901     -0.211772     -0.642075
  N      -2.044178     -0.121920     -0.118495
  C      -0.752054     -0.087777     -0.801702
  C       0.430897     -0.235080      0.141893
  H      -0.671811      0.856898     -1.343692
  H      -0.730369     -0.893722     -1.538653
  H       0.353704     -1.179964      0.689915
  H       0.435732      0.585242      0.866487
  H      -2.128854     -0.988739      0.440332
  H      -2.119361      0.666068      0.548866
  H       2.386091     -0.278165     -0.039315
  O      -4.648062      0.008083     -0.574116
  C      -3.777421     -0.072988     -1.381622
  O      -3.316197     -0.147478     -2.468505
14
Coordinates from ORCA-job ./orca E -398.963388848050
  O       1.633214     -0.212019     -0.641304
  N      -2.042725     -0.121892     -0.116598
  C      -0.751055     -0.087312     -0.801697
  C       0.430235     -0.235066      0.143292
  H      -0.671330      0.857556     -1.343003
  H      -0.729817     -0.893392     -1.538090
  H       0.352494     -1.180026      0.690922
  H       0.435293      0.585275      0.867737
  H      -2.127612     -0.972724      0.432181
  H      -2.118681      0.650666      0.538424
  H       2.384512     -0.278662     -0.038734
  O      -4.644250      0.007266     -0.575878
  C      -3.777967     -0.073317     -1.376992
  O      -3.319293     -0.147667     -2.460940
14
Coordinates from ORCA-job ./orca E -398.963439851147
  O       1.633439     -0.212229     -0.641300
  N      -2.042067     -0.121902     -0.115798
  C      -0.750535     -0.086890     -0.802448
  C       0.430377     -0.235011      0.143140
  H      -0.671223      0.858145     -1.343247
  H      -0.729579     -0.892909     -1.538702
  H       0.352211     -1.180023      0.690646
  H       0.435566      0.585192      0.867713
  H      -2.129530     -0.973745      0.431277
  H      -2.121225      0.651895      0.537589
  H       2.384695     -0.279168     -0.038660
  O      -4.642842      0.007292     -0.576480
  C      -3.777739     -0.073578     -1.375610
  O      -3.318530     -0.148382     -2.458798
14
Coordinates from ORCA-job ./orca E -398.963461182987
  O       1.634140     -0.212548     -0.641423
  N      -2.040886     -0.121848     -0.114703
  C      -0.750024     -0.086169     -0.802919
  C       0.430848     -0.235009      0.142867
  H      -0.671588      0.859306     -1.342777
  H      -0.729820     -0.891973     -1.539220
  H       0.352109     -1.180154      0.690046
  H       0.436380      0.584845      0.867786
  H      -2.132878     -0.975227      0.429464
  H      -2.125775      0.654110      0.535613
  H       2.385400     -0.280032     -0.038819
  O      -4.641335      0.007661     -0.576145
  C      -3.777033     -0.074152     -1.373882
  O      -3.316522     -0.150126     -2.456570
14
Coordinates from ORCA-job ./orca E -398.963458033739
  O       1.634848     -0.212384     -0.641848
  N      -2.039760     -0.121557     -0.113743
  C      -0.749688     -0.085258     -0.802478
  C       0.431626     -0.235338      0.142710
  H      -0.671961      0.860933     -1.341072
  H      -0.730308     -0.890373     -1.539485
  H       0.352682     -1.181082      0.688804
  H       0.437638      0.583631      0.868586
  H      -2.136593     -0.975831      0.427843
  H      -2.130884      0.656503      0.532917
  H       2.386302     -0.280744     -0.039602
  O      -4.640279      0.009131     -0.575392
  C      -3.776072     -0.075127     -1.372743
  O      -3.314533     -0.153819     -2.455177
14
Coordinates from ORCA-job ./orca E -398.963472172375
  O       1.635335     -0.212479     -0.641918
  N      -2.038950     -0.121374     -0.113817
  C      -0.749348     -0.084584     -0.801910
  C       0.432245     -0.235556      0.142820
  H      -0.671660      0.862116     -1.339693
  H      -0.730045     -0.889111     -1.539647
  H       0.353115     -1.181631      0.688331
  H       0.438663      0.583011      0.869149
  H      -2.138731     -0.975939      0.426352
  H      -2.134177      0.657578      0.530807
  H       2.386855     -0.281308     -0.039820
  O      -4.639625      0.010206     -0.573864
  C      -3.775641     -0.075838     -1.372327
  O      -3.315018     -0.156404     -2.455144
14
Coordinates from ORCA-job ./orca E -398.963474319557
  O       1.635858     -0.212658     -0.641628
  N      -2.038371     -0.121213     -0.114682
  C      -0.748793     -0.083944     -0.801411
  C       0.432855     -0.235752      0.143149
  H      -0.670609      0.863171     -1.338517
  H      -0.728970     -0.887796     -1.540002
  H       0.353453     -1.182085      0.688186
  H       0.439536      0.582524      0.869812
  H      -2.140048     -0.975709      0.424863
  H      -2.136624      0.657999      0.528836
  H       2.387340     -0.281812     -0.039532
  O      -4.639062      0.011302     -0.571876
  C      -3.775869     -0.076495     -1.372106
  O      -3.317681     -0.158846     -2.455772
14
Coordinates from ORCA-job ./orca E -398.963478462637
  O       1.636350     -0.212723     -0.640987
  N      -2.038056     -0.121096     -0.115947
  C      -0.748115     -0.083491     -0.801381
  C       0.433223     -0.235919      0.143512
  H      -0.669252      0.863874     -1.338011
  H      -0.727555     -0.886813     -1.540601
  H       0.353493     -1.182459      0.688150
  H       0.439831      0.582101      0.870477
  H      -2.140333     -0.975408      0.423701
  H      -2.137699      0.658040      0.527370
  H       2.387662     -0.282037     -0.038700
  O      -4.638667      0.012266     -0.570029
  C      -3.776691     -0.076933     -1.371818
  O      -3.321173     -0.160716     -2.456417
14
Coordinates from ORCA-job ./orca E -398.963477119665
  O       1.637155     -0.212805     -0.639660
  N      -2.037660     -0.120948     -0.118132
  C      -0.746945     -0.082852     -0.801843
  C       0.433558     -0.236125      0.144022
  H      -0.667095      0.864845     -1.337773
  H      -0.725264     -0.885506     -1.541817
  H       0.353156     -1.182942      0.688093
  H       0.439808      0.581503      0.871433
  H      -2.140010     -0.975027      0.421943
  H      -2.138433      0.657967      0.525317
  H       2.388051     -0.282292     -0.036870
  O      -4.638212      0.013642     -0.567197
  C      -3.778398     -0.077490     -1.371111
  O      -3.326693     -0.163283     -2.457086
14
Coordinates from ORCA-job ./orca E -398.963483579891
  O       1.638091     -0.212760     -0.638018
  N      -2.037225     -0.120813     -0.120420
  C      -0.745689     -0.082242     -0.802761
  C       0.433694     -0.236350      0.144394
  H      -0.665049      0.865820     -1.337911
  H      -0.723083     -0.884336     -1.543330
  H       0.352483     -1.183488      0.687788
  H       0.439309      0.580780      0.872366
  H      -2.139206     -0.974750      0.420085
  H      -2.138577      0.657960      0.523210
  H       2.388382     -0.282390     -0.034485
  O      -4.637859      0.015187     -0.564240
  C      -3.780354     -0.077987     -1.370094
  O      -3.331901     -0.165944     -2.457263
14
Coordinates from ORCA-job ./orca E -398.963482012234
  O       1.638490     -0.212856     -0.637274
  N      -2.037096     -0.120794     -0.121307
  C      -0.745188     -0.081967     -0.803346
  C       0.433621     -0.236372      0.144445
  H      -0.664455      0.866270     -1.338138
  H      -0.722393     -0.883924     -1.544040
  H       0.351939     -1.183579      0.687648
  H       0.438972      0.580623      0.872563
  H      -2.138536     -0.974800      0.419271
  H      -2.138285      0.657913      0.522495
  H       2.388461     -0.282514     -0.033347
  O      -4.637913      0.015737     -0.563158
  C      -3.781248     -0.078150     -1.369558
  O      -3.333351     -0.166900     -2.456936
14
Coordinates from ORCA-job ./orca E -398.963102145976
  O       1.626601     -0.212549     -0.642869
  N      -2.048739     -0.120679     -0.125071
  C      -0.757169     -0.081843     -0.807751
  C       0.422130     -0.236024      0.139466
  H      -0.676820      0.866294     -1.342778
  H      -0.734679     -0.883925     -1.548318
  H       0.340787     -1.183152      0.682856
  H       0.427797      0.581084      0.867455
  H      -2.137612     -0.988159      0.431886
  H      -2.138148      0.669813      0.536769
  H       2.376884     -0.282065     -0.039311
  O      -4.621224      0.016200     -0.563988
  C      -3.728460     -0.078915     -1.352598
  O      -3.298330     -0.167394     -2.456429
14
Coordinates from ORCA-job ./orca E -398.963795241988
  O       1.624796     -0.212731     -0.642105
  N      -2.047235     -0.120955     -0.123152
  C      -0.756082     -0.081485     -0.807929
  C       0.421319     -0.236020      0.140767
  H      -0.676620      0.866885     -1.342197
  H      -0.734533     -0.883649     -1.547940
  H       0.339486     -1.183171      0.683840
  H       0.427053      0.581187      0.868511
  H      -2.136143     -0.972546      0.423705
  H      -2.137138      0.654340      0.526542
  H       2.375149     -0.282295     -0.038680
  O      -4.617544      0.015864     -0.565843
  C      -3.728930     -0.079084     -1.347968
  O      -3.300561     -0.167653     -2.448232
14
Coordinates from ORCA-job ./orca E -398.963844859555
  O       1.625000     -0.212923     -0.642199
  N      -2.046660     -0.121136     -0.122223
  C      -0.755594     -0.081172     -0.808680
  C       0.421431     -0.235966      0.140530
  H      -0.676837      0.867375     -1.342443
  H      -0.734711     -0.883285     -1.548542
  H       0.339262     -1.183113      0.683585
  H       0.427242      0.581179      0.868317
  H      -2.137954     -0.973762      0.422927
  H      -2.139364      0.655437      0.525902
  H       2.375336     -0.282590     -0.038714
  O      -4.616552      0.016118     -0.566939
  C      -3.728688     -0.079206     -1.346581
  O      -3.298893     -0.168269     -2.445622
14
Coordinates from ORCA-job ./orca E -398.963856551644
  O       1.625542     -0.213146     -0.642511
  N      -2.045720     -0.121327     -0.120906
  C      -0.755272     -0.080718     -0.809083
  C       0.421775     -0.235969      0.140132
  H      -0.677744      0.868238     -1.342021
  H      -0.735591     -0.882672     -1.548951
  H       0.339265     -1.183165      0.683032
  H       0.427823      0.580954      0.868128
  H      -2.140814     -0.975400      0.421603
  H      -2.142975      0.657183      0.524501
  H       2.375929     -0.282975     -0.039085
  O      -4.615706      0.016906     -0.567430
  C      -3.727915     -0.079489     -1.345036
  O      -3.295580     -0.169734     -2.443052
14
Coordinates from ORCA-job ./orca E -398.963864103862
  O       1.625936     -0.213265     -0.642957
  N      -2.044967     -0.121402     -0.119956
  C      -0.755197     -0.080309     -0.808778
  C       0.422227     -0.236068      0.139914
  H      -0.678508      0.869074     -1.341007
  H      -0.736320     -0.881963     -1.548954
  H       0.339625     -1.183420      0.682514
  H       0.428654      0.580587      0.868183
  H      -2.143274     -0.976275      0.420494
  H      -2.146220      0.658403      0.523076
  H       2.376473     -0.283234     -0.039743
  O      -4.615178      0.017951     -0.567268
  C      -3.727018     -0.079853     -1.344295
  O      -3.293215     -0.171539     -2.441902
14
Coordinates from ORCA-job ./orca E -398.963872265766
  O       1.626200     -0.213368     -0.643402
  N      -2.044354     -0.121393     -0.119438
  C      -0.755157     -0.079859     -0.808076
  C       0.422770     -0.236224      0.139910
  H      -0.678811      0.869941     -1.339662
  H      -0.736554     -0.881038     -1.548825
  H       0.340170     -1.183804      0.682115
  H       0.429690      0.580145      0.868487
  H      -2.145401     -0.976634      0.419511
  H      -2.149269      0.659201      0.521668
  H       2.376939     -0.283470     -0.040476
  O      -4.614585      0.019198     -0.566668
  C      -3.726197     -0.080317     -1.344077
  O      -3.292425     -0.173691     -2.441748
14
Coordinates from ORCA-job ./orca E -398.963870504720
  O       1.626347     -0.213375     -0.643531
  N      -2.044060     -0.121314     -0.119576
  C      -0.755011     -0.079486     -0.807545
  C       0.423165     -0.236385      0.140090
  H      -0.678423      0.870565     -1.338718
  H      -0.736112     -0.880203     -1.548851
  H       0.340558     -1.184201      0.681901
  H       0.430373      0.579714      0.868972
  H      -2.146413     -0.976525      0.418940
  H      -2.151019      0.659476      0.520728
  H       2.377208     -0.283595     -0.040778
  O      -4.614077      0.020237     -0.565942
  C      -3.725968     -0.080715     -1.344143
  O      -3.293549     -0.175506     -2.442226
14
Coordinates from ORCA-job ./orca E -398.963870677038
  O       1.626539     -0.213353     -0.643347
  N      -2.043867     -0.121206     -0.120170
  C      -0.754678     -0.079069     -0.807285
  C       0.423470     -0.236551      0.140362
  H      -0.677578      0.871201     -1.338050
  H      -0.735209     -0.879310     -1.549153
  H       0.340734     -1.184613      0.681733
  H       0.430802      0.579236      0.869596
  H      -2.146807     -0.976278      0.418392
  H      -2.152166      0.659570      0.519858
  H       2.377427     -0.283721     -0.040640
  O      -4.613603      0.021296     -0.565011
  C      -3.726218     -0.081124     -1.344147
  O      -3.295828     -0.177393     -2.442818
14
Coordinates from ORCA-job ./orca E -398.963901236416
  O       1.614812     -0.213064     -0.648777
  N      -2.055410     -0.121089     -0.124221
  C      -0.766477     -0.078948     -0.811818
  C       0.412045     -0.236216      0.135399
  H      -0.689690      0.871223     -1.342805
  H      -0.747228     -0.879315     -1.553557
  H       0.329576     -1.184200      0.676946
  H       0.419609      0.579682      0.864506
  H      -2.146182     -0.989812      0.430775
  H      -2.152426      0.671656      0.533882
  H       2.365935     -0.283296     -0.046349
  O      -4.596883      0.021800     -0.565945
  C      -3.673710     -0.081897     -1.326673
  O      -3.260954     -0.177837     -2.442044
14
Coordinates from ORCA-job ./orca E -398.964607152971
  O       1.613094     -0.213103     -0.647542
  N      -2.053845     -0.121672     -0.123016
  C      -0.764952     -0.078881     -0.812414
  C       0.411219     -0.236177      0.136926
  H      -0.688803      0.871395     -1.342744
  H      -0.746124     -0.879442     -1.553363
  H       0.328263     -1.184081      0.678326
  H       0.418493      0.579981      0.865619
  H      -2.144631     -0.974417      0.421843
  H      -2.150969      0.655589      0.523342
  H       2.364184     -0.283007     -0.045074
  O      -4.592815      0.021900     -0.566870
  C      -3.674824     -0.081734     -1.321830
  O      -3.265272     -0.177666     -2.433883
14
Coordinates from ORCA-job ./orca E -398.964649008614
  O       1.613530     -0.213112     -0.647203
  N      -2.053253     -0.122147     -0.122760
  C      -0.764133     -0.078869     -0.813430
  C       0.411390     -0.236091      0.136856
  H      -0.688568      0.871497     -1.343374
  H      -0.745615     -0.879526     -1.554049
  H       0.328152     -1.183915      0.678377
  H       0.418382      0.580114      0.865472
  H      -2.146411     -0.975962      0.420421
  H      -2.152908      0.656174      0.522361
  H       2.364510     -0.282752     -0.044509
  O      -4.591636      0.022768     -0.567141
  C      -3.675179     -0.081508     -1.320269
  O      -3.265244     -0.177985     -2.431434
14
Coordinates from ORCA-job ./orca E -398.964666846322
  O       1.614444     -0.213021     -0.646774
  N      -2.052295     -0.122805     -0.122593
  C      -0.763293     -0.078911     -0.814236
  C       0.411800     -0.236038      0.136717
  H      -0.688748      0.871721     -1.343583
  H      -0.745376     -0.879649     -1.554602
  H       0.328310     -1.183808      0.678272
  H       0.418418      0.580109      0.865362
  H      -2.149028     -0.978055      0.418085
  H      -2.155874      0.657023      0.520451
  H       2.365283     -0.282237     -0.043832
  O      -4.590631      0.024611     -0.566189
  C      -3.675392     -0.081227     -1.318483
  O      -3.264598     -0.179026     -2.429277
14
Coordinates from ORCA-job ./orca E -398.964679181881
  O       1.615261     -0.213019     -0.646456
  N      -2.051361     -0.123390     -0.122674
  C      -0.762670     -0.078901     -0.814426
  C       0.412309     -0.235995      0.136691
  H      -0.688929      0.872042     -1.343249
  H      -0.745079     -0.879579     -1.554824
  H       0.328655     -1.183741      0.678249
  H       0.418777      0.580134      0.865330
  H      -2.151381     -0.979601      0.415683
  H      -2.158815      0.657416      0.518378
  H       2.365998     -0.281838     -0.043352
  O      -4.589871      0.026594     -0.564522
  C      -3.675378     -0.081066     -1.317287
  O      -3.264498     -0.180369     -2.428223
14
Coordinates from ORCA-job ./orca E -398.964680693802
  O       1.616039     -0.212906     -0.646177
  N      -2.050472     -0.123901     -0.123082
  C      -0.762068     -0.078805     -0.814153
  C       0.412982     -0.236070      0.136828
  H      -0.688736      0.872499     -1.342437
  H      -0.744372     -0.879157     -1.554958
  H       0.329278     -1.183960      0.678127
  H       0.419397      0.579900      0.865632
  H      -2.153716     -0.980729      0.413293
  H      -2.162034      0.657570      0.516099
  H       2.366723     -0.281313     -0.042978
  O      -4.589004      0.029207     -0.562350
  C      -3.675323     -0.081060     -1.316544
  O      -3.265676     -0.182588     -2.427980
14
Coordinates from ORCA-job ./orca E -398.964685371537
  O       1.616386     -0.212881     -0.645981
  N      -2.050100     -0.124079     -0.123679
  C      -0.761690     -0.078568     -0.813788
  C       0.413419     -0.236163      0.137079
  H      -0.688129      0.872947     -1.341751
  H      -0.743465     -0.878501     -1.555115
  H       0.329647     -1.184224      0.678086
  H       0.419926      0.579641      0.866072
  H      -2.154654     -0.980964      0.412110
  H      -2.163788      0.657412      0.514869
  H       2.367063     -0.281143     -0.042765
  O      -4.588400      0.030900     -0.560921
  C      -3.675451     -0.081243     -1.316458
  O      -3.267745     -0.184449     -2.428437
14
Coordinates from ORCA-job ./orca E -398.964683713988
  O       1.616614     -0.212916     -0.645686
  N      -2.049928     -0.124098     -0.124478
  C      -0.761303     -0.078167     -0.813572
  C       0.413710     -0.236268      0.137376
  H      -0.687226      0.873537     -1.341187
  H      -0.742371     -0.877601     -1.555489
  H       0.329737     -1.184526      0.678026
  H       0.420316      0.579305      0.866634
  H      -2.154802     -0.980855      0.411382
  H      -2.164840      0.657188      0.514016
  H       2.367256     -0.281206     -0.042430
  O      -4.587917      0.032284     -0.559752
  C      -3.675850     -0.081568     -1.316490
  O      -3.270379     -0.186422     -2.429031
14
Coordinates from ORCA-job ./orca E -398.965147449135
  O       1.605027     -0.212637     -0.650962
  N      -2.061381     -0.123945     -0.128739
  C      -0.772944     -0.078019     -0.818185
  C       0.402348     -0.235937      0.132448
  H      -0.699114      0.873593     -1.346003
  H      -0.754169     -0.877567     -1.559984
  H       0.318572     -1.184125      0.673251
  H       0.409125      0.579736      0.861593
  H      -2.154431     -0.994566      0.423526
  H      -2.165415      0.669404      0.527838
  H       2.355844     -0.280811     -0.047911
  O      -4.571181      0.032837     -0.560776
  C      -3.623571     -0.082443     -1.298673
  O      -3.235693     -0.186833     -2.428103
14
Coordinates from ORCA-job ./orca E -398.965859768640
  O       1.603508     -0.212587     -0.649198
  N      -2.059787     -0.124710     -0.128163
  C      -0.771099     -0.078162     -0.819320
  C       0.401412     -0.235866      0.133992
  H      -0.697812      0.873483     -1.346544
  H      -0.752380     -0.878035     -1.560114
  H       0.317027     -1.183908      0.674745
  H       0.407494      0.580162      0.862627
  H      -2.152612     -0.979286      0.413939
  H      -2.163389      0.652987      0.517017
  H       2.354034     -0.280176     -0.045754
  O      -4.566842      0.033177     -0.560636
  C      -3.625272     -0.082072     -1.293642
  O      -3.241265     -0.186320     -2.419629
14
Coordinates from ORCA-job ./orca E -398.965901875295
  O       1.604157     -0.212522     -0.648447
  N      -2.059203     -0.125359     -0.128454
  C      -0.770051     -0.078335     -0.820663
  C       0.401554     -0.235731      0.133965
  H      -0.697328      0.873348     -1.347578
  H      -0.751428     -0.878439     -1.560969
  H       0.316815     -1.183629      0.674947
  H       0.407051      0.580435      0.862423
  H      -2.154198     -0.981039      0.411978
  H      -2.164922      0.653181      0.515809
  H       2.354394     -0.279601     -0.044527
  O      -4.565485      0.034386     -0.560101
  C      -3.626129     -0.081630     -1.291956
  O      -3.242209     -0.186378     -2.417107
14
Coordinates from ORCA-job ./orca E -398.965918169362
  O       1.605313     -0.212332     -0.647460
  N      -2.058288     -0.126252     -0.129089
  C      -0.768934     -0.078644     -0.821851
  C       0.401900     -0.235608      0.133903
  H      -0.697162      0.873220     -1.348327
  H      -0.750581     -0.879009     -1.561722
  H       0.316822     -1.183359      0.675069
  H       0.406612      0.580641      0.862237
  H      -2.156379     -0.983357      0.408981
  H      -2.167136      0.653418      0.513702
  H       2.355168     -0.278637     -0.042959
  O      -4.564316      0.036712     -0.558021
  C      -3.627034     -0.081049     -1.290079
  O      -3.242966     -0.187056     -2.415063
14
Coordinates from ORCA-job ./orca E -398.965930350231
  O       1.606321     -0.212276     -0.646657
  N      -2.057385     -0.127061     -0.129872
  C      -0.768048     -0.078857     -0.822383
  C       0.402342     -0.235487      0.133957
  H      -0.697024      0.873234     -1.348487
  H      -0.749734     -0.879313     -1.562129
  H       0.317005     -1.183117      0.675282
  H       0.406567      0.580890      0.862123
  H      -2.158328     -0.985155      0.405967
  H      -2.169423      0.653240      0.511499
  H       2.355878     -0.277849     -0.041714
  O      -4.563422      0.039160     -0.555411
  C      -3.627638     -0.080618     -1.288773
  O      -3.244093     -0.188104     -2.414081
14
Coordinates from ORCA-job ./orca E -398.965931847138
  O       1.607297     -0.212129     -0.645886
  N      -2.056478     -0.127829     -0.130930
  C      -0.767185     -0.078983     -0.822484
  C       0.402936     -0.235473      0.134148
  H      -0.696555      0.873381     -1.348206
  H      -0.748510     -0.879251     -1.562486
  H       0.317433     -1.183137      0.675393
  H       0.406767      0.580901      0.862304
  H      -2.160273     -0.986623      0.402926
  H      -2.172024      0.652801      0.509124
  H       2.356587     -0.276903     -0.040542
  O      -4.562399      0.042343     -0.552334
  C      -3.628143     -0.080325     -1.287874
  O      -3.246435     -0.190085     -2.413834
14
Coordinates from ORCA-job ./orca E -398.965932801044
  O       1.607689     -0.212129     -0.645554
  N      -2.056104     -0.128102     -0.131687
  C      -0.766748     -0.078800     -0.822237
  C       0.403328     -0.235527      0.134400
  H      -0.695909      0.873743     -1.347701
  H      -0.747496     -0.878676     -1.562733
  H       0.317700     -1.183314      0.675430
  H       0.407161      0.580740      0.862678
  H      -2.161018     -0.987004      0.401561
  H      -2.173540      0.652399      0.507973
  H       2.356909     -0.276584     -0.040096
  O      -4.561768      0.044301     -0.550718
  C      -3.628404     -0.080414     -1.287760
  O      -3.248782     -0.191947     -2.414237
14
Coordinates from ORCA-job ./orca E -398.965933794381
  O       1.607849     -0.212213     -0.645351
  N      -2.055971     -0.128122     -0.132334
  C      -0.766443     -0.078374     -0.821994
  C       0.403578     -0.235626      0.134656
  H      -0.695143      0.874356     -1.347123
  H      -0.746569     -0.877731     -1.563103
  H       0.317741     -1.183597      0.675349
  H       0.407567      0.580419      0.863187
  H      -2.161063     -0.986930      0.400983
  H      -2.174494      0.652124      0.507371
  H       2.357061     -0.276624     -0.039878
  O      -4.561335      0.045767     -0.549847
  C      -3.628677     -0.080739     -1.287865
  O      -3.251082     -0.194024     -2.414732
14
Coordinates from ORCA-job ./orca E -398.967205869555
  O       1.597244     -0.211891     -0.646769
  N      -2.067869     -0.127786     -0.142990
  C      -0.776602     -0.078035     -0.829397
  C       0.391006     -0.235310      0.130200
  H      -0.703972      0.874705     -1.354330
  H      -0.754864     -0.877378     -1.570471
  H       0.303800     -1.183289      0.670660
  H       0.393163      0.580722      0.858756
  H      -2.174311     -0.986603      0.390047
  H      -2.188001      0.652448      0.496429
  H       2.344929     -0.276316     -0.039408
  O      -4.520325      0.044562     -0.528718
  C      -3.585807     -0.081937     -1.264387
  O      -3.205371     -0.195204     -2.390304
14
Coordinates from ORCA-job ./orca E -398.967459728911
  O       1.599153     -0.211968     -0.642753
  N      -2.065169     -0.128199     -0.146816
  C      -0.772453     -0.077543     -0.831978
  C       0.391582     -0.235095      0.131490
  H      -0.699335      0.875421     -1.355916
  H      -0.749154     -0.876745     -1.572526
  H       0.302665     -1.183079      0.671636
  H       0.392215      0.580954      0.859958
  H      -2.168979     -0.987366      0.387206
  H      -2.183320      0.650799      0.495095
  H       2.345325     -0.276392     -0.033550
  O      -4.526484      0.046742     -0.525903
  C      -3.588196     -0.081258     -1.261247
  O      -3.224832     -0.197583     -2.395375
14
Coordinates from ORCA-job ./orca E -398.967357597585
  O       1.601103     -0.210589     -0.639118
  N      -2.061788     -0.135489     -0.148465
  C      -0.768459     -0.081802     -0.834966
  C       0.392446     -0.233776      0.132814
  H      -0.698719      0.870342     -1.360373
  H      -0.742725     -0.883275     -1.572726
  H       0.303921     -1.180169      0.675715
  H       0.389662      0.584576      0.858578
  H      -2.159342     -0.993491      0.389417
  H      -2.180095      0.644401      0.493053
  H       2.346160     -0.270959     -0.028086
  O      -4.533813      0.064171     -0.528760
  C      -3.590106     -0.096200     -1.255927
  O      -3.245227     -0.179053     -2.401836
14
Coordinates from ORCA-job ./orca E -398.966965585704
  O       1.605658     -0.214694     -0.632033
  N      -2.054536     -0.124245     -0.152107
  C      -0.759234     -0.069487     -0.839672
  C       0.394032     -0.235683      0.134433
  H      -0.685779      0.887205     -1.355493
  H      -0.737167     -0.865908     -1.582886
  H       0.296132     -1.185214      0.670002
  H       0.392711      0.577406      0.865901
  H      -2.150544     -0.985683      0.381585
  H      -2.168460      0.649763      0.498343
  H       2.347625     -0.283094     -0.017973
  O      -4.552111      0.047295     -0.533802
  C      -3.588590     -0.070783     -1.251011
  O      -3.286719     -0.228190     -2.405967
14
Coordinates from ORCA-job ./orca E -398.967571451772
  O       1.600622     -0.212665     -0.641099
  N      -2.062341     -0.127829     -0.145907
  C      -0.769708     -0.075172     -0.833366
  C       0.392416     -0.235361      0.131885
  H      -0.697762      0.879222     -1.354457
  H      -0.747756     -0.873219     -1.575051
  H       0.301369     -1.183879      0.670638
  H       0.393010      0.579682      0.861379
  H      -2.164004     -0.987810      0.387552
  H      -2.180600      0.650151      0.497542
  H       2.346151     -0.277957     -0.031162
  O      -4.533602      0.051036     -0.531732
  C      -3.586603     -0.080077     -1.258612
  O      -3.238175     -0.207436     -2.398287
14
Coordinates from ORCA-job ./orca E -398.967561100068
  O       1.600769     -0.212227     -0.640834
  N      -2.061640     -0.129638     -0.145474
  C      -0.769164     -0.075873     -0.833649
  C       0.392617     -0.235148      0.132063
  H      -0.698357      0.878588     -1.354655
  H      -0.746963     -0.874109     -1.575042
  H       0.301803     -1.183495      0.671140
  H       0.392731      0.580188      0.861205
  H      -2.161780     -0.989481      0.388641
  H      -2.180432      0.648627      0.497663
  H       2.346281     -0.276625     -0.030775
  O      -4.535119      0.056776     -0.533688
  C      -3.586381     -0.083918     -1.257609
  O      -3.241345     -0.204979     -2.399668
14
Coordinates from ORCA-job ./orca E -398.967579646188
  O       1.600579     -0.212158     -0.641280
  N      -2.061772     -0.129307     -0.144884
  C      -0.769470     -0.075291     -0.833319
  C       0.392613     -0.235330      0.131923
  H      -0.698742      0.879498     -1.353735
  H      -0.747639     -0.873062     -1.575219
  H       0.301778     -1.183984      0.670461
  H       0.393059      0.579575      0.861546
  H      -2.162101     -0.989375      0.388785
  H      -2.180889      0.648844      0.498281
  H       2.346262     -0.276853     -0.031465
  O      -4.534851      0.057550     -0.534572
  C      -3.585818     -0.083150     -1.257953
  O      -3.239989     -0.208270     -2.399250
14
Coordinates from ORCA-job ./orca E -398.967577898037
  O       1.600353     -0.211962     -0.641781
  N      -2.061885     -0.129331     -0.144195
  C      -0.769783     -0.074726     -0.832934
  C       0.392632     -0.235495      0.131801
  H      -0.699335      0.880479     -1.352616
  H      -0.748226     -0.871938     -1.575426
  H       0.301854     -1.184498      0.669739
  H       0.393406      0.578936      0.861948
  H      -2.162084     -0.989623      0.389079
  H      -2.181548      0.648724      0.498926
  H       2.346253     -0.276833     -0.032250
  O      -4.534590      0.059988     -0.535813
  C      -3.585229     -0.083242     -1.258227
  O      -3.238799     -0.211791     -2.398932
14
Coordinates from ORCA-job ./orca E -398.969137788715
  O       1.589723     -0.211647     -0.643161
  N      -2.073775     -0.128992     -0.154853
  C      -0.779927     -0.074382     -0.840317
  C       0.380041     -0.235189      0.127360
  H      -0.708153      0.880836     -1.359796
  H      -0.756497     -0.871576     -1.582774
  H       0.287891     -1.184204      0.665043
  H       0.378973      0.579224      0.857530
  H      -2.175334     -0.989297      0.378145
  H      -2.195060      0.649048      0.487985
  H       2.334078     -0.276542     -0.031742
  O      -4.493546      0.058791     -0.514748
  C      -3.542357     -0.084430     -1.234760
  O      -3.193038     -0.212953     -2.374590
14
Coordinates from ORCA-job ./orca E -398.969404264914
  O       1.591894     -0.211888     -0.638603
  N      -2.071019     -0.129978     -0.159174
  C      -0.775515     -0.074505     -0.843488
  C       0.380513     -0.234681      0.128563
  H      -0.703523      0.880691     -1.362440
  H      -0.750097     -0.872045     -1.584798
  H       0.286519     -1.183324      0.666576
  H       0.377488      0.580281      0.858052
  H      -2.169171     -0.990520      0.375202
  H      -2.189364      0.646699      0.486465
  H       2.334386     -0.276247     -0.024881
  O      -4.500165      0.061119     -0.511244
  C      -3.545301     -0.084868     -1.231264
  O      -3.213626     -0.212050     -2.379647
14
Coordinates from ORCA-job ./orca E -398.969307998465
  O       1.594750     -0.214247     -0.633299
  N      -2.067038     -0.124065     -0.163031
  C      -0.769928     -0.068662     -0.847450
  C       0.380907     -0.235345      0.129365
  H      -0.695682      0.888500     -1.361996
  H      -0.745629     -0.864274     -1.590681
  H       0.281469     -1.185202      0.664178
  H       0.377641      0.577428      0.861197
  H      -2.163496     -0.986378      0.369644
  H      -2.180825      0.649063      0.488434
  H       2.334675     -0.282301     -0.016821
  O      -4.509597      0.050170     -0.510162
  C      -3.546008     -0.071354     -1.228296
  O      -3.238221     -0.234646     -2.381764
14
Coordinates from ORCA-job ./orca E -398.968978257005
  O       1.598139     -0.212076     -0.627208
  N      -2.061557     -0.136405     -0.164429
  C      -0.764085     -0.076762     -0.853329
  C       0.381858     -0.232879      0.130630
  H      -0.696491      0.878675     -1.371343
  H      -0.736636     -0.877354     -1.591053
  H       0.283017     -1.179611      0.670933
  H       0.372173      0.584313      0.857295
  H      -2.146736     -0.996501      0.374816
  H      -2.173369      0.638454      0.486574
  H       2.335655     -0.272540     -0.006927
  O      -4.521706      0.076073     -0.516598
  C      -3.548602     -0.097027     -1.218973
  O      -3.268640     -0.197674     -2.391068
14
Coordinates from ORCA-job ./orca E -398.969502670264
  O       1.593517     -0.212007     -0.636416
  N      -2.068452     -0.131199     -0.158678
  C      -0.773012     -0.074267     -0.845734
  C       0.381024     -0.234398      0.128673
  H      -0.702936      0.881485     -1.363546
  H      -0.748423     -0.872051     -1.586676
  H       0.285622     -1.182827      0.666740
  H       0.376648      0.580653      0.857971
  H      -2.163538     -0.992019      0.376168
  H      -2.185542      0.644871      0.488335
  H       2.334920     -0.275631     -0.021254
  O      -4.506426      0.065452     -0.515634
  C      -3.544603     -0.087082     -1.228233
  O      -3.225781     -0.212294     -2.382397
14
Coordinates from ORCA-job ./orca E -398.969483045950
  O       1.594037     -0.212485     -0.635445
  N      -2.067483     -0.129861     -0.159076
  C      -0.771875     -0.072710     -0.846484
  C       0.381105     -0.234642      0.128769
  H      -0.701520      0.883679     -1.362961
  H      -0.747858     -0.869839     -1.588085
  H       0.284461     -1.183496      0.665851
  H       0.376793      0.579730      0.858805
  H      -2.162083     -0.991210      0.375192
  H      -2.183698      0.645409      0.489217
  H       2.334938     -0.276951     -0.019754
  O      -4.508634      0.063988     -0.516235
  C      -3.544321     -0.084069     -1.227613
  O      -3.230844     -0.218857     -2.382862
14
Coordinates from ORCA-job ./orca E -398.969505366808
  O       1.593874     -0.212229     -0.635826
  N      -2.067641     -0.130281     -0.158532
  C      -0.772214     -0.072877     -0.846240
  C       0.381103     -0.234677      0.128652
  H      -0.702221      0.883571     -1.362664
  H      -0.748345     -0.869940     -1.587909
  H       0.284760     -1.183595      0.665677
  H       0.376795      0.579636      0.858756
  H      -2.162162     -0.991628      0.375708
  H      -2.184213      0.645163      0.489448
  H       2.334937     -0.276459     -0.020309
  O      -4.508222      0.065839     -0.516992
  C      -3.544010     -0.085024     -1.227740
  O      -3.229420     -0.218813     -2.382708
14
Coordinates from ORCA-job ./orca E -398.971204639423
  O       1.583191     -0.211919     -0.637172
  N      -2.079533     -0.129933     -0.169153
  C      -0.782362     -0.072527     -0.853577
  C       0.368483     -0.234371      0.124233
  H      -0.711047      0.883934     -1.369796
  H      -0.756625     -0.869570     -1.595209
  H       0.270765     -1.183303      0.660987
  H       0.362336      0.579921      0.854349
  H      -2.175420     -0.991294      0.364823
  H      -2.197735      0.645495      0.478554
  H       2.322693     -0.276177     -0.019779
  O      -4.467088      0.064634     -0.496050
  C      -3.501078     -0.086222     -1.204359
  O      -3.183563     -0.219981     -2.358533
14
Coordinates from ORCA-job ./orca E -398.971475047867
  O       1.585422     -0.212379     -0.632501
  N      -2.076911     -0.130325     -0.173562
  C      -0.777820     -0.072277     -0.856919
  C       0.368911     -0.233864      0.125326
  H      -0.706099      0.884275     -1.372340
  H      -0.750308     -0.869465     -1.597568
  H       0.269042     -1.182428      0.662335
  H       0.360885      0.580952      0.854791
  H      -2.169517     -0.992257      0.361260
  H      -2.190898      0.642918      0.478144
  H       2.322925     -0.276268     -0.012694
  O      -4.474112      0.065495     -0.492615
  C      -3.503847     -0.084068     -1.201214
  O      -3.204656     -0.221623     -2.363124
14
Coordinates from ORCA-job ./orca E -398.970545621304
  O       1.587566     -0.208519     -0.627050
  N      -2.073819     -0.146717     -0.176737
  C      -0.773462     -0.084656     -0.862370
  C       0.369126     -0.230603      0.126640
  H      -0.708859      0.868626     -1.384068
  H      -0.740000     -0.888187     -1.595295
  H       0.272599     -1.174908      0.671658
  H       0.353360      0.590580      0.848689
  H      -2.155483     -1.006274      0.365115
  H      -2.184252      0.627913      0.475115
  H       2.323033     -0.261822     -0.003782
  O      -4.479901      0.097963     -0.493648
  C      -3.508740     -0.112228     -1.193675
  O      -3.228150     -0.172482     -2.371272
14
Coordinates from ORCA-job ./orca E -398.971540187663
  O       1.588529     -0.212455     -0.626682
  N      -2.072675     -0.132788     -0.176387
  C      -0.772075     -0.073697     -0.862128
  C       0.369469     -0.232930      0.126218
  H      -0.702308      0.882860     -1.377291
  H      -0.743709     -0.872729     -1.600658
  H       0.267318     -1.180350      0.664714
  H       0.357769      0.583281      0.853948
  H      -2.159971     -0.995624      0.358937
  H      -2.179998      0.637378      0.481243
  H       2.323402     -0.274005     -0.003425
  O      -4.485301      0.070895     -0.494926
  C      -3.505282     -0.082827     -1.195942
  O      -3.232153     -0.218323     -2.368301
14
Coordinates from ORCA-job ./orca E -398.971558103480
  O       1.586701     -0.211865     -0.630639
  N      -2.075010     -0.132313     -0.172840
  C      -0.775920     -0.073624     -0.859126
  C       0.369201     -0.233447      0.125273
  H      -0.706453      0.882895     -1.374581
  H      -0.749227     -0.871903     -1.598497
  H       0.268968     -1.181419      0.663192
  H       0.359120      0.582092      0.853842
  H      -2.165422     -0.995065      0.361425
  H      -2.185745      0.639404      0.481679
  H       2.323237     -0.273893     -0.009449
  O      -4.479317      0.071121     -0.496887
  C      -3.503032     -0.083664     -1.198870
  O      -3.214081     -0.219633     -2.365201
14
Coordinates from ORCA-job ./orca E -398.971576412240
  O       1.587256     -0.211695     -0.629525
  N      -2.074227     -0.133094     -0.173397
  C      -0.774850     -0.074097     -0.860101
  C       0.369291     -0.233219      0.125452
  H      -0.705889      0.882393     -1.375580
  H      -0.747896     -0.872788     -1.598975
  H       0.268773     -1.180953      0.663722
  H       0.358385      0.582661      0.853608
  H      -2.163620     -0.996133      0.360778
  H      -2.183599      0.637967      0.482345
  H       2.323302     -0.273041     -0.007671
  O      -4.481274      0.073068     -0.497237
  C      -3.503335     -0.083496     -1.197868
  O      -3.219298     -0.218886     -2.366230
14
Coordinates from ORCA-job ./orca E -398.971571817854
  O       1.587224     -0.211431     -0.629630
  N      -2.074233     -0.133450     -0.173055
  C      -0.774964     -0.074313     -0.860085
  C       0.369284     -0.233189      0.125369
  H      -0.706362      0.882188     -1.375575
  H      -0.748183     -0.873061     -1.598879
  H       0.268971     -1.180924      0.663673
  H       0.358195      0.582724      0.853486
  H      -2.163693     -0.996772      0.360633
  H      -2.183394      0.637370      0.482992
  H       2.323303     -0.272448     -0.007783
  O      -4.481197      0.074556     -0.497802
  C      -3.503055     -0.083166     -1.197892
  O      -3.218878     -0.219397     -2.366134
14
Coordinates from ORCA-job ./orca E -398.973185761674
  O       1.576488     -0.211131     -0.630939
  N      -2.086123     -0.133026     -0.183641
  C      -0.785111     -0.073918     -0.867376
  C       0.356634     -0.232865      0.120973
  H      -0.715166      0.882596     -1.382665
  H      -0.756488     -0.872646     -1.606126
  H       0.254921     -1.180612      0.658995
  H       0.343731      0.583027      0.849085
  H      -2.176968     -0.996360      0.349796
  H      -2.196917      0.637780      0.472152
  H       2.310989     -0.272193     -0.007229
  O      -4.439975      0.073240     -0.476982
  C      -3.460065     -0.084499     -1.174598
  O      -3.172932     -0.220707     -2.342124
14
Coordinates from ORCA-job ./orca E -398.973451779992
  O       1.578885     -0.211765     -0.626040
  N      -2.083653     -0.133857     -0.188335
  C      -0.780391     -0.074236     -0.870964
  C       0.357101     -0.232011      0.122050
  H      -0.710166      0.882157     -1.385828
  H      -0.749823     -0.873407     -1.608370
  H       0.253251     -1.178869      0.661230
  H       0.342125      0.585134      0.848698
  H      -2.171760     -0.998530      0.344657
  H      -2.188892      0.633467      0.473118
  H       2.311251     -0.271687      0.000274
  O      -4.447172      0.073944     -0.473091
  C      -3.462797     -0.079071     -1.171712
  O      -3.194942     -0.222582     -2.346368
14
Coordinates from ORCA-job ./orca E -398.970652069090
  O       1.582888     -0.204376     -0.614799
  N      -2.079004     -0.166203     -0.197238
  C      -0.771585     -0.099285     -0.881664
  C       0.357145     -0.224906      0.124727
  H      -0.714033      0.850104     -1.409353
  H      -0.727815     -0.910430     -1.603393
  H       0.259792     -1.162358      0.681251
  H       0.326915      0.605990      0.835017
  H      -2.148812     -1.029093      0.344679
  H      -2.173227      0.599464      0.469989
  H       2.310838     -0.242320      0.018367
  O      -4.455526      0.134240     -0.469476
  C      -3.473424     -0.119810     -1.159272
  O      -3.241137     -0.132331     -2.359516
14
Coordinates from ORCA-job ./orca E -398.973529151559
  O       1.580999     -0.210361     -0.621891
  N      -2.081136     -0.141898     -0.190460
  C      -0.776574     -0.080826     -0.875070
  C       0.357553     -0.229608      0.122882
  H      -0.710437      0.873890     -1.393206
  H      -0.743201     -0.883998     -1.607923
  H       0.254575     -1.173347      0.667599
  H       0.337802      0.591957      0.844341
  H      -2.165631     -1.008500      0.340824
  H      -2.179731      0.620781      0.478256
  H       2.311685     -0.263495      0.007055
  O      -4.454094      0.088663     -0.474542
  C      -3.464411     -0.079200     -1.167541
  O      -3.214381     -0.205371     -2.351002
14
Coordinates from ORCA-job ./orca E -398.973544343406
  O       1.580336     -0.209963     -0.623239
  N      -2.081649     -0.141242     -0.188592
  C      -0.777875     -0.080571     -0.874256
  C       0.357352     -0.229831      0.122422
  H      -0.712140      0.874172     -1.392402
  H      -0.745877     -0.883610     -1.607289
  H       0.254924     -1.173868      0.666723
  H       0.337875      0.591332      0.844353
  H      -2.167943     -1.008832      0.340685
  H      -2.180014      0.621090      0.480392
  H       2.311548     -0.263158      0.005081
  O      -4.452665      0.088081     -0.476420
  C      -3.462718     -0.075620     -1.168597
  O      -3.208136     -0.209292     -2.349541
14
Coordinates from ORCA-job ./orca E -398.973544676964
  O       1.580375     -0.209340     -0.623177
  N      -2.081608     -0.142369     -0.188182
  C      -0.777966     -0.081667     -0.874434
  C       0.357325     -0.229572      0.122343
  H      -0.712999      0.872741     -1.393254
  H      -0.746011     -0.885296     -1.606779
  H       0.255459     -1.173306      0.667273
  H       0.337112      0.592080      0.843707
  H      -2.168214     -1.010658      0.339855
  H      -2.178894      0.619271      0.481736
  H       2.311566     -0.261425      0.005262
  O      -4.452718      0.090596     -0.477008
  C      -3.462373     -0.074394     -1.168455
  O      -3.208036     -0.207974     -2.349567
14
Coordinates from ORCA-job ./orca E -398.974766793747
  O       1.569584     -0.209067     -0.624452
  N      -2.093493     -0.141713     -0.198727
  C      -0.788106     -0.081133     -0.881677
  C       0.344644     -0.229188      0.117971
  H      -0.721723      0.873281     -1.400307
  H      -0.754384     -0.884747     -1.613962
  H       0.241297     -1.172924      0.662618
  H       0.322693      0.592447      0.839306
  H      -2.181530     -1.010007      0.329067
  H      -2.192393      0.619919      0.470965
  H       2.299178     -0.261248      0.005837
  O      -4.411406      0.088933     -0.456320
  C      -3.419328     -0.076145     -1.145264
  O      -3.162015     -0.209722     -2.325736
14
Coordinates from ORCA-job ./orca E -398.975034515086
  O       1.572380     -0.209890     -0.618672
  N      -2.090971     -0.144469     -0.204136
  C      -0.783124     -0.083447     -0.886180
  C       0.344954     -0.227456      0.118964
  H      -0.717110      0.870053     -1.405859
  H      -0.746695     -0.888760     -1.615684
  H       0.239576     -1.168972      0.667062
  H       0.319988      0.597222      0.836750
  H      -2.176438     -1.015186      0.321420
  H      -2.182248      0.611943      0.473354
  H       2.299331     -0.258802      0.014928
  O      -4.418392      0.091337     -0.450813
  C      -3.422446     -0.068752     -1.141960
  O      -3.185786     -0.206135     -2.329854
14
Coordinates from ORCA-job ./orca E -398.972511590293
  O       1.576193     -0.202000     -0.607123
  N      -2.087268     -0.180910     -0.212981
  C      -0.775543     -0.113238     -0.897702
  C       0.344031     -0.218682      0.120753
  H      -0.723665      0.831245     -1.433760
  H      -0.724790     -0.933024     -1.608579
  H       0.246191     -1.147892      0.690812
  H       0.301681      0.622972      0.817733
  H      -2.157107     -1.053169      0.315417
  H      -2.163364      0.569734      0.474890
  H       2.297996     -0.224136      0.033865
  O      -4.422830      0.154373     -0.443822
  C      -3.432741     -0.101354     -1.130284
  O      -3.225764     -0.105231     -2.339898
14
Coordinates from ORCA-job ./orca E -398.975111295252
  O       1.574573     -0.207679     -0.613886
  N      -2.088722     -0.155847     -0.206600
  C      -0.779463     -0.093924     -0.891105
  C       0.345059     -0.223805      0.119615
  H      -0.718866      0.856340     -1.416968
  H      -0.739097     -0.905412     -1.613528
  H       0.241688     -1.160317      0.676553
  H       0.313249      0.607769      0.829093
  H      -2.172142     -1.030598      0.313473
  H      -2.170023      0.592872      0.481469
  H       2.299411     -0.246052      0.022903
  O      -4.424033      0.109571     -0.450296
  C      -3.424014     -0.064145     -1.137544
  O      -3.204601     -0.180086     -2.333860
14
Coordinates from ORCA-job ./orca E -398.975126749214
  O       1.573896     -0.206532     -0.615159
  N      -2.089191     -0.155471     -0.204735
  C      -0.780747     -0.094050     -0.890306
  C       0.344836     -0.224119      0.119187
  H      -0.720711      0.856087     -1.416451
  H      -0.741702     -0.905518     -1.612773
  H       0.242435     -1.161196      0.675363
  H       0.312674      0.606824      0.829401
  H      -2.174457     -1.031160      0.313345
  H      -2.170158      0.592925      0.483527
  H       2.299279     -0.244927      0.020997
  O      -4.422441      0.110323     -0.452136
  C      -3.422329     -0.060679     -1.138452
  O      -3.198366     -0.183820     -2.332488
14
Coordinates from ORCA-job ./orca E -398.975135301336
  O       1.573967     -0.205213     -0.614907
  N      -2.089139     -0.157145     -0.204364
  C      -0.780839     -0.095818     -0.890649
  C       0.344733     -0.223795      0.119065
  H      -0.721821      0.853716     -1.417943
  H      -0.741748     -0.908181     -1.612071
  H       0.243303     -1.160557      0.675949
  H       0.311111      0.607704      0.828577
  H      -2.174963     -1.033838      0.311892
  H      -2.168468      0.590111      0.485307
  H       2.299235     -0.242105      0.021469
  O      -4.422163      0.114357     -0.452466
  C      -3.421931     -0.058637     -1.138191
  O      -3.198259     -0.181911     -2.332348
14
Coordinates from ORCA-job ./orca E -398.975133619605
  O       1.574111     -0.201624     -0.614265
  N      -2.089099     -0.161269     -0.203687
  C      -0.781110     -0.099990     -0.891390
  C       0.344465     -0.223030      0.118784
  H      -0.724426      0.848121     -1.421410
  H      -0.741731     -0.914338     -1.610497
  H       0.245535     -1.159240      0.677050
  H       0.307211      0.609584      0.826850
  H      -2.176301     -1.040448      0.308042
  H      -2.164977      0.583168      0.489349
  H       2.299086     -0.235259      0.022620
  O      -4.420774      0.125533     -0.452736
  C      -3.421156     -0.054106     -1.137609
  O      -3.197815     -0.178415     -2.331780
14
Coordinates from ORCA-job ./orca E -398.975134918635
  O       1.574177     -0.200799     -0.614034
  N      -2.089092     -0.162015     -0.203829
  C      -0.781070     -0.100522     -0.891520
  C       0.344436     -0.222852      0.118786
  H      -0.724683      0.847415     -1.421888
  H      -0.741444     -0.915043     -1.610428
  H       0.245939     -1.159081      0.677097
  H       0.306532      0.609831      0.826747
  H      -2.176469     -1.041762      0.306928
  H      -2.164630      0.581697      0.490023
  H       2.299056     -0.234263      0.022966
  O      -4.420271      0.128552     -0.452442
  C      -3.421207     -0.053384     -1.137500
  O      -3.198255     -0.179088     -2.331586
14
Coordinates from ORCA-job ./orca E -398.975447267286
  O       1.563322     -0.200587     -0.615268
  N      -2.100972     -0.160825     -0.214305
  C      -0.791198     -0.099673     -0.898695
  C       0.331727     -0.222320      0.114449
  H      -0.733218      0.848257     -1.428906
  H      -0.749977     -0.914194     -1.617515
  H       0.231569     -1.158532      0.672496
  H       0.292260      0.610362      0.822327
  H      -2.189873     -1.040556      0.296218
  H      -2.178060      0.582896      0.479368
  H       2.286585     -0.234255      0.023560
  O      -4.378855      0.126082     -0.431935
  C      -3.378112     -0.056111     -1.114474
  O      -3.152180     -0.181857     -2.308000
14
Coordinates from ORCA-job ./orca E -398.975685786837
  O       1.566393     -0.201969     -0.609148
  N      -2.098679     -0.161249     -0.220541
  C      -0.785751     -0.100031     -0.903168
  C       0.332139     -0.221020      0.115460
  H      -0.726841      0.847559     -1.433179
  H      -0.742002     -0.915228     -1.620361
  H       0.228901     -1.155657      0.675617
  H       0.290401      0.613686      0.820863
  H      -2.184476     -1.043183      0.288337
  H      -2.167896      0.576606      0.481363
  H       2.286794     -0.234308      0.032980
  O      -4.386254      0.126215     -0.425793
  C      -3.381456     -0.047684     -1.111575
  O      -3.178256     -0.185050     -2.311537
14
Coordinates from ORCA-job ./orca E -398.972126506074
  O       1.572592     -0.193977     -0.591826
  N      -2.094302     -0.199694     -0.236562
  C      -0.772850     -0.129923     -0.918422
  C       0.331249     -0.211537      0.118099
  H      -0.726807      0.808562     -1.463496
  H      -0.710580     -0.958535     -1.616463
  H       0.232755     -1.133075      0.700504
  H       0.269983      0.640298      0.801338
  H      -2.154515     -1.082106      0.280697
  H      -2.142641      0.529519      0.480101
  H       2.284769     -0.200410      0.060229
  O      -4.395229      0.198154     -0.413315
  C      -3.397996     -0.088538     -1.097016
  O      -3.243409     -0.080051     -2.324550
14
Coordinates from ORCA-job ./orca E -398.975764427921
  O       1.568109     -0.199999     -0.605960
  N      -2.097804     -0.171320     -0.222535
  C      -0.782752     -0.107897     -0.906290
  C       0.332760     -0.217870      0.116204
  H      -0.728770      0.837428     -1.440647
  H      -0.735118     -0.927190     -1.618592
  H       0.231333     -1.148591      0.683159
  H       0.286328      0.621970      0.815170
  H      -2.179240     -1.055620      0.283901
  H      -2.161061      0.559923      0.487587
  H       2.287154     -0.225092      0.038050
  O      -4.390733      0.146386     -0.426995
  C      -3.383622     -0.050508     -1.108217
  O      -3.193567     -0.162934     -2.315515
14
Coordinates from ORCA-job ./orca E -398.975775227525
  O       1.567251     -0.199273     -0.607380
  N      -2.098012     -0.168624     -0.220455
  C      -0.783844     -0.105512     -0.905291
  C       0.332463     -0.218907      0.115775
  H      -0.729662      0.840640     -1.438166
  H      -0.738376     -0.923545     -1.619182
  H       0.231059     -1.151347      0.679902
  H       0.286518      0.618759      0.817342
  H      -2.180368     -1.053198      0.285326
  H      -2.161738      0.563481      0.488544
  H       2.286891     -0.226867      0.035853
  O      -4.389767      0.144342     -0.429727
  C      -3.381619     -0.047560     -1.109304
  O      -3.187779     -0.173704     -2.313918
14
Coordinates from ORCA-job ./orca E -398.975783247734
  O       1.567328     -0.198190     -0.607470
  N      -2.098172     -0.168827     -0.219945
  C      -0.783920     -0.105493     -0.905154
  C       0.332582     -0.219201      0.115693
  H      -0.730116      0.840827     -1.437744
  H      -0.738843     -0.923289     -1.619293
  H       0.231747     -1.152211      0.678974
  H       0.286113      0.617797      0.818037
  H      -2.180159     -1.053449      0.285731
  H      -2.161638      0.563474      0.488837
  H       2.287033     -0.226192      0.035677
  O      -4.389854      0.147210     -0.430853
  C      -3.381423     -0.047806     -1.109314
  O      -3.187659     -0.175963     -2.313857
