14
Coordinates from ORCA-job ./orca E -398.973017102048
  O           1.84797172291046     -0.35261342908219     -0.66842447393300
  N          -1.75002312802899      0.07500168546751      0.22467121097992
  C          -0.53335838757180     -0.04801899340869     -0.58745895658966
  C           0.73279019781768     -0.23941882606452      0.23222217014999
  H          -0.43233715278050      0.85069146019792     -1.20130536099671
  H          -0.65159720637063     -0.89519357831971     -1.26786206580313
  H           0.64643426875793     -1.14581059385396      0.84106174739980
  H           0.87489786245681      0.61430699063756      0.90311140908067
  H          -1.83350418475455     -0.73662337218382      0.83090941867951
  H          -1.66208159890222      0.87526554165565      0.84458302594102
  H           2.64900310538843     -0.46186894575737     -0.14083685371207
  O          -5.62032507132014     -0.63574463944762     -1.23469088923647
  C          -4.94430394266121     -0.21225522056571     -2.07643492825711
  O          -4.27054853524118      0.21096859322494     -2.92022579460270
