14
Coordinates from ORCA-job ./orca E -398.963870677038
  O           1.62653949546859     -0.21335268475596     -0.64334703325336
  N          -2.04386727736140     -0.12120571527121     -0.12017034074266
  C          -0.75467786604841     -0.07906869941153     -0.80728497576965
  C           0.42346996532843     -0.23655057519997      0.14036160430950
  H          -0.67757825851401      0.87120130158553     -1.33805032201326
  H          -0.73520946777301     -0.87931038537000     -1.54915263394977
  H           0.34073438639710     -1.18461260836960      0.68173292422503
  H           0.43080212265243      0.57923628586914      0.86959564944763
  H          -2.14680657972123     -0.97627812260340      0.41839203993305
  H          -2.15216613604387      0.65956951006377      0.51985802905665
  H           2.37742679090663     -0.28372127212360     -0.04064013575765
  O          -4.61360329421987      0.02129627851030     -0.56501062315945
  C          -3.72621758886221     -0.08112390590925     -1.34414685464202
  O          -3.29582834250884     -0.17739273451420     -2.44281766858392
