14
Coordinates from ORCA-job ./orca E -398.964364100028
  O           1.66341397593945     -0.20771785457164     -0.63486623330287
  N          -2.02164541504669     -0.13080064022833     -0.10215065416240
  C          -0.72776814675848     -0.09946046840419     -0.78444039569107
  C           0.46148183474654     -0.23302972126263      0.15355975865594
  H          -0.64958884758974      0.83984906362425     -1.33721078798370
  H          -0.70255461692900     -0.91139951084805     -1.51557744439229
  H           0.39319438476806     -1.17457501986795      0.70866985636716
  H           0.46439665535014      0.59226977936777      0.87279916586630
  H          -2.10862759073183     -0.98218302858014      0.44570094525348
  H          -2.09531172042361      0.64242931604714      0.55261301232963
  H           2.41710928967835     -0.27007466765833     -0.03484112884700
  O          -4.71454409996699      0.00974698183316     -0.59333800649029
  C          -3.92719933900139     -0.05725936950563     -1.45534634166771
  O          -3.39933841433452     -0.11910818744541     -2.49625208683506
