14
Coordinates from ORCA-job ./orca E -398.972663459556
  O           1.79803559894089     -0.33032472496455     -0.62671588149235
  N          -1.85060446173861      0.03625896993932      0.06215752123427
  C          -0.58711987904660     -0.05726288517301     -0.67885699714404
  C           0.63232432379202     -0.24172792759418      0.21082560927340
  H          -0.46411450752337      0.85140048787455     -1.27366297051686
  H          -0.65242493227446     -0.89631847968130     -1.37628413147358
  H           0.52331462421961     -1.15600298227025      0.80420011023259
  H           0.72466755478455      0.60640491936100      0.89713525076829
  H          -1.95471726987452     -0.78225932768173      0.65596484589152
  H          -1.81425565434692      0.83218414076231      0.69258467712903
  H           2.57149117696999     -0.42255065134213     -0.05656750113240
  O          -5.24894236770005     -0.53945830895337     -0.93489621130504
  C          -4.62085236590352     -0.18006250861965     -1.84118200679617
  O          -4.00378389059883      0.17840595084296     -2.75538265556859
