14
Coordinates from ORCA-job ./orca E -398.973020272599
  O           1.85199799073702     -0.35283275361293     -0.67440641661553
  N          -1.73890942482528      0.07806656984980      0.24557280934833
  C          -0.52909143999446     -0.04844858798461     -0.57628524527495
  C           0.74322985522107     -0.23865954053824      0.23394672288847
  H          -0.43218017202227      0.84855944480399     -1.19330981448275
  H          -0.65377080194067     -0.89729295304852     -1.25343537661737
  H           0.66151635637291     -1.14421559928498      0.84464340102082
  H           0.88983295572091      0.61599504470392      0.90273442689181
  H          -1.82017127645322     -0.73374999420912      0.85182388631292
  H          -1.64278920856963      0.87744228937144      0.86547064018369
  H           2.65643684847316     -0.46343060532657     -0.15227009072552
  O          -5.65592461725088     -0.63992452753061     -1.26615879495311
  C          -4.97701799359421     -0.21416186192730     -2.10443135201990
  O          -4.30014112217435      0.21133974723373     -2.94457513685686
