14
Coordinates from ORCA-job scan E -399.089786266714
  O           1.63264298997727     -0.23393811302986     -0.68938994709488
  N          -2.01413886606779     -0.13345454962326     -0.08913422349270
  C          -0.74057406143789     -0.15482959143576     -0.79790099022187
  C           0.46432505177839     -0.22556706124022      0.12049288621065
  H          -0.67391198109220      0.74231718921853     -1.41262529364727
  H          -0.73552584269030     -1.01223710326940     -1.47011446541993
  H           0.41165481418114     -1.13182840721284      0.73051250939890
  H           0.46699399981067      0.63766372272900      0.79217795564382
  H          -2.11910868753432     -0.96326537742706      0.48166917657618
  H          -2.05907487002212      0.65803261269388      0.54094918124610
  H           2.39980579398428     -0.28102293251253     -0.11369484533041
  O          -4.67706903557376      0.00779408413420     -0.50708460744760
  C          -3.90232744527237     -0.00724735554911     -1.37774013416573
  O          -3.40067391034090     -0.00373044497556     -2.42879754315523
