14
Coordinates from ORCA-job tsopt_iter_opt E -399.092197629690
  O       1.586340     -0.243698     -0.682722
  N      -2.076862     -0.101519     -0.149275
  C      -0.785608     -0.099865     -0.833530
  C       0.397339     -0.236573      0.110775
  H      -0.698541      0.829271     -1.395808
  H      -0.777874     -0.925059     -1.545385
  H       0.316508     -1.166514      0.679256
  H       0.417180      0.600337      0.812655
  H      -2.185523     -0.937047      0.414409
  H      -2.160652      0.693066      0.473984
  H       2.340411     -0.307854     -0.089661
  O      -4.638438      0.062465     -0.520301
  C      -3.773969     -0.061099     -1.316300
  O      -3.378542     -0.178175     -2.422875
14
Coordinates from ORCA-job tsopt_iter_opt E -399.091647546605
  O       1.590474     -0.244096     -0.681793
  N      -2.063873     -0.099755     -0.135422
  C      -0.781808     -0.098809     -0.829031
  C       0.401659     -0.236832      0.110433
  H      -0.695612      0.830201     -1.392625
  H      -0.777117     -0.923350     -1.542462
  H       0.319507     -1.167172      0.678547
  H       0.421141      0.599298      0.813667
  H      -2.165916     -0.935213      0.429086
  H      -2.138321      0.693266      0.490384
  H       2.344774     -0.309610     -0.089281
  O      -4.657635      0.061216     -0.531266
  C      -3.824726     -0.061404     -1.350364
  O      -3.390779     -0.180002     -2.434650
14
Coordinates from ORCA-job tsopt_iter_opt E -399.091587988976
  O       1.592922     -0.243964     -0.682870
  N      -2.060664     -0.099462     -0.129262
  C      -0.780343     -0.099051     -0.825475
  C       0.405145     -0.236781      0.110910
  H      -0.694800      0.829676     -1.389978
  H      -0.776865     -0.923624     -1.539131
  H       0.324082     -1.167062      0.679381
  H       0.425516      0.599409      0.814166
  H      -2.160724     -0.935136      0.435091
  H      -2.130949      0.692447      0.498255
  H       2.348129     -0.309749     -0.091561
  O      -4.667610      0.061752     -0.537905
  C      -3.846627     -0.060754     -1.365819
  O      -3.395445     -0.179966     -2.440579
14
Coordinates from ORCA-job tsopt_iter_opt E -399.091584923184
  O       1.592846     -0.243625     -0.683729
  N      -2.060546     -0.100003     -0.127411
  C      -0.780583     -0.099636     -0.824548
  C       0.405659     -0.236543      0.110969
  H      -0.695680      0.828838     -1.389588
  H      -0.777417     -0.924535     -1.537818
  H       0.325406     -1.166601      0.679919
  H       0.426264      0.599975      0.813837
  H      -2.160002     -0.936073      0.436600
  H      -2.129228      0.691287      0.501202
  H       2.348530     -0.309045     -0.092988
  O      -4.669365      0.063086     -0.540293
  C      -3.849436     -0.059915     -1.368964
  O      -3.394677     -0.179471     -2.441965
14
Coordinates from ORCA-job tsopt_iter_opt E -399.091587536541
  O       1.592653     -0.243446     -0.684070
  N      -2.060648     -0.100295     -0.126927
  C      -0.780815     -0.099862     -0.824304
  C       0.405672     -0.236475      0.110942
  H      -0.696146      0.828546     -1.389490
  H      -0.777699     -0.924851     -1.537465
  H       0.325730     -1.166479      0.680021
  H       0.426326      0.600129      0.813706
  H      -2.160027     -0.936459      0.436955
  H      -2.129139      0.690888      0.501837
  H       2.348504     -0.308708     -0.093524
  O      -4.669419      0.063753     -0.541011
  C      -3.849233     -0.059604     -1.369350
  O      -3.393992     -0.179401     -2.442096
14
Coordinates from ORCA-job tsopt_iter_opt E -399.091585159549
  O       1.592582     -0.243351     -0.684190
  N      -2.060694     -0.100449     -0.126776
  C      -0.780900     -0.099960     -0.824224
  C       0.405671     -0.236452      0.110931
  H      -0.696330      0.828432     -1.389452
  H      -0.777778     -0.924974     -1.537356
  H       0.325858     -1.166444      0.680047
  H       0.426321      0.600178      0.813665
  H      -2.160048     -0.936648      0.437058
  H      -2.129171      0.690704      0.502027
  H       2.348492     -0.308536     -0.093712
  O      -4.669402      0.064148     -0.541248
  C      -3.849107     -0.059464     -1.369441
  O      -3.393726     -0.179448     -2.442107
