14
Coordinates from ORCA-job ./orca E -398.975858414011
  O           1.55886499710508     -0.20090679661127     -0.66971031349968
  N          -2.09721164327738     -0.17061264842471     -0.18876810981164
  C          -0.79775498173601     -0.09079661330289     -0.90203470462801
  C           0.34443273495394     -0.22580560707529      0.08762440834065
  H          -0.75893285150612      0.86723661711555     -1.41573181736829
  H          -0.77072832037491     -0.89330005552065     -1.63379353776586
  H           0.25345063778407     -1.16705924502480      0.63870009517896
  H           0.32322356462166      0.60035018558403      0.80364480012863
  H          -2.16111664322717     -1.06582991304240      0.30044493348512
  H          -2.15355159122356      0.55315123076493      0.52775047342708
  H           2.29664326919703     -0.23814782327199     -0.04794037079466
  O          -4.32293343184398      0.46194523123746     -0.44756726343180
  C          -3.38809308370567     -0.04660317140441     -1.06622550763827
  O          -3.27327470706677     -0.48493471852351     -2.20707342652217
