14
Coordinates from ORCA-job ./orca E -398.973427083445
  O       1.525094     -0.229938     -0.678728
  N      -2.108761     -0.119686     -0.200246
  C      -0.803221     -0.145721     -0.905281
  C       0.336242     -0.223954      0.088764
  H      -0.737968      0.758165     -1.500674
  H      -0.807066     -1.006449     -1.564544
  H       0.251752     -1.133591      0.688666
  H       0.308229      0.637017      0.761629
  H      -2.210773     -0.945779      0.389408
  H      -2.145984      0.667673      0.447478
  H       2.272637     -0.275608     -0.077019
  O      -4.357598     -0.009710     -0.363833
  C      -3.341645     -0.043583     -1.051247
  O      -3.127919     -0.030150     -2.255054
14
Coordinates from ORCA-job ./orca E -398.975402991924
  O       1.554479     -0.236781     -0.662894
  N      -2.098866     -0.122160     -0.206988
  C      -0.791704     -0.145314     -0.913533
  C       0.343948     -0.220855      0.089306
  H      -0.722472      0.759816     -1.510203
  H      -0.788913     -1.010463     -1.570283
  H       0.249206     -1.126789      0.696570
  H       0.311467      0.645639      0.757399
  H      -2.190241     -0.955661      0.378821
  H      -2.123328      0.660270      0.450239
  H       2.296265     -0.280439     -0.046374
  O      -4.396271     -0.010118     -0.354059
  C      -3.381165     -0.035124     -1.055795
  O      -3.209388     -0.023334     -2.272886
14
Coordinates from ORCA-job ./orca E -398.974362198903
  O       1.561481     -0.240156     -0.660038
  N      -2.094895     -0.144585     -0.204740
  C      -0.791722     -0.157563     -0.916490
  C       0.343787     -0.213766      0.088785
  H      -0.731257      0.744357     -1.520387
  H      -0.779204     -1.029422     -1.565721
  H       0.250768     -1.109763      0.710804
  H       0.309815      0.664449      0.741140
  H      -2.176908     -0.981061      0.378109
  H      -2.122855      0.640044      0.449472
  H       2.299098     -0.270548     -0.036869
  O      -4.402222      0.024757     -0.353492
  C      -3.393362     -0.067148     -1.059342
  O      -3.219505      0.039092     -2.271910
14
Coordinates from ORCA-job ./orca E -398.975618047228
  O       1.561608     -0.249366     -0.661026
  N      -2.092313     -0.130465     -0.201460
  C      -0.791828     -0.144348     -0.915975
  C       0.343482     -0.214164      0.088582
  H      -0.726974      0.761725     -1.513255
  H      -0.784263     -1.011796     -1.571466
  H       0.243435     -1.111348      0.707159
  H       0.319002      0.662428      0.742969
  H      -2.179425     -0.972967      0.370983
  H      -2.117822      0.647816      0.459631
  H       2.297147     -0.287718     -0.036578
  O      -4.406384     -0.004990     -0.356964
  C      -3.392136     -0.037285     -1.058507
  O      -3.220513     -0.008836     -2.274774
14
Coordinates from ORCA-job ./orca E -398.975657553013
  O       1.561091     -0.253858     -0.663185
  N      -2.093178     -0.131275     -0.199396
  C      -0.792940     -0.142415     -0.914136
  C       0.344172     -0.212579      0.088526
  H      -0.729541      0.763999     -1.510305
  H      -0.784374     -1.008477     -1.570875
  H       0.243512     -1.107880      0.709487
  H       0.324565      0.666220      0.739796
  H      -2.181972     -0.976538      0.368192
  H      -2.121798      0.645487      0.463083
  H       2.296450     -0.290996     -0.038529
  O      -4.405583     -0.004613     -0.358797
  C      -3.392443     -0.035893     -1.059992
  O      -3.214943     -0.012492     -2.274549
14
Coordinates from ORCA-job ./orca E -398.975684912172
  O       1.561126     -0.260978     -0.665242
  N      -2.092871     -0.134185     -0.196877
  C      -0.793886     -0.139841     -0.912066
  C       0.344872     -0.209930      0.088586
  H      -0.733354      0.767666     -1.506528
  H      -0.782688     -1.004164     -1.570883
  H       0.242380     -1.102031      0.713601
  H       0.331847      0.672530      0.734631
  H      -2.182777     -0.984197      0.362589
  H      -2.125700      0.639578      0.468328
  H       2.295605     -0.294305     -0.039400
  O      -4.405303      0.002006     -0.359921
  C      -3.395136     -0.035431     -1.062533
  O      -3.211097     -0.018031     -2.274964
14
Coordinates from ORCA-job ./orca E -398.975691587050
  O       1.561315     -0.261954     -0.665497
  N      -2.092699     -0.135055     -0.196768
  C      -0.793761     -0.138829     -0.911416
  C       0.345284     -0.209925      0.088756
  H      -0.733944      0.769539     -1.504786
  H      -0.781640     -1.002091     -1.571711
  H       0.242218     -1.102148      0.713564
  H       0.333301      0.672353      0.735052
  H      -2.182594     -0.986118      0.361069
  H      -2.126838      0.637762      0.469376
  H       2.295929     -0.293354     -0.039703
  O      -4.405242      0.008993     -0.359599
  C      -3.396572     -0.036064     -1.063448
  O      -3.211739     -0.024421     -2.275569
14
Coordinates from ORCA-job ./orca E -398.975691174490
  O       1.561460     -0.261615     -0.665471
  N      -2.092387     -0.135852     -0.197117
  C      -0.793353     -0.136999     -0.910771
  C       0.345730     -0.210976      0.089011
  H      -0.734052      0.773177     -1.501724
  H      -0.780252     -0.998095     -1.574036
  H       0.241924     -1.104811      0.711556
  H       0.333997      0.669361      0.737988
  H      -2.181899     -0.987907      0.359368
  H      -2.128003      0.635609      0.470458
  H       2.296634     -0.289956     -0.040178
  O      -4.404709      0.023655     -0.358886
  C      -3.398293     -0.037113     -1.064441
  O      -3.213778     -0.039791     -2.276437
14
Coordinates from ORCA-job ./orca E -398.975697686822
  O       1.561572     -0.259396     -0.665249
  N      -2.091953     -0.137024     -0.197723
  C      -0.792747     -0.133232     -0.909972
  C       0.346240     -0.213685      0.089291
  H      -0.733928      0.780809     -1.495440
  H      -0.778355     -0.989669     -1.579381
  H       0.241426     -1.111626      0.706032
  H       0.334098      0.661788      0.744870
  H      -2.180394     -0.990835      0.356480
  H      -2.129831      0.631819      0.472677
  H       2.297817     -0.282312     -0.040983
  O      -4.402858      0.054934     -0.358489
  C      -3.400390     -0.038866     -1.065653
  O      -3.217678     -0.074019     -2.277141
14
Coordinates from ORCA-job ./orca E -398.975718794942
  O       1.561584     -0.253351     -0.664921
  N      -2.091397     -0.139322     -0.198422
  C      -0.791965     -0.125299     -0.908594
  C       0.346882     -0.219614      0.089517
  H      -0.733872      0.796990     -1.481807
  H      -0.775548     -0.971622     -1.590846
  H       0.240789     -1.126645      0.693135
  H       0.333361      0.645020      0.759377
  H      -2.177225     -0.997005      0.350686
  H      -2.133339      0.623988      0.477914
  H       2.299685     -0.266133     -0.042557
  O      -4.396938      0.122197     -0.361571
  C      -3.403010     -0.042197     -1.067368
  O      -3.225989     -0.148320     -2.275223
14
Coordinates from ORCA-job ./orca E -398.975727688853
  O       1.561299     -0.251461     -0.665160
  N      -2.091700     -0.139805     -0.197863
  C      -0.792284     -0.122976     -0.908450
  C       0.346673     -0.220970      0.089327
  H      -0.734244      0.801585     -1.477987
  H      -0.775952     -0.966625     -1.593866
  H       0.240687     -1.130348      0.689459
  H       0.332980      0.640977      0.762604
  H      -2.176260     -0.998926      0.349313
  H      -2.134073      0.621960      0.480247
  H       2.299719     -0.262945     -0.043163
  O      -4.395186      0.139507     -0.364506
  C      -3.401949     -0.042901     -1.067091
  O      -3.226692     -0.168384     -2.273543
14
Coordinates from ORCA-job ./orca E -398.975744779699
  O       1.559913     -0.249944     -0.666667
  N      -2.093775     -0.141564     -0.194701
  C      -0.794612     -0.119091     -0.909203
  C       0.344857     -0.220412      0.088366
  H      -0.737234      0.808786     -1.472511
  H      -0.779434     -0.959619     -1.597593
  H       0.240064     -1.131077      0.686312
  H       0.332973      0.640921      0.762159
  H      -2.174539     -1.005747      0.344961
  H      -2.134795      0.616172      0.488013
  H       2.297616     -0.264604     -0.043951
  O      -4.392316      0.161598     -0.372888
  C      -3.394285     -0.042407     -1.064021
  O      -3.221415     -0.194327     -2.268955
14
Coordinates from ORCA-job ./orca E -398.975755039202
  O       1.560043     -0.248305     -0.666855
  N      -2.093791     -0.145048     -0.194784
  C      -0.794522     -0.114776     -0.908323
  C       0.345022     -0.221594      0.088500
  H      -0.739206      0.817540     -1.464713
  H      -0.776926     -0.949869     -1.603223
  H       0.239628     -1.135265      0.681854
  H       0.334028      0.636256      0.766642
  H      -2.172895     -1.013728      0.337917
  H      -2.137360      0.607510      0.493161
  H       2.297748     -0.258261     -0.044035
  O      -4.386217      0.200911     -0.377153
  C      -3.395247     -0.043249     -1.064846
  O      -3.227286     -0.233434     -2.264821
14
Coordinates from ORCA-job ./orca E -398.975767486587
  O       1.560288     -0.245509     -0.667222
  N      -2.094286     -0.149955     -0.194606
  C      -0.794654     -0.111020     -0.907508
  C       0.345039     -0.221901      0.088614
  H      -0.742337      0.825692     -1.457018
  H      -0.774258     -0.940939     -1.608480
  H       0.240077     -1.138240      0.677925
  H       0.334601      0.633121      0.770188
  H      -2.171566     -1.024303      0.329114
  H      -2.139874      0.596352      0.499826
  H       2.297571     -0.252555     -0.043831
  O      -4.378493      0.243779     -0.383266
  C      -3.395160     -0.043073     -1.065182
  O      -3.233931     -0.272761     -2.259235
14
Coordinates from ORCA-job ./orca E -398.975778252806
  O       1.560218     -0.241223     -0.667712
  N      -2.094844     -0.154137     -0.194146
  C      -0.794941     -0.107539     -0.906600
  C       0.344989     -0.222930      0.088637
  H      -0.745090      0.833336     -1.449374
  H      -0.772505     -0.932303     -1.613496
  H       0.241083     -1.142779      0.672673
  H       0.334215      0.628186      0.774978
  H      -2.170372     -1.033099      0.322183
  H      -2.142189      0.586867      0.505669
  H       2.297467     -0.246110     -0.044246
  O      -4.370104      0.285188     -0.391323
  C      -3.394442     -0.043151     -1.065435
  O      -3.240469     -0.311620     -2.252489
14
Coordinates from ORCA-job ./orca E -398.975801323033
  O       1.559973     -0.235860     -0.668393
  N      -2.095496     -0.158122     -0.193375
  C      -0.795379     -0.104191     -0.905467
  C       0.344970     -0.224431      0.088610
  H      -0.747808      0.840840     -1.441376
  H      -0.771280     -0.923614     -1.618411
  H       0.242658     -1.148386      0.666452
  H       0.333370      0.622002      0.780628
  H      -2.169299     -1.041137      0.316372
  H      -2.144665      0.578193      0.511104
  H       2.297441     -0.239019     -0.045171
  O      -4.360752      0.326837     -0.401449
  C      -3.393428     -0.043497     -1.065727
  O      -3.247286     -0.350927     -2.244477
14
Coordinates from ORCA-job ./orca E -398.975831735629
  O       1.559532     -0.228950     -0.669379
  N      -2.096313     -0.163466     -0.192175
  C      -0.796067     -0.098281     -0.903667
  C       0.344934     -0.226789      0.088534
  H      -0.751595      0.853151     -1.428697
  H      -0.769732     -0.909207     -1.626058
  H       0.244235     -1.156785      0.656978
  H       0.332881      0.612497      0.789075
  H      -2.167079     -1.052373      0.307823
  H      -2.148564      0.565946      0.519021
  H       2.297344     -0.229196     -0.046556
  O      -4.345376      0.387048     -0.419100
  C      -3.392086     -0.044630     -1.066341
  O      -3.259095     -0.410278     -2.230141
14
Coordinates from ORCA-job ./orca E -398.975846323528
  O       1.558205     -0.217543     -0.671519
  N      -2.097740     -0.168673     -0.188917
  C      -0.797760     -0.092338     -0.901090
  C       0.344680     -0.229491      0.088090
  H      -0.756717      0.865408     -1.415083
  H      -0.771191     -0.894758     -1.632922
  H       0.248017     -1.167220      0.644409
  H       0.330779      0.600543      0.799469
  H      -2.164288     -1.062365      0.303023
  H      -2.153476      0.556165      0.526556
  H       2.297007     -0.221608     -0.049889
  O      -4.328276      0.447051     -0.443799
  C      -3.388274     -0.046582     -1.066494
  O      -3.267947     -0.469904     -2.212515
14
Coordinates from ORCA-job ./orca E -398.975851805011
  O       1.558325     -0.215565     -0.671238
  N      -2.097516     -0.169581     -0.188678
  C      -0.797826     -0.091472     -0.901255
  C       0.344518     -0.228928      0.087968
  H      -0.757470      0.866723     -1.414508
  H      -0.771335     -0.893532     -1.633537
  H       0.248300     -1.167255      0.643322
  H       0.330015      0.600416      0.800165
  H      -2.163015     -1.064058      0.301804
  H      -2.153653      0.554748      0.527303
  H       2.296866     -0.223471     -0.049328
  O      -4.326496      0.452487     -0.445510
  C      -3.388057     -0.046360     -1.066562
  O      -3.269636     -0.475464     -2.210627
14
Coordinates from ORCA-job ./orca E -398.975853451935
  O       1.558699     -0.202139     -0.670125
  N      -2.097333     -0.174433     -0.187550
  C      -0.798265     -0.087151     -0.901273
  C       0.344152     -0.227564      0.087361
  H      -0.761445      0.874178     -1.408995
  H      -0.771677     -0.885559     -1.637645
  H       0.251875     -1.170906      0.634752
  H       0.325085      0.595657      0.806661
  H      -2.158117     -1.072822      0.295808
  H      -2.155889      0.546686      0.531467
  H       2.296489     -0.228755     -0.047821
  O      -4.313067      0.490902     -0.459216
  C      -3.386665     -0.046243     -1.066842
  O      -3.280823     -0.513166     -2.197261
14
Coordinates from ORCA-job ./orca E -398.975854250368
  O       1.558606     -0.204207     -0.670321
  N      -2.097549     -0.172858     -0.188010
  C      -0.798097     -0.089168     -0.901379
  C       0.344348     -0.227807      0.087491
  H      -0.760175      0.870825     -1.411458
  H      -0.771515     -0.889160     -1.635976
  H       0.251850     -1.169909      0.636990
  H       0.325400      0.596988      0.805000
  H      -2.160061     -1.069690      0.298232
  H      -2.155096      0.549563      0.529747
  H       2.296666     -0.228172     -0.048241
  O      -4.317305      0.478507     -0.454240
  C      -3.387101     -0.046340     -1.066540
  O      -3.276952     -0.499886     -2.201975
14
Coordinates from ORCA-job ./orca E -398.975854719621
  O       1.558678     -0.204978     -0.670158
  N      -2.097521     -0.171395     -0.188632
  C      -0.797826     -0.091036     -0.901735
  C       0.344479     -0.227445      0.087603
  H      -0.758999      0.867556     -1.414330
  H      -0.771051     -0.892767     -1.634361
  H       0.252071     -1.168371      0.639117
  H       0.324993      0.598904      0.803351
  H      -2.161529     -1.066928      0.300012
  H      -2.154028      0.552024      0.528180
  H       2.296772     -0.229857     -0.048157
  O      -4.321293      0.466375     -0.449006
  C      -3.387750     -0.046274     -1.066277
  O      -3.273979     -0.487120     -2.206286
14
Coordinates from ORCA-job ./orca E -398.975859103041
  O       1.558767     -0.203318     -0.669897
  N      -2.097416     -0.171076     -0.188799
  C      -0.797751     -0.091404     -0.901958
  C       0.344471     -0.226870      0.087595
  H      -0.758856      0.866783     -1.415315
  H      -0.770848     -0.893685     -1.633963
  H       0.252731     -1.167815      0.639155
  H       0.323994      0.599551      0.803280
  H      -2.161610     -1.066388      0.300254
  H      -2.153631      0.552496      0.527880
  H       2.296737     -0.232539     -0.047934
  O      -4.322054      0.463984     -0.447824
  C      -3.387922     -0.046248     -1.066166
  O      -3.273596     -0.484786     -2.206989
14
Coordinates from ORCA-job ./orca E -398.975851609988
  O       1.559409     -0.194578     -0.668122
  N      -2.096557     -0.167551     -0.190204
  C      -0.797083     -0.094764     -0.903574
  C       0.344461     -0.222502      0.087759
  H      -0.756918      0.859553     -1.424031
  H      -0.769393     -0.902146     -1.629801
  H       0.256457     -1.162146      0.641876
  H       0.318123      0.606175      0.800963
  H      -2.162925     -1.060318      0.303423
  H      -2.150268      0.558099      0.524600
  H       2.296338     -0.252783     -0.046937
  O      -4.331180      0.435315     -0.435867
  C      -3.389494     -0.046067     -1.065413
  O      -3.267950     -0.457602     -2.215352
14
Coordinates from ORCA-job ./orca E -398.975856447707
  O       1.558946     -0.200589     -0.669490
  N      -2.097147     -0.170141     -0.189016
  C      -0.797647     -0.091825     -0.902322
  C       0.344449     -0.225466      0.087633
  H      -0.758521      0.865456     -1.417376
  H      -0.770600     -0.895327     -1.632962
  H       0.253786     -1.166228      0.639585
  H       0.322532      0.601373      0.802877
  H      -2.161647     -1.064879      0.301055
  H      -2.152894      0.554014      0.527153
  H       2.296644     -0.239269     -0.047714
  O      -4.324550      0.456790     -0.445144
  C      -3.388288     -0.046316     -1.066043
  O      -3.272042     -0.478905     -2.208916
14
Coordinates from ORCA-job ./orca E -398.975856987430
  O       1.558898     -0.201109     -0.669630
  N      -2.097168     -0.170365     -0.188888
  C      -0.797698     -0.091294     -0.902165
  C       0.344439     -0.225663      0.087638
  H      -0.758704      0.866359     -1.416546
  H      -0.770674     -0.894297     -1.633364
  H       0.253471     -1.166582      0.639283
  H       0.323058      0.600938      0.803147
  H      -2.161383     -1.065343      0.300746
  H      -2.153224      0.553602      0.527451
  H       2.296646     -0.238512     -0.047834
  O      -4.323856      0.459070     -0.446265
  C      -3.388205     -0.046437     -1.066158
  O      -3.272582     -0.481679     -2.208095
14
Coordinates from ORCA-job ./orca E -398.975856944089
  O       1.558845     -0.201375     -0.669770
  N      -2.097229     -0.170758     -0.188718
  C      -0.797776     -0.090671     -0.901984
  C       0.344426     -0.225983      0.087617
  H      -0.758998      0.867503     -1.415418
  H      -0.770791     -0.892986     -1.633954
  H       0.253240     -1.167250      0.638646
  H       0.323486      0.600128      0.803682
  H      -2.161046     -1.066090      0.300284
  H      -2.153656      0.552910      0.527892
  H       2.296650     -0.237254     -0.047952
  O      -4.322592      0.462987     -0.447991
  C      -3.388035     -0.046577     -1.066257
  O      -3.273505     -0.485899     -2.206758
14
Coordinates from ORCA-job ./orca E -398.975858414011
  O       1.558865     -0.200907     -0.669710
  N      -2.097212     -0.170613     -0.188768
  C      -0.797755     -0.090797     -0.902035
  C       0.344433     -0.225806      0.087624
  H      -0.758933      0.867237     -1.415732
  H      -0.770728     -0.893300     -1.633794
  H       0.253451     -1.167059      0.638700
  H       0.323224      0.600350      0.803645
  H      -2.161117     -1.065830      0.300445
  H      -2.153552      0.553151      0.527750
  H       2.296643     -0.238148     -0.047940
  O      -4.322933      0.461945     -0.447567
  C      -3.388093     -0.046603     -1.066226
  O      -3.273275     -0.484935     -2.207073
