14
Coordinates from ORCA-job ./orca E -399.091064322694
  N       0.473701     -1.951612      0.838640
  C       0.412322     -0.491424      0.747917
  C      -0.756328     -0.026464     -0.093710
  O      -2.028706     -0.335696      0.474802
  H       1.346752     -2.235313      1.265916
  H       0.445461     -2.367142     -0.085212
  H       1.325239     -0.079578      0.307399
  H       0.322126     -0.092265      1.759227
  H      -0.686395     -0.450555     -1.098921
  H      -0.721541      1.058061     -0.177314
  H      -2.146443     -1.289613      0.443778
  O      -0.758978     -2.274193      3.152224
  C      -0.913348     -2.915055      2.181919
  O      -1.349924     -3.770033      1.506418
14
Coordinates from ORCA-job ./orca E -399.091056959693
  N       0.467357     -1.952683      0.833421
  C       0.413872     -0.491713      0.746168
  C      -0.753658     -0.019400     -0.092654
  O      -2.026315     -0.336177      0.470705
  H       1.343214     -2.242054      1.250786
  H       0.429350     -2.365081     -0.091419
  H       1.327962     -0.082447      0.305514
  H       0.326851     -0.094315      1.758554
  H      -0.681574     -0.433252     -1.101804
  H      -0.720192      1.066290     -0.165434
  H      -2.139087     -1.291022      0.436461
  O      -0.788938     -2.251690      3.146642
  C      -0.917006     -2.923269      2.194613
  O      -1.317896     -3.804068      1.531529
14
Coordinates from ORCA-job ./orca E -399.091068259647
  N       0.466552     -1.950716      0.835335
  C       0.415139     -0.490118      0.744138
  C      -0.752790     -0.017809     -0.094147
  O      -2.025409     -0.319328      0.477886
  H       1.342449     -2.240148      1.252751
  H       0.428058     -2.365555     -0.088654
  H       1.329284     -0.083745      0.301099
  H       0.330194     -0.089448      1.755509
  H      -0.688022     -0.442256     -1.099681
  H      -0.711994      1.066714     -0.177903
  H      -2.143848     -1.273932      0.458567
  O      -0.819665     -2.250057      3.137283
  C      -0.918111     -2.934378      2.190694
  O      -1.287896     -3.830105      1.530204
14
Coordinates from ORCA-job ./orca E -399.091081728513
  N       0.463383     -1.950148      0.835964
  C       0.415899     -0.489510      0.742064
  C      -0.751680     -0.014655     -0.095115
  O      -2.024451     -0.301063      0.484306
  H       1.338826     -2.240725      1.253474
  H       0.424210     -2.366360     -0.087334
  H       1.330790     -0.087161      0.297013
  H       0.333805     -0.086512      1.752734
  H      -0.694262     -0.447061     -1.097706
  H      -0.702772      1.068918     -0.187358
  H      -2.148726     -1.255209      0.478826
  O      -0.857060     -2.241601      3.122413
  C      -0.917114     -2.945703      2.187172
  O      -1.246908     -3.864092      1.536629
14
Coordinates from ORCA-job ./orca E -399.091091806536
  N       0.460180     -1.949537      0.836440
  C       0.415935     -0.488975      0.740784
  C      -0.750660     -0.012082     -0.096546
  O      -2.024093     -0.286045      0.487725
  H       1.335190     -2.241516      1.254079
  H       0.420316     -2.366758     -0.086346
  H       1.331718     -0.089663      0.294747
  H       0.335300     -0.084145      1.750828
  H      -0.698293     -0.451300     -1.096465
  H      -0.695130      1.070435     -0.195874
  H      -2.151787     -1.239614      0.496248
  O      -0.884673     -2.237455      3.110885
  C      -0.915580     -2.954775      2.184352
  O      -1.214483     -3.889450      1.542226
14
Coordinates from ORCA-job ./orca E -399.091095554758
  N       0.458406     -1.949625      0.836161
  C       0.416091     -0.489214      0.740061
  C      -0.750365     -0.010572     -0.096689
  O      -2.023931     -0.281244      0.489055
  H       1.332979     -2.242745      1.254165
  H       0.418165     -2.367376     -0.086301
  H       1.332202     -0.091368      0.293232
  H       0.336787     -0.083866      1.749980
  H      -0.699871     -0.450910     -1.096237
  H      -0.692671      1.071596     -0.197075
  H      -2.151454     -1.234532      0.503132
  O      -0.898404     -2.233063      3.104256
  C      -0.914952     -2.957343      2.182804
  O      -1.199040     -3.900619      1.546537
14
Coordinates from ORCA-job ./orca E -399.091098333211
  N       0.457387     -1.949658      0.835995
  C       0.415981     -0.489274      0.739945
  C      -0.750044     -0.009755     -0.096966
  O      -2.023888     -0.278726      0.489054
  H       1.332131     -2.243414      1.253317
  H       0.416156     -2.367447     -0.086384
  H       1.332402     -0.091986      0.293163
  H       0.336834     -0.083805      1.749835
  H      -0.700106     -0.450697     -1.096290
  H      -0.691218      1.072245     -0.197902
  H      -2.151502     -1.231886      0.505676
  O      -0.904167     -2.231498      3.101789
  C      -0.914306     -2.958941      2.182708
  O      -1.191721     -3.906040      1.549143
14
Coordinates from ORCA-job ./orca E -399.091099532958
  N       0.456287     -1.949574      0.835969
  C       0.415893     -0.489181      0.739671
  C      -0.749654     -0.008898     -0.097401
  O      -2.023760     -0.274929      0.489455
  H       1.331123     -2.243818      1.252685
  H       0.414208     -2.367522     -0.086277
  H       1.332650     -0.092737      0.292884
  H       0.336997     -0.083466      1.749484
  H      -0.700796     -0.451278     -1.096148
  H      -0.689174      1.072869     -0.199819
  H      -2.151774     -1.228020      0.510136
  O      -0.911932     -2.230203      3.098554
  C      -0.913743     -2.961331      2.182336
  O      -1.182384     -3.912795      1.551552
14
Coordinates from ORCA-job ./orca E -399.091097264393
  N       0.456225     -1.949774      0.835611
  C       0.415965     -0.489444      0.739700
  C      -0.749737     -0.008772     -0.097065
  O      -2.023813     -0.276049      0.489316
  H       1.330968     -2.244352      1.252442
  H       0.414076     -2.367623     -0.086664
  H       1.332665     -0.092853      0.292819
  H       0.337285     -0.083947      1.749606
  H      -0.700525     -0.450094     -1.096273
  H      -0.689687      1.073071     -0.198298
  H      -2.151480     -1.229066      0.508476
  O      -0.911647     -2.228869      3.098280
  C      -0.913733     -2.960582      2.182551
  O      -1.182623     -3.912527      1.552580
14
Coordinates from ORCA-job ./orca E -399.091096932518
  N       0.455991     -1.949753      0.835645
  C       0.415928     -0.489394      0.739658
  C      -0.749646     -0.008596     -0.097183
  O      -2.023780     -0.275182      0.489367
  H       1.330807     -2.244402      1.252252
  H       0.413606     -2.367621     -0.086626
  H       1.332716     -0.093001      0.292808
  H       0.337261     -0.083827      1.749547
  H      -0.700647     -0.450280     -1.096250
  H      -0.689211      1.073204     -0.198803
  H      -2.151590     -1.228197      0.509405
  O      -0.913201     -2.228743      3.097691
  C      -0.913595     -2.961145      2.182507
  O      -1.180700     -3.913945      1.553063
14
Coordinates from ORCA-job ./orca E -399.091101910604
  N       0.455990     -1.949854      0.835460
  C       0.415903     -0.489511      0.739733
  C      -0.749657     -0.008577     -0.097082
  O      -2.023841     -0.275748      0.489127
  H       1.330816     -2.244614      1.251995
  H       0.413500     -2.367617     -0.086845
  H       1.332692     -0.092970      0.292990
  H       0.337181     -0.084133      1.749689
  H      -0.700402     -0.449790     -1.096340
  H      -0.689449      1.073268     -0.198173
  H      -2.151462     -1.228771      0.508520
  O      -0.912544     -2.228302      3.097853
  C      -0.913548     -2.960761      2.182718
  O      -1.181240     -3.913501      1.553436
