14
Coordinates from ORCA-job ./orca E -399.091101910604
  N           0.45598962655395     -1.94985446781640      0.83546040601745
  C           0.41590301936414     -0.48951099025850      0.73973290129901
  C          -0.74965739708350     -0.00857712310591     -0.09708168647979
  O          -2.02384059860124     -0.27574768733174      0.48912700747793
  H           1.33081626216365     -2.24461415344898      1.25199531227616
  H           0.41349985379795     -2.36761714786595     -0.08684462330663
  H           1.33269238682070     -0.09297003790823      0.29298990516671
  H           0.33718115969240     -0.08413296641140      1.74968883525520
  H          -0.70040175198332     -0.44979030060200     -1.09633991598916
  H          -0.68944878429854      1.07326755026892     -0.19817315732731
  H          -2.15146238896422     -1.22877074929006      0.50851953095564
  O          -0.91254388189107     -2.22830204702243      3.09785255518817
  C          -0.91354829268116     -2.96076082105602      2.18271806111313
  O          -1.18123976268965     -3.91350060715088      1.55343644885319
