14
Coordinates from ORCA-job backward_opt E -399.092089935170
  O           1.51547572470491     -0.22873933032574     -0.68233767744173
  N          -2.11774681107776     -0.12138417360180     -0.19254497606630
  C          -0.82047782364091     -0.14607136175811     -0.89374319547448
  C           0.32858256108581     -0.22271813767680      0.09010073795661
  H          -0.75345570967232      0.75685131928178     -1.49198349133512
  H          -0.82037442616194     -1.00627225586506     -1.55516870056322
  H           0.24820092923530     -1.13173014187711      0.69151948562545
  H           0.30396719880361      0.63865318990622      0.76252648304504
  H          -2.24077163477299     -0.95180589129516      0.38211521864314
  H          -2.17505712916005      0.66992029333829      0.44445861857744
  H           2.26529734260172     -0.27170992068724     -0.08336418212020
  O          -4.43891851134503     -0.00159724559887     -0.43606996137189
  C          -3.44630220442943     -0.03509805074722     -1.13530746389924
  O          -3.17514550617092     -0.02375029309318     -2.31582989557549
