14
Coordinates from ORCA-job backward_opt E -399.091818925654
  O       1.520639     -0.231743     -0.691346
  N      -2.125473     -0.119160     -0.194028
  C      -0.816075     -0.146082     -0.875258
  C       0.344694     -0.223159      0.101566
  H      -0.739198      0.755793     -1.473986
  H      -0.806679     -1.007356     -1.535354
  H       0.278461     -1.131675      0.705146
  H       0.337789      0.638752      0.773344
  H      -2.257370     -0.947553      0.380751
  H      -2.193217      0.674310      0.438563
  H       2.281460     -0.276463     -0.106079
  O      -4.464685     -0.014679     -0.449415
  C      -3.481196     -0.034453     -1.156598
  O      -3.205876     -0.011984     -2.332935
14
Coordinates from ORCA-job backward_opt E -399.092006854432
  O       1.513757     -0.230373     -0.690267
  N      -2.119516     -0.119792     -0.191279
  C      -0.819191     -0.146421     -0.881807
  C       0.335115     -0.222796      0.097001
  H      -0.745546      0.755794     -1.480965
  H      -0.813007     -1.008479     -1.541420
  H       0.263390     -1.131460      0.699514
  H       0.321178      0.639087      0.768533
  H      -2.249453     -0.948765      0.382996
  H      -2.184506      0.674099      0.440972
  H       2.270611     -0.274860     -0.100488
  O      -4.449685     -0.013703     -0.443739
  C      -3.465394     -0.034920     -1.149801
  O      -3.184477     -0.012863     -2.324879
14
Coordinates from ORCA-job backward_opt E -399.092043104325
  O       1.513901     -0.229586     -0.686694
  N      -2.116163     -0.118557     -0.189538
  C      -0.821017     -0.145391     -0.888345
  C       0.330170     -0.223013      0.092121
  H      -0.750073      0.756998     -1.487301
  H      -0.818969     -1.006553     -1.548930
  H       0.252630     -1.132334      0.693219
  H       0.309951      0.637958      0.764974
  H      -2.244158     -0.948045      0.384592
  H      -2.177469      0.674895      0.443739
  H       2.266331     -0.274980     -0.091251
  O      -4.442666     -0.014973     -0.439629
  C      -3.455445     -0.032082     -1.143352
  O      -3.173749     -0.019790     -2.319235
14
Coordinates from ORCA-job backward_opt E -399.091220163401
  O       1.515403     -0.222213     -0.672504
  N      -2.105475     -0.131192     -0.184236
  C      -0.828004     -0.155317     -0.912475
  C       0.313398     -0.221148      0.074567
  H      -0.773779      0.743083     -1.518062
  H      -0.835306     -1.018210     -1.569785
  H       0.221253     -1.128275      0.678090
  H       0.264533      0.641960      0.744435
  H      -2.220004     -0.958647      0.396309
  H      -2.157573      0.665804      0.445964
  H       2.251566     -0.260512     -0.056180
  O      -4.416230      0.014228     -0.424053
  C      -3.421750     -0.056019     -1.120765
  O      -3.134757      0.011006     -2.296932
14
Coordinates from ORCA-job backward_opt E -399.092062504377
  O       1.516220     -0.228653     -0.682826
  N      -2.115086     -0.120510     -0.189772
  C      -0.821157     -0.146679     -0.892972
  C       0.328803     -0.222784      0.089300
  H      -0.753421      0.755226     -1.492762
  H      -0.821245     -1.007595     -1.553625
  H       0.248375     -1.131708      0.690875
  H       0.303713      0.638566      0.761773
  H      -2.239992     -0.949740      0.385682
  H      -2.174080      0.672918      0.443978
  H       2.265424     -0.273010     -0.083218
  O      -4.440452     -0.009293     -0.436787
  C      -3.451081     -0.035581     -1.138869
  O      -3.172747     -0.016609     -2.316405
14
Coordinates from ORCA-job backward_opt E -399.092085157711
  O       1.516630     -0.228846     -0.682167
  N      -2.115627     -0.120466     -0.190447
  C      -0.820853     -0.146459     -0.893482
  C       0.329010     -0.222780      0.089254
  H      -0.753513      0.755619     -1.493055
  H      -0.821389     -1.007094     -1.554468
  H       0.248170     -1.131678      0.690841
  H       0.303749      0.638644      0.761658
  H      -2.239979     -0.949858      0.385011
  H      -2.173906      0.672559      0.443995
  H       2.265608     -0.273141     -0.082254
  O      -4.440386     -0.008800     -0.436468
  C      -3.450267     -0.035165     -1.137876
  O      -3.173972     -0.017987     -2.316173
14
Coordinates from ORCA-job backward_opt E -399.092093402932
  O       1.516786     -0.229202     -0.681131
  N      -2.117108     -0.120852     -0.192320
  C      -0.820152     -0.146169     -0.894414
  C       0.329107     -0.222666      0.089502
  H      -0.753712      0.756342     -1.493376
  H      -0.821208     -1.006343     -1.555907
  H       0.247640     -1.131411      0.691259
  H       0.303603      0.639060      0.761534
  H      -2.239951     -0.950719      0.383109
  H      -2.173885      0.671109      0.443883
  H       2.265705     -0.272950     -0.081073
  O      -4.439648     -0.006008     -0.435644
  C      -3.447563     -0.035040     -1.135386
  O      -3.176339     -0.020603     -2.315665
14
Coordinates from ORCA-job backward_opt E -399.092081802968
  O       1.516266     -0.229118     -0.681533
  N      -2.117403     -0.121053     -0.192509
  C      -0.820219     -0.146187     -0.894212
  C       0.328892     -0.222646      0.089749
  H      -0.753644      0.756439     -1.492977
  H      -0.820911     -1.006425     -1.555619
  H       0.247742     -1.131406      0.691496
  H       0.303664      0.639055      0.761792
  H      -2.240236     -0.951087      0.382715
  H      -2.174265      0.670686      0.443991
  H       2.265537     -0.272590     -0.081903
  O      -4.439306     -0.004789     -0.435722
  C      -3.446925     -0.035108     -1.135224
  O      -3.175917     -0.021224     -2.315674
14
Coordinates from ORCA-job backward_opt E -399.092093392507
  O       1.515569     -0.228892     -0.682210
  N      -2.117707     -0.121304     -0.192575
  C      -0.820410     -0.146152     -0.893819
  C       0.328621     -0.222667      0.090067
  H      -0.753492      0.756659     -1.492243
  H      -0.820472     -1.006434     -1.555150
  H       0.248069     -1.131551      0.691663
  H       0.303894      0.638861      0.762301
  H      -2.240699     -0.951605      0.382261
  H      -2.174888      0.670131      0.444281
  H       2.265334     -0.271990     -0.083171
  O      -4.438967     -0.002737     -0.435987
  C      -3.446353     -0.035117     -1.135265
  O      -3.175223     -0.022653     -2.315782
14
Coordinates from ORCA-job backward_opt E -399.092089935170
  O       1.515476     -0.228739     -0.682338
  N      -2.117747     -0.121384     -0.192545
  C      -0.820478     -0.146071     -0.893743
  C       0.328583     -0.222718      0.090101
  H      -0.753456      0.756851     -1.491983
  H      -0.820374     -1.006272     -1.555169
  H       0.248201     -1.131730      0.691519
  H       0.303967      0.638653      0.762526
  H      -2.240772     -0.951806      0.382115
  H      -2.175057      0.669920      0.444459
  H       2.265297     -0.271710     -0.083364
  O      -4.438919     -0.001597     -0.436070
  C      -3.446302     -0.035098     -1.135307
  O      -3.175146     -0.023750     -2.315830
