14
Coordinates from ORCA-job ./irc_IRC_Full E -399.091836673732
  O       1.520639     -0.231743     -0.691346
  N      -2.125473     -0.119160     -0.194028
  C      -0.816075     -0.146082     -0.875258
  C       0.344694     -0.223159      0.101566
  H      -0.739198      0.755793     -1.473986
  H      -0.806679     -1.007356     -1.535354
  H       0.278461     -1.131675      0.705146
  H       0.337789      0.638752      0.773344
  H      -2.257370     -0.947553      0.380751
  H      -2.193217      0.674310      0.438563
  H       2.281460     -0.276463     -0.106079
  O      -4.464685     -0.014679     -0.449415
  C      -3.481196     -0.034453     -1.156598
  O      -3.205876     -0.011984     -2.332935
