14
Coordinates from ORCA-job ./orca E -398.965962511664
  O       1.558865     -0.200907     -0.669710
  N      -2.097212     -0.170613     -0.188768
  C      -0.797755     -0.090797     -0.902035
  C       0.344433     -0.225806      0.087624
  H      -0.758933      0.867237     -1.415732
  H      -0.770728     -0.893300     -1.633794
  H       0.253451     -1.167059      0.638700
  H       0.323224      0.600350      0.803645
  H      -2.161117     -1.065830      0.300445
  H      -2.153552      0.553151      0.527750
  H       2.296643     -0.238148     -0.047940
  O      -4.322933      0.461945     -0.447567
  C      -3.388093     -0.046603     -1.066226
  O      -3.273275     -0.484935     -2.207073
14
Coordinates from ORCA-job ./orca E -398.965947963522
  O       1.561411     -0.200480     -0.669929
  N      -2.099042     -0.170763     -0.188639
  C      -0.797395     -0.090950     -0.901523
  C       0.346593     -0.225972      0.088539
  H      -0.758256      0.868060     -1.415847
  H      -0.769777     -0.893998     -1.634361
  H       0.256520     -1.168390      0.640109
  H       0.325800      0.600897      0.805547
  H      -2.164129     -1.066933      0.300720
  H      -2.156044      0.553504      0.528666
  H       2.300734     -0.237763     -0.049268
  O      -4.325784      0.463251     -0.449213
  C      -3.390795     -0.045949     -1.067476
  O      -3.276818     -0.485827     -2.208007
14
Coordinates from ORCA-job ./orca E -398.965960657743
  O       1.561080     -0.200378     -0.670700
  N      -2.099520     -0.172361     -0.187685
  C      -0.797835     -0.091760     -0.901006
  C       0.346756     -0.225638      0.089042
  H      -0.759545      0.867249     -1.415816
  H      -0.769707     -0.895241     -1.633647
  H       0.257375     -1.167857      0.641395
  H       0.326383      0.602019      0.805439
  H      -2.163774     -1.068370      0.302200
  H      -2.157156      0.552513      0.529003
  H       2.301344     -0.237102     -0.051062
  O      -4.325146      0.466312     -0.451034
  C      -3.392075     -0.049357     -1.066784
  O      -3.275162     -0.481342     -2.210025
14
Coordinates from ORCA-job ./orca E -398.965968224909
  O       1.561104     -0.200999     -0.670267
  N      -2.099066     -0.170809     -0.188387
  C      -0.797326     -0.090419     -0.901246
  C       0.346624     -0.225810      0.089106
  H      -0.758310      0.868871     -1.415214
  H      -0.769482     -0.893299     -1.634379
  H       0.256295     -1.168228      0.640701
  H       0.326669      0.601315      0.805930
  H      -2.163809     -1.066996      0.300840
  H      -2.156606      0.553486      0.528708
  H       2.301096     -0.238732     -0.050455
  O      -4.326044      0.463337     -0.449956
  C      -3.391277     -0.046684     -1.067767
  O      -3.276853     -0.486346     -2.208296
14
Coordinates from ORCA-job ./orca E -398.965972978416
  O       1.560990     -0.201222     -0.670441
  N      -2.099095     -0.170716     -0.188269
  C      -0.797338     -0.090073     -0.901051
  C       0.346643     -0.225774      0.089246
  H      -0.758347      0.869339     -1.414726
  H      -0.769431     -0.892763     -1.634346
  H       0.256188     -1.168202      0.640721
  H       0.327106      0.601304      0.806067
  H      -2.163739     -1.066928      0.300881
  H      -2.156945      0.553638      0.528725
  H       2.301211     -0.239257     -0.050930
  O      -4.326125      0.463324     -0.450366
  C      -3.391382     -0.046897     -1.067967
  O      -3.276718     -0.487085     -2.208225
14
Coordinates from ORCA-job ./orca E -398.965970548802
  O       1.560824     -0.201635     -0.670784
  N      -2.099145     -0.170497     -0.188027
  C      -0.797388     -0.089270     -0.900642
  C       0.346709     -0.225738      0.089439
  H      -0.758448      0.870489     -1.413615
  H      -0.769360     -0.891513     -1.634387
  H       0.255990     -1.168282      0.640588
  H       0.328025      0.601159      0.806412
  H      -2.163543     -1.066747      0.301017
  H      -2.157675      0.554001      0.528733
  H       2.301411     -0.240355     -0.051765
  O      -4.326210      0.463577     -0.451338
  C      -3.391640     -0.047446     -1.068370
  O      -3.276531     -0.489055     -2.207942
14
Coordinates from ORCA-job ./orca E -398.965969881508
  O       1.560849     -0.201610     -0.670796
  N      -2.099139     -0.170505     -0.188012
  C      -0.797403     -0.089200     -0.900613
  C       0.346732     -0.225758      0.089399
  H      -0.758472      0.870617     -1.413491
  H      -0.769359     -0.891377     -1.634438
  H       0.256012     -1.168345      0.640489
  H       0.328072      0.601072      0.806460
  H      -2.163514     -1.066758      0.301026
  H      -2.157723      0.553989      0.528741
  H       2.301393     -0.240360     -0.051729
  O      -4.326133      0.463867     -0.451481
  C      -3.391682     -0.047508     -1.068393
  O      -3.276616     -0.489437     -2.207842
