14
Coordinates from ORCA-job ./orca E -399.102155079558
  N           0.44263797307801     -1.43705203803784      0.85265784331055
  C           0.55499809694806     -0.05195087042963      0.38463299412061
  C          -0.67360394464493      0.31247817746315     -0.42132408016843
  O          -1.86397969638549      0.16175486503459      0.35346483570675
  H           1.17459907115214     -1.63229138019375      1.52378431494924
  H           0.59595466001341     -2.06937087096538      0.07579306702986
  H           1.44454726846838      0.12457723040474     -0.22913978086726
  H           0.61743720054411      0.59668465636305      1.25949479880266
  H          -0.73316263762229     -0.31700546713742     -1.31513965896480
  H          -0.62973002311159      1.35391663470901     -0.73466176697103
  H          -1.76698688327777     -0.67772610828273      0.82066345359925
  O          -1.14140682586611     -3.95596212645453      3.85398150160462
  C          -1.39953940055266     -4.52806015994613      2.88413802047900
  O          -1.65782540854325     -5.10087409152705      1.91473603786896
