14
Coordinates from ORCA-job ./orca E -399.102156655786
  N       0.442641     -1.437043      0.852659
  C       0.554995     -0.051944      0.384633
  C      -0.673596      0.312487     -0.421336
  O      -1.863985      0.161754      0.353435
  H       1.174611     -1.632284      1.523774
  H       0.595929     -2.069374      0.075801
  H       1.444548      0.124588     -0.229133
  H       0.617425      0.596688      1.259498
  H      -0.733144     -0.316988     -1.315157
  H      -0.629723      1.353930     -0.734658
  H      -1.766980     -0.677712      0.820656
  O      -1.141375     -3.955990      3.853989
  C      -1.399546     -4.528086      2.884156
  O      -1.657860     -5.100908      1.914765
14
Coordinates from ORCA-job ./orca E -399.102155079558
  N       0.442638     -1.437052      0.852658
  C       0.554998     -0.051951      0.384633
  C      -0.673604      0.312478     -0.421324
  O      -1.863980      0.161755      0.353465
  H       1.174599     -1.632291      1.523784
  H       0.595955     -2.069371      0.075793
  H       1.444547      0.124577     -0.229140
  H       0.617437      0.596685      1.259495
  H      -0.733163     -0.317005     -1.315140
  H      -0.629730      1.353917     -0.734662
  H      -1.766987     -0.677726      0.820663
  O      -1.141407     -3.955962      3.853982
  C      -1.399539     -4.528060      2.884138
  O      -1.657825     -5.100874      1.914736
