14
MEA conformer rank=3 dE(MMFF)=0.000000
N      0.1747424389   -1.2535879582    0.9755876754
C      0.5505389561    0.0146202092    0.3423871757
C     -0.5985894536    0.4677410552   -0.5695607600
O     -1.8387119821    0.3598929642    0.1364012162
H      0.9873228855   -1.5947442117    1.5368878035
H      0.1658660731   -1.9994596235    0.2672726693
H      1.4819550968   -0.0738711896   -0.2264321319
H      0.7113244574    0.7616645074    1.1305528937
H     -0.6771906613   -0.1723648513   -1.4563350412
H     -0.4602323743    1.5066157339   -0.8865858345
H     -1.6594679105   -0.3937244463    0.7516489598
O     -1.1305044903   -4.4641479352    4.1582457814
C     -1.2875349858   -4.9531385820    3.0763289391
O     -1.4555785997   -5.4263772211    1.9866822340
