18
Coordinates from ORCA-job ./orca E -1967.122106365472
  C          -2.97566393499522      1.86635485967246      1.65102756322185
  C          -1.83751006451006      2.62369911689366      1.40948941353632
  C          -0.62653114730675      2.28644213553042      2.01776418656126
  C          -0.56515486550612      1.17256486114211      2.85906838751055
  C          -1.70398269704806      0.41723303873997      3.09752629237909
  C          -2.91143141141613      0.76261720015829      2.49545970413362
  H          -3.91200616378317      2.13878881145408      1.18190796381030
  H          -3.79778246066047      0.17041851694367      2.68235289128022
  H          -1.88549124443875      3.48310588940774      0.75209241131756
  H           0.37089544962827      0.87630126291196      3.31729290621615
  H          -1.64935517128768     -0.44505371649520      3.74903319696969
  C           0.54713225829589      3.14334787559451      1.76216019898563
  N           1.49704180632936      3.32320761368026      2.79046871161119
  H           1.34431505698664      2.81943258252735      3.65285940038107
  H           1.83734309626842      4.26544671577422      2.92324634543005
  H           0.33932725891909      4.04866575526608      1.20955502492490
  H           1.05729152348698      2.38743719935630      0.23199735088424
  Cu          2.29402271103807      2.29445028144134      1.12973805084549
