18
Coordinates from ORCA-job ./orca E -1967.122157025032
  C      -2.972014      1.861667      1.643742
  C      -1.833855      2.619833      1.406040
  C      -0.625916      2.287172      2.023106
  C      -0.567453      1.176674      2.869099
  C      -1.706632      0.420654      3.104046
  C      -2.910969      0.761582      2.493363
  H      -3.905925      2.130452      1.167738
  H      -3.797580      0.168944      2.677655
  H      -1.879083      3.476168      0.744425
  H       0.365847      0.883601      3.334802
  H      -1.654663     -0.438445      3.759959
  C       0.545961      3.146507      1.771526
  N       1.501591      3.318237      2.793582
  H       1.360843      2.804325      3.651988
  H       1.848233      4.257666      2.930084
  H       0.336525      4.054397      1.223823
  H       1.045957      2.396418      0.207750
  Cu      2.271593      2.308608      1.110312
18
Coordinates from ORCA-job ./orca E -1967.122109680766
  C      -2.974141      1.863548      1.646929
  C      -1.836246      2.621670      1.407524
  C      -0.626521      2.287355      2.019993
  C      -0.566362      1.175365      2.863918
  C      -1.705282      0.419431      3.100696
  C      -2.911153      0.761755      2.494142
  H      -3.909167      2.133719      1.174316
  H      -3.797287      0.168942      2.679590
  H      -1.883184      3.479615      0.747867
  H       0.368023      0.881368      3.326614
  H      -1.651727     -0.440891      3.754982
  C       0.546666      3.144473      1.764253
  N       1.501237      3.318546      2.789253
  H       1.351409      2.811328      3.650068
  H       1.842744      4.260014      2.925186
  H       0.336772      4.052936      1.217648
  H       1.046727      2.397873      0.231219
  Cu      2.289953      2.297414      1.118843
18
Coordinates from ORCA-job ./orca E -1967.122106139730
  C      -2.975162      1.865267      1.649682
  C      -1.837218      2.623103      1.408854
  C      -0.626653      2.286878      2.018407
  C      -0.565603      1.173728      2.860719
  C      -1.704318      0.417935      3.098488
  C      -2.911235      0.762117      2.494871
  H      -3.911198      2.137050      1.179595
  H      -3.797543      0.169814      2.681364
  H      -1.885045      3.482095      0.750849
  H       0.369869      0.878360      3.320696
  H      -1.649876     -0.443560      3.751050
  C       0.546989      3.143892      1.762803
  N       1.498427      3.321444      2.790114
  H       1.346247      2.816763      3.652061
  H       1.839429      4.263367      2.923980
  H       0.338697      4.050328      1.212220
  H       1.054279      2.390994      0.230874
  Cu      2.292372      2.294884      1.126414
18
Coordinates from ORCA-job ./orca E -1967.122107361837
  C      -2.975370      1.865765      1.650210
  C      -1.837299      2.623307      1.409101
  C      -0.626597      2.286666      2.018238
  C      -0.565457      1.173248      2.860139
  C      -1.704248      0.417691      3.098241
  C      -2.911391      0.762403      2.495204
  H      -3.911483      2.137706      1.180348
  H      -3.797718      0.170051      2.681788
  H      -1.885104      3.482382      0.751253
  H       0.370277      0.877435      3.319284
  H      -1.649821     -0.444189      3.750313
  C       0.547014      3.143614      1.762658
  N       1.497863      3.322184      2.790281
  H       1.345715      2.817662      3.652335
  H       1.838479      4.264252      2.923721
  H       0.338905      4.049581      1.211250
  H       1.055549      2.389578      0.231177
  Cu      2.293147      2.295123      1.127498
18
Coordinates from ORCA-job ./orca E -1967.122108373439
  C      -2.975852      1.866809      1.651690
  C      -1.837759      2.624297      1.410193
  C      -0.626589      2.286658      2.017758
  C      -0.564963      1.172323      2.858479
  C      -1.703638      0.416726      3.096769
  C      -2.911298      0.762426      2.495288
  H      -3.912383      2.139554      1.183136
  H      -3.797570      0.170003      2.681967
  H      -1.886036      3.484146      0.753361
  H       0.371223      0.875910      3.316346
  H      -1.648740     -0.445992      3.747691
  C       0.547216      3.143225      1.761863
  N       1.496522      3.323949      2.790549
  H       1.342528      2.821998      3.653770
  H       1.837668      4.266147      2.921909
  H       0.339851      4.047980      1.208121
  H       1.058336      2.386078      0.232477
  Cu      2.293946      2.292224      1.131673
18
Coordinates from ORCA-job ./orca E -1967.122106365472
  C      -2.975664      1.866355      1.651028
  C      -1.837510      2.623699      1.409489
  C      -0.626531      2.286442      2.017764
  C      -0.565155      1.172565      2.859068
  C      -1.703983      0.417233      3.097526
  C      -2.911431      0.762617      2.495460
  H      -3.912006      2.138789      1.181908
  H      -3.797782      0.170419      2.682353
  H      -1.885491      3.483106      0.752092
  H       0.370895      0.876301      3.317293
  H      -1.649355     -0.445054      3.749033
  C       0.547132      3.143348      1.762160
  N       1.497042      3.323208      2.790469
  H       1.344315      2.819433      3.652859
  H       1.837343      4.265447      2.923246
  H       0.339327      4.048666      1.209555
  H       1.057292      2.387437      0.231997
  Cu      2.294023      2.294450      1.129738
