14
Coordinates from ORCA-job ./orca E -398.965969881508
  O           1.56084941455269     -0.20160973723380     -0.67079629981691
  N          -2.09913879624667     -0.17050548448356     -0.18801244578898
  C          -0.79740271416692     -0.08920046400298     -0.90061280059659
  C           0.34673212497181     -0.22575822382402      0.08939902645155
  H          -0.75847236718672      0.87061683836444     -1.41349057199509
  H          -0.76935891774576     -0.89137690008539     -1.63443806899251
  H           0.25601231840881     -1.16834493431747      0.64048882445765
  H           0.32807228713504      0.60107218607085      0.80646025444153
  H          -2.16351373124727     -1.06675808386951      0.30102577646058
  H          -2.15772328649155      0.55398948260081      0.52874135998961
  H           2.30139253137215     -0.24035962891267     -0.05172897229481
  O          -4.32613271517391      0.46386726472560     -0.45148128231213
  C          -3.39168196848829     -0.04750837003698     -1.06839349300798
  O          -3.27661622999318     -0.48943727249526     -2.20784164789584
