14
Coordinates from ORCA-job scan E -399.089109139575
  O           1.52509360977977     -0.22993830794355     -0.67872770731992
  N          -2.10876062807819     -0.11968601883796     -0.20024563926878
  C          -0.80322104267846     -0.14572057603476     -0.90528095974136
  C           0.33624161994566     -0.22395425884455      0.08876441694763
  H          -0.73796761828605      0.75816454480798     -1.50067395379904
  H          -0.80706593241661     -1.00644853244590     -1.56454417473251
  H           0.25175227711610     -1.13359078183069      0.68866628353578
  H           0.30822918043322      0.63701685901375      0.76162885675244
  H          -2.21077312671943     -0.94577866818290      0.38940798170196
  H          -2.14598443142635      0.66767318385311      0.44747815479840
  H           2.27263700150180     -0.27560781140802     -0.07701926869507
  O          -4.35759835279350     -0.00971020667525     -0.36383336963075
  C          -3.34164536687396     -0.04358283204219     -1.05124712246608
  O          -3.12791923980381     -0.03014992092903     -2.25505383898266
