14
Coordinates from ORCA-job forwardopt E -399.107006224302
  O           1.49126756961468     -0.19421514169428     -0.66310318414897
  N          -2.15253866161055     -0.17078739761288     -0.23053554700823
  C          -0.84874787404193     -0.09777362333843     -0.92823871285277
  C           0.27613197567098     -0.22198317096783      0.07740655504836
  H          -0.80558768963284      0.85448817527432     -1.44816042218333
  H          -0.81387226943796     -0.90694517757813     -1.64986801081353
  H           0.18355209349789     -1.15994507707362      0.63008934411218
  H           0.24125609103014      0.60758995164434      0.78620663910789
  H          -2.22944773537847     -1.06516296284281      0.25361782614486
  H          -2.21150137567070      0.54868464993895      0.48697691423257
  H           2.22021248374363     -0.22988512777975     -0.03701330641385
  O          -4.37241734228411      0.41561928542199     -0.49824006723420
  C          -3.41325970898537     -0.03310046654466     -1.11825436589702
  O          -3.26444287200195     -0.40179617232831     -2.27579807549486
