14
Coordinates from ORCA-job ./orca E -398.993486732485
  O           1.52996899366363     -0.16266539966453     -0.69312786097430
  N          -2.11926944572388     -0.18832414461948     -0.19566347093163
  C          -0.82548534177622     -0.06376897877697     -0.90899589930228
  C           0.32005566050507     -0.24881335264817      0.06574682212072
  H          -0.79427104806857      0.92185915192273     -1.36758284335645
  H          -0.79951488900609     -0.82375579195592     -1.68430744735039
  H           0.24054948836867     -1.22440007121687      0.55506246652019
  H           0.29211820219422      0.52922101102498      0.83316927682743
  H          -2.17775505643498     -1.10738156817299      0.24758587809040
  H          -2.17771026021708      0.49960041442797      0.55459975554868
  H           2.27080959286045     -0.23104155710613     -0.07800769436700
  O          -4.34225721129507      0.45411285209716     -0.42755859689359
  C          -3.40496704190645     -0.02497058290286     -1.06597898642201
  O          -3.28724142128272     -0.40913393985608     -2.22614031429311
