14
Coordinates from ORCA-job ./orca E -398.993333941030
  O           1.55523006649409     -0.19401932326278     -0.66966724473966
  N          -2.09543683976431     -0.17480207196445     -0.18696710179840
  C          -0.79952563131200     -0.09302233935728     -0.90321172574479
  C           0.34088542183708     -0.22532467376583      0.08610097680597
  H          -0.76407111601291      0.86495919596812     -1.41654389684616
  H          -0.77281069543815     -0.89566599916956     -1.63423696362338
  H           0.25195593468721     -1.16778650534263      0.63508718209556
  H           0.31389805945042      0.59946554575358      0.80325774092974
  H          -2.15908305141180     -1.07233412423921      0.29762357689883
  H          -2.14897894983144      0.54612083493443      0.53231435455813
  H           2.29212583675119     -0.23219892324967     -0.04716777368340
  O          -4.31113768465473      0.48095920387744     -0.45217830321777
  C          -3.38076542904534     -0.04409481921481     -1.06403961421846
  O          -3.26926797204912     -0.49356932846729     -2.20105154831615
