14
Coordinates from ORCA-job ./orca E -398.991081010548
  O       1.525094     -0.229938     -0.678728
  N      -2.108761     -0.119686     -0.200246
  C      -0.803221     -0.145721     -0.905281
  C       0.336242     -0.223954      0.088764
  H      -0.737968      0.758165     -1.500674
  H      -0.807066     -1.006449     -1.564544
  H       0.251752     -1.133591      0.688666
  H       0.308229      0.637017      0.761629
  H      -2.210773     -0.945779      0.389408
  H      -2.145984      0.667673      0.447478
  H       2.272637     -0.275608     -0.077019
  O      -4.357598     -0.009710     -0.363833
  C      -3.341645     -0.043583     -1.051247
  O      -3.127919     -0.030150     -2.255054
14
Coordinates from ORCA-job ./orca E -398.992901029432
  O       1.551049     -0.236692     -0.663468
  N      -2.096586     -0.122493     -0.205906
  C      -0.792564     -0.145443     -0.914212
  C       0.340944     -0.220611      0.088536
  H      -0.724276      0.759615     -1.510550
  H      -0.790509     -1.010748     -1.570260
  H       0.245128     -1.126277      0.695612
  H       0.307338      0.646064      0.755961
  H      -2.187245     -0.956176      0.379329
  H      -2.120129      0.659850      0.451077
  H       2.292375     -0.280140     -0.046663
  O      -4.392446     -0.010193     -0.353938
  C      -3.376923     -0.035194     -1.054769
  O      -3.203137     -0.022875     -2.271428
14
Coordinates from ORCA-job ./orca E -398.991892748305
  O       1.557734     -0.240360     -0.660907
  N      -2.092394     -0.144758     -0.202960
  C      -0.793057     -0.157430     -0.917128
  C       0.340423     -0.213377      0.087528
  H      -0.733977      0.744446     -1.520518
  H      -0.781691     -1.029342     -1.565683
  H       0.245823     -1.108988      0.709479
  H       0.305302      0.665105      0.739100
  H      -2.173740     -0.981720      0.378880
  H      -2.119293      0.639598      0.451236
  H       2.294793     -0.270713     -0.037327
  O      -4.398056      0.024064     -0.354148
  C      -3.387826     -0.066520     -1.058048
  O      -3.211024      0.038681     -2.270184
14
Coordinates from ORCA-job ./orca E -398.993100626612
  O       1.557969     -0.249414     -0.662129
  N      -2.090296     -0.130923     -0.199479
  C      -0.793412     -0.144369     -0.916376
  C       0.340389     -0.213732      0.087192
  H      -0.730198      0.761601     -1.513232
  H      -0.787047     -1.011823     -1.571233
  H       0.238979     -1.110507      0.705820
  H       0.314774      0.663146      0.740857
  H      -2.176874     -0.973833      0.372086
  H      -2.115059      0.647193      0.461509
  H       2.293101     -0.287674     -0.037441
  O      -4.402111     -0.005018     -0.358140
  C      -3.386239     -0.037229     -1.057230
  O      -3.210958     -0.008733     -2.272885
14
Coordinates from ORCA-job ./orca E -398.993136149765
  O       1.557470     -0.253703     -0.664273
  N      -2.091312     -0.131862     -0.197493
  C      -0.794469     -0.142615     -0.914522
  C       0.341207     -0.212175      0.087192
  H      -0.732780      0.763668     -1.510361
  H      -0.787071     -1.008740     -1.570591
  H       0.239407     -1.107074      0.708243
  H       0.320333      0.666897      0.737758
  H      -2.179603     -0.977516      0.369199
  H      -2.119117      0.644637      0.465004
  H       2.292456     -0.290642     -0.039432
  O      -4.401373     -0.004125     -0.360029
  C      -3.386493     -0.035829     -1.058675
  O      -3.205636     -0.012235     -2.272699
14
Coordinates from ORCA-job ./orca E -398.993160073622
  O       1.557485     -0.260194     -0.666052
  N      -2.090970     -0.134925     -0.195220
  C      -0.795321     -0.140414     -0.912785
  C       0.341761     -0.209631      0.087197
  H      -0.736544      0.766875     -1.507059
  H      -0.785318     -1.004962     -1.570734
  H       0.238318     -1.101455      0.712161
  H       0.326704      0.672964      0.732729
  H      -2.180291     -0.985327      0.363383
  H      -2.122446      0.638408      0.470250
  H       2.291489     -0.293235     -0.039906
  O      -4.400839      0.003424     -0.360809
  C      -3.388810     -0.035084     -1.060864
  O      -3.202201     -0.017756     -2.272971
14
Coordinates from ORCA-job ./orca E -398.993167080863
  O       1.557741     -0.260895     -0.666199
  N      -2.090801     -0.135918     -0.195188
  C      -0.795179     -0.139524     -0.912258
  C       0.342123     -0.209645      0.087339
  H      -0.737143      0.768603     -1.505466
  H      -0.784208     -1.003036     -1.571647
  H       0.238235     -1.101668      0.712003
  H       0.327829      0.672715      0.733187
  H      -2.180133     -0.987511      0.361575
  H      -2.123422      0.636327      0.471398
  H       2.291785     -0.291943     -0.039984
  O      -4.400630      0.011244     -0.360271
  C      -3.390203     -0.035518     -1.061670
  O      -3.202977     -0.024545     -2.273500
14
Coordinates from ORCA-job ./orca E -398.993166630337
  O       1.558013     -0.260041     -0.666020
  N      -2.090424     -0.137058     -0.195632
  C      -0.794732     -0.137682     -0.911726
  C       0.342508     -0.210786      0.087571
  H      -0.737341      0.772417     -1.502301
  H      -0.782600     -0.998835     -1.574342
  H       0.238055     -1.104719      0.709572
  H       0.328083      0.669369      0.736450
  H      -2.179358     -0.990051      0.359163
  H      -2.124439      0.633421      0.472847
  H       2.292483     -0.287705     -0.040126
  O      -4.399778      0.029019     -0.359198
  C      -3.392072     -0.036359     -1.062625
  O      -3.205380     -0.042302     -2.274313
14
Coordinates from ORCA-job ./orca E -398.993176277747
  O       1.558312     -0.256468     -0.665586
  N      -2.089866     -0.138995     -0.196368
  C      -0.794051     -0.133552     -0.910972
  C       0.342968     -0.213899      0.087840
  H      -0.737460      0.781070     -1.495145
  H      -0.780221     -0.989249     -1.580769
  H       0.237885     -1.112926      0.702671
  H       0.327407      0.660392      0.744628
  H      -2.177627     -0.994646      0.354804
  H      -2.126233      0.627863      0.476032
  H       2.293737     -0.277872     -0.040542
  O      -4.396992      0.069135     -0.358601
  C      -3.394544     -0.037918     -1.063915
  O      -3.210297     -0.084249     -2.274759
14
Coordinates from ORCA-job ./orca E -398.993196383854
  O       1.558504     -0.249038     -0.665088
  N      -2.089328     -0.141930     -0.196955
  C      -0.793415     -0.126394     -0.909856
  C       0.343404     -0.219480      0.087967
  H      -0.737833      0.796087     -1.482374
  H      -0.777533     -0.972452     -1.591851
  H       0.238055     -1.127665      0.689623
  H       0.325557      0.644120      0.758750
  H      -2.174679     -1.002023      0.348142
  H      -2.129074      0.618927      0.481908
  H       2.295338     -0.261355     -0.041442
  O      -4.390225      0.138058     -0.362118
  C      -3.396896     -0.040446     -1.065361
  O      -3.218858     -0.157723     -2.272026
14
Coordinates from ORCA-job ./orca E -398.993203975269
  O       1.558101     -0.247779     -0.665398
  N      -2.089750     -0.141951     -0.196260
  C      -0.793871     -0.125341     -0.909930
  C       0.343081     -0.220011      0.087751
  H      -0.738115      0.798144     -1.480690
  H      -0.778553     -0.970341     -1.593078
  H       0.238089     -1.129271      0.687813
  H       0.325129      0.642434      0.759993
  H      -2.174212     -1.002695      0.348024
  H      -2.129160      0.618296      0.483408
  H       2.295145     -0.260629     -0.042032
  O      -4.389674      0.144790     -0.364503
  C      -3.395196     -0.040638     -1.064762
  O      -3.217996     -0.166321     -2.271017
14
Coordinates from ORCA-job ./orca E -398.993224078332
  O       1.556701     -0.246375     -0.666761
  N      -2.091415     -0.144043     -0.193826
  C      -0.795688     -0.122175     -0.910192
  C       0.341788     -0.219537      0.087116
  H      -0.740870      0.804263     -1.475565
  H      -0.780869     -0.964306     -1.596199
  H       0.237642     -1.129815      0.685490
  H       0.325436      0.642293      0.759970
  H      -2.173076     -1.009065      0.343983
  H      -2.130170      0.612268      0.490157
  H       2.293561     -0.261178     -0.043298
  O      -4.386657      0.165988     -0.371574
  C      -3.389124     -0.040144     -1.062603
  O      -3.214242     -0.189488     -2.267379
14
Coordinates from ORCA-job ./orca E -398.993237955339
  O       1.556629     -0.243340     -0.667107
  N      -2.091866     -0.147812     -0.193258
  C      -0.796058     -0.117622     -0.909578
  C       0.341617     -0.220760      0.087013
  H      -0.743325      0.813627     -1.467317
  H      -0.779297     -0.954053     -1.602312
  H       0.237600     -1.134584      0.680034
  H       0.325660      0.637125      0.764776
  H      -2.171287     -1.018031      0.336587
  H      -2.132419      0.602778      0.496784
  H       2.293445     -0.254681     -0.043514
  O      -4.380037      0.209296     -0.377746
  C      -3.388390     -0.040601     -1.062696
  O      -3.219254     -0.232656     -2.262347
14
Coordinates from ORCA-job ./orca E -398.993276549791
  O       1.556589     -0.232781     -0.668114
  N      -2.093391     -0.160079     -0.191902
  C      -0.796953     -0.106589     -0.907305
  C       0.341399     -0.223500      0.086986
  H      -0.751193      0.837208     -1.444709
  H      -0.774129     -0.927630     -1.617747
  H       0.239343     -1.146892      0.665441
  H       0.325374      0.623647      0.777805
  H      -2.167414     -1.044796      0.314553
  H      -2.138740      0.573857      0.515188
  H       2.293083     -0.235785     -0.044015
  O      -4.354988      0.331311     -0.401510
  C      -3.386286     -0.040521     -1.063343
  O      -3.239676     -0.348762     -2.242008
14
Coordinates from ORCA-job ./orca E -398.993316344370
  O       1.555964     -0.221742     -0.669417
  N      -2.094834     -0.168044     -0.190260
  C      -0.797945     -0.100038     -0.904903
  C       0.341381     -0.226684      0.086896
  H      -0.756728      0.851908     -1.428521
  H      -0.772025     -0.910297     -1.627353
  H       0.242751     -1.158358      0.652625
  H       0.323465      0.610745      0.789263
  H      -2.165326     -1.060501      0.303205
  H      -2.143739      0.556764      0.525685
  H       2.292925     -0.221000     -0.045858
  O      -4.332965      0.413326     -0.425638
  C      -3.383963     -0.041473     -1.063854
  O      -3.255944     -0.425922     -2.222552
14
Coordinates from ORCA-job ./orca E -398.993326719766
  O       1.554620     -0.210817     -0.671452
  N      -2.096031     -0.173512     -0.187200
  C      -0.799495     -0.095250     -0.902456
  C       0.341057     -0.228736      0.086555
  H      -0.762196      0.862136     -1.416723
  H      -0.773105     -0.898307     -1.633052
  H       0.246514     -1.167284      0.641517
  H       0.321103      0.600530      0.798430
  H      -2.162545     -1.070001      0.299273
  H      -2.148519      0.547939      0.531645
  H       2.292335     -0.214647     -0.048778
  O      -4.316357      0.466857     -0.447719
  C      -3.380599     -0.043406     -1.063900
  O      -3.263764     -0.476817     -2.206822
14
Coordinates from ORCA-job ./orca E -398.993330624585
  O       1.554818     -0.209505     -0.671038
  N      -2.095599     -0.174306     -0.187074
  C      -0.799501     -0.093878     -0.902659
  C       0.340873     -0.228216      0.086436
  H      -0.762850      0.864150     -1.415800
  H      -0.773055     -0.896239     -1.634041
  H       0.246261     -1.167332      0.640404
  H       0.320735      0.600345      0.799143
  H      -2.160893     -1.071668      0.297746
  H      -2.148690      0.546474      0.532399
  H       2.292187     -0.216590     -0.047979
  O      -4.314331      0.472593     -0.449499
  C      -3.380717     -0.043296     -1.064207
  O      -3.266220     -0.483845     -2.204511
14
Coordinates from ORCA-job ./orca E -398.993330641649
  O       1.555017     -0.205368     -0.670629
  N      -2.095514     -0.174813     -0.186737
  C      -0.799592     -0.093704     -0.902871
  C       0.340881     -0.227461      0.086219
  H      -0.763517      0.864098     -1.416389
  H      -0.773679     -0.896545     -1.633784
  H       0.247835     -1.167513      0.638811
  H       0.318932      0.599999      0.800242
  H      -2.159791     -1.071866      0.298505
  H      -2.149102      0.547023      0.531640
  H       2.292217     -0.220683     -0.047519
  O      -4.313673      0.473945     -0.449819
  C      -3.380657     -0.043347     -1.064310
  O      -3.266337     -0.485077     -2.204040
14
Coordinates from ORCA-job ./orca E -398.993334800397
  O       1.555198     -0.201122     -0.670158
  N      -2.095523     -0.174981     -0.186747
  C      -0.799520     -0.093617     -0.903067
  C       0.340957     -0.226795      0.086099
  H      -0.763734      0.864097     -1.416731
  H      -0.773694     -0.896643     -1.633747
  H       0.249484     -1.167780      0.637323
  H       0.317015      0.599582      0.801410
  H      -2.159225     -1.071963      0.298657
  H      -2.149309      0.547097      0.531374
  H       2.292301     -0.224482     -0.047189
  O      -4.312809      0.476055     -0.450280
  C      -3.380748     -0.043451     -1.064347
  O      -3.267375     -0.487308     -2.203277
14
Coordinates from ORCA-job ./orca E -398.993336385517
  O       1.555298     -0.196306     -0.669658
  N      -2.095499     -0.174894     -0.186910
  C      -0.799418     -0.093643     -0.903295
  C       0.340980     -0.225909      0.086047
  H      -0.763801      0.863979     -1.417172
  H      -0.773377     -0.896864     -1.633723
  H       0.251297     -1.167793      0.635963
  H       0.314700      0.599478      0.802526
  H      -2.158941     -1.071927      0.298510
  H      -2.149189      0.546963      0.531429
  H       2.292303     -0.229243     -0.047003
  O      -4.312077      0.477873     -0.450647
  C      -3.380822     -0.043643     -1.064228
  O      -3.268435     -0.489383     -2.202519
14
Coordinates from ORCA-job ./orca E -398.993336586695
  O       1.555283     -0.192210     -0.669397
  N      -2.095474     -0.175105     -0.186948
  C      -0.799457     -0.093034     -0.903287
  C       0.340919     -0.225332      0.086036
  H      -0.764184      0.865076     -1.416376
  H      -0.772928     -0.895595     -1.634396
  H       0.252646     -1.168333      0.634203
  H       0.312971      0.598764      0.803992
  H      -2.158642     -1.072724      0.297511
  H      -2.149222      0.545811      0.532308
  H       2.292203     -0.232496     -0.047052
  O      -4.310059      0.483710     -0.452920
  C      -3.380715     -0.043998     -1.064110
  O      -3.270324     -0.495847     -2.200244
14
Coordinates from ORCA-job ./orca E -398.993331706159
  O       1.555234     -0.193237     -0.669571
  N      -2.095471     -0.174973     -0.186948
  C      -0.799508     -0.093044     -0.903227
  C       0.340896     -0.225386      0.086074
  H      -0.764134      0.865037     -1.416380
  H      -0.772877     -0.895598     -1.634348
  H       0.252268     -1.168110      0.634662
  H       0.313482      0.599068      0.803617
  H      -2.158918     -1.072589      0.297508
  H      -2.149096      0.545876      0.532391
  H       2.292160     -0.232043     -0.047147
  O      -4.310513      0.482597     -0.452671
  C      -3.380703     -0.044043     -1.064058
  O      -3.269802     -0.494870     -2.200582
14
Coordinates from ORCA-job ./orca E -398.993337558757
  O       1.555218     -0.194755     -0.669731
  N      -2.095428     -0.174668     -0.186990
  C      -0.799523     -0.093192     -0.903223
  C       0.340883     -0.225359      0.086119
  H      -0.763954      0.864651     -1.416799
  H      -0.772839     -0.896014     -1.634057
  H       0.251719     -1.167552      0.635531
  H       0.314174      0.599766      0.802892
  H      -2.159247     -1.072085      0.297798
  H      -2.148866      0.546372      0.532186
  H       2.292127     -0.231888     -0.047184
  O      -4.311709      0.479359     -0.451583
  C      -3.380791     -0.044049     -1.064018
  O      -3.268746     -0.491900     -2.201621
14
Coordinates from ORCA-job ./orca E -398.993333941030
  O       1.555230     -0.194019     -0.669667
  N      -2.095437     -0.174802     -0.186967
  C      -0.799526     -0.093022     -0.903212
  C       0.340885     -0.225325      0.086101
  H      -0.764071      0.864959     -1.416544
  H      -0.772811     -0.895666     -1.634237
  H       0.251956     -1.167787      0.635087
  H       0.313898      0.599466      0.803258
  H      -2.159083     -1.072334      0.297624
  H      -2.148979      0.546121      0.532314
  H       2.292126     -0.232199     -0.047168
  O      -4.311138      0.480959     -0.452178
  C      -3.380765     -0.044095     -1.064040
  O      -3.269268     -0.493569     -2.201052
