3
Coordinates from ORCA-job wateropt E -76.313517480028
  O       0.000000      0.000000      0.000000
  H       0.758602      0.000000      0.504284
  H      -0.758602      0.000000      0.504284
3
Coordinates from ORCA-job wateropt E -76.320232187044
  O      -0.000000      0.000000     -0.032810
  H       0.787559      0.000000      0.520689
  H      -0.787559      0.000000      0.520689
3
Coordinates from ORCA-job wateropt E -76.320993159259
  O      -0.000000      0.000000     -0.049544
  H       0.774579      0.000000      0.529056
  H      -0.774579      0.000000      0.529056
3
Coordinates from ORCA-job wateropt E -76.321271479005
  O       0.000000      0.000000     -0.066027
  H       0.756964      0.000000      0.537298
  H      -0.756964      0.000000      0.537298
3
Coordinates from ORCA-job wateropt E -76.321270110440
  O       0.000000      0.000000     -0.064832
  H       0.757336      0.000000      0.536700
  H      -0.757336      0.000000      0.536700
3
Coordinates from ORCA-job wateropt E -76.321264891409
  O       0.000000      0.000000     -0.064730
  H       0.757159      0.000000      0.536649
  H      -0.757159      0.000000      0.536649
