14
Coordinates from ORCA-job ./orca E -398.965985267480
  O           1.54710285230457     -0.14621112797719     -0.59893560010772
  N          -2.12623187085096     -0.19721562047573     -0.23383741476873
  C          -0.80521847691503     -0.07520660169336     -0.90511418102131
  C           0.30864715096689     -0.22514010576299      0.11596103441793
  H          -0.76644337230902      0.90087236683626     -1.38635874084418
  H          -0.74238996370049     -0.85363504291582     -1.66223089850926
  H           0.22009580621030     -1.18978614204224      0.62818491295300
  H           0.24665293981671      0.57297692174800      0.86253867617748
  H          -2.19501165898887     -1.11113349677127      0.22151193503095
  H          -2.21208760060009      0.50041371705200      0.50687583664303
  H           2.26560451185407     -0.18598417565990      0.04562444133721
  O          -4.35971286198438      0.39886676689315     -0.52773060419324
  C          -3.39496364290663     -0.05235715070337     -1.14485860661087
  O          -3.23478088732277     -0.42176356305312     -2.30454482110838
