14
Coordinates from ORCA-job tsopt_iter_opt E -399.091585159549
  O           1.59258180649930     -0.24335062746885     -0.68419022871500
  N          -2.06069357917929     -0.10044935897380     -0.12677609300524
  C          -0.78090048344712     -0.09996021645144     -0.82422405499998
  C           0.40567064680573     -0.23645189153701      0.11093114109077
  H          -0.69632961281148      0.82843183584389     -1.38945207709985
  H          -0.77777756148992     -0.92497370413267     -1.53735607895073
  H           0.32585816788341     -1.16644350202948      0.68004717086977
  H           0.42632065781932      0.60017795771931      0.81366473716364
  H          -2.16004801548979     -0.93664794184916      0.43705822796246
  H          -2.12917103403881      0.69070416668958      0.50202737184091
  H           2.34849182844956     -0.30853559907493     -0.09371189977630
  O          -4.66940155297099      0.06414762634481     -0.54124776419700
  C          -3.84910666189638     -0.05946408013139     -1.36944057048867
  O          -3.39372633613355     -0.17944762494888     -2.44210686169477
