14
Coordinates from ORCA-job ./orca E -399.102162253318
  N           0.67153151703089     -1.68744534246741      0.39038298436946
  C           0.59010666921974     -0.22429254776406      0.43390446482248
  C          -0.66233858542584      0.24053209665077     -0.27780834260012
  O          -1.83616029288588     -0.32332439165816      0.30902012745760
  H           1.41842925757850     -2.00607582290379      0.99458418182536
  H           0.92123734146112     -1.98415552396722     -0.54594017226579
  H           1.45538909822474      0.26963039771863     -0.02075665469544
  H           0.54291791558211      0.07968591214710      1.48039962066115
  H          -0.61303849840424     -0.03086221645292     -1.33706527259949
  H          -0.76167895896282      1.32183900577766     -0.20390262026891
  H          -1.64023029269377     -1.25837561736504      0.44782467847926
  O          -1.64834029509240     -2.99086712746526      3.97447449243931
  C          -1.65660433846984     -3.80120936548817      3.15125745608343
  O          -1.66529903229997     -4.61237479721883      2.32885347414811
