14
Coordinates from ORCA-job ./orca E -399.099888614957
  O           1.76994719254432     -0.31022102518830     -0.59542185108704
  N          -1.88172474709002      0.01912517777046     -0.01180804429676
  C          -0.60193698244021     -0.06012100648452     -0.71496773800724
  C           0.58876566045481     -0.24141838538441      0.20752314978526
  H          -0.46905185735013      0.85260294216746     -1.29822157949693
  H          -0.64191767903518     -0.89400099998692     -1.41792699567688
  H           0.47278101484807     -1.16131912728406      0.78757162349216
  H           0.65330766792249      0.60046012689297      0.90199259705914
  H          -1.99892191702186     -0.80595855372352      0.56579361700620
  H          -1.86420139743280      0.80404790452670      0.62912566402719
  H           2.52707887733743     -0.40099571046258     -0.01009547366289
  O          -5.09652975729935     -0.47461085454830     -0.81381743265598
  C          -4.49303746246783     -0.16727010587181     -1.74996965708954
  O          -3.91154066326952      0.13836629007684     -2.70045822029659
