14
Coordinates from ORCA-job ./orca E -399.097557668232
  O           1.71988634348711     -0.30521270347781     -0.59750268098510
  N          -1.94180783735116      0.01476508475022     -0.07161974733698
  C          -0.65027424867647     -0.05874689462156     -0.75231280008537
  C           0.52632504414377     -0.24204048585163      0.18756283012766
  H          -0.51013114893684      0.85675789551596     -1.32970550556275
  H          -0.67748027517935     -0.88933472211831     -1.45997004554698
  H           0.40328215784207     -1.16477214180645      0.76161484661854
  H           0.57867464650107      0.59671465201554      0.88679589214167
  H          -2.06916667895331     -0.81395942269480      0.49841917472408
  H          -1.93709794310997      0.79568218167087      0.57462506447693
  H           2.46804554249607     -0.39822579817286     -0.00108380602668
  O          -4.88677874906253     -0.45429096795232     -0.69567038822511
  C          -4.26472886065072     -0.16246206893511     -1.62557678814622
  O          -3.70573004284951      0.12381206417827     -2.59625638707357
