14
Coordinates from ORCA-job ./orca E -399.092338257005
  O           1.65024390151645     -0.21324038625524     -0.62139933900765
  N          -2.01993431875041     -0.13893890568193     -0.11401105505362
  C          -0.72719175781118     -0.12593425430521     -0.78972738428633
  C           0.45262018666666     -0.22244683467265      0.15880808283200
  H          -0.65001728892826      0.79381376577945     -1.37143179583610
  H          -0.69604311330889     -0.96139728334741     -1.49082662955578
  H           0.38823821424296     -1.14564582293640      0.74099178971639
  H           0.44615031870737      0.62431997056310      0.85003499661003
  H          -2.11245094759010     -0.98042730312559      0.44343434928960
  H          -2.08457408887099      0.64018832401621      0.53098515389026
  H           2.39988548761866     -0.25760383973744     -0.02111168840129
  O          -4.69668253681528     -0.09015308965908     -0.59347010458597
  C          -3.91327419875340     -0.04341291888143     -1.45399631285455
  O          -3.38395190822329      0.01956525074366     -2.48896040365685
