14
Coordinates from ORCA-job ./orca E -399.098634445583
  O           1.74054633924903     -0.30587167047927     -0.59532802333375
  N          -1.91809992256968      0.01522780528539     -0.04965285290220
  C          -0.63035563238038     -0.06007721560987     -0.73802107775549
  C           0.55115360415741     -0.24163327741117      0.19594251125912
  H          -0.49323885882307      0.85425254857071     -1.31792948103282
  H          -0.66187013170293     -0.89203740316944     -1.44380004387773
  H           0.43133052937909     -1.16343143147783      0.77218539310670
  H           0.60702798677276      0.59831513917866      0.89347332686899
  H          -2.04192362379165     -0.81256382598443      0.52258359608898
  H          -1.90882849788486      0.79703262734181      0.59537042384871
  H           2.49189970770197     -0.39780048509626     -0.00277765708921
  O          -4.96607076523037     -0.45835065100685     -0.73807803158307
  C          -4.35781753558880     -0.16309069009876     -1.67543097656020
  O          -3.79073524958828      0.12871520245730     -2.63921744793792
