14
Coordinates from ORCA-job ./orca E -399.100799621451
  O           1.81315641238559     -0.32392848426583     -0.60512002985818
  N          -1.82078935698625      0.03543544582953      0.06306481566581
  C          -0.55895313051171     -0.05591010177795     -0.67074455704605
  C           0.65169138689319     -0.24058398322559      0.22461127499957
  H          -0.43445173577135      0.85301013728725     -1.26163573372980
  H          -0.62146950349974     -0.89315870634791     -1.36792793128297
  H           0.54207967614176     -1.15585583354230      0.81313675711972
  H           0.73940821852409      0.60507226246958      0.91193252028204
  H          -1.92707801267743     -0.78348561479612      0.65141171928034
  H          -1.78523792261161      0.82697733802930      0.69486652177914
  H           2.58254231298893     -0.42041990504529     -0.03694100254211
  O          -5.32845523824125     -0.52942619553634     -0.96743713095805
  C          -4.70678561544393     -0.18261673881719     -1.87732948616419
  O          -4.09263954149012      0.16357705223884     -2.79256807844517
