14
Coordinates from ORCA-job ./orca E -399.095574878063
  O           1.72140515933023     -0.26249489092241     -0.55890301280888
  N          -1.96391997746971     -0.06818635990291     -0.15935061160962
  C          -0.64910473691334     -0.08748659421632     -0.79611358787107
  C           0.49983610435614     -0.23403174978280      0.18354024476794
  H          -0.52388392865197      0.83603607893462     -1.36396490995228
  H          -0.62037045793210     -0.91450139762047     -1.50808739713225
  H           0.38409274957928     -1.15901662195106      0.75540107280164
  H           0.50340721009399      0.60667471100762      0.88239369253814
  H          -2.08064750111324     -0.90590990246766      0.39967880758884
  H          -2.01295281197610      0.70790684567092      0.49120621644604
  H           2.45023416870269     -0.32790017218915      0.06464085096911
  O          -4.81085620521754     -0.24982182305390     -0.55634679066083
  C          -4.17773524271875     -0.09488878326913     -1.51328273994462
  O          -3.66648658036929      0.05230733226267     -2.54149217603203
