14
Coordinates from ORCA-job ./orca E -399.101101447035
  O           1.88293762421152     -0.34765477165171     -0.64276673809027
  N          -1.69911893432524      0.07010191019822      0.23995095384046
  C          -0.48683170252208     -0.04999165012825     -0.57003198654736
  C           0.77388577982074     -0.23622498907660      0.25248783075215
  H          -0.38844538754711      0.84753924240815     -1.18295737585820
  H          -0.60224028369665     -0.89742019333738     -1.24779942121954
  H           0.68877815333395     -1.14073956731371      0.86121740988700
  H           0.91297212745142      0.61835934761502      0.92013667313839
  H          -1.77903568454683     -0.73980338793498      0.84474889910438
  H          -1.61082902561059      0.86831359656065      0.85837924614198
  H           2.68147847883646     -0.45816467207833     -0.11897252411942
  O          -5.77981282488540     -0.62863656018431     -1.30362503067541
  C          -5.10659399931594     -0.21185038369740     -2.14474118603637
  O          -4.43412637150413      0.20485875112062     -2.98670709121771
