14
Coordinates from ORCA-job ./orca E -399.100881231636
  O           1.82114529041353     -0.32712353298702     -0.60794300718132
  N          -1.80857533073197      0.03914678579194      0.07900700614405
  C          -0.55074745046201     -0.05498111487165     -0.66136805778593
  C           0.66431613682409     -0.24013450976098      0.22785020746843
  H          -0.42817698004454      0.85293048698500     -1.25419827384209
  H          -0.61812294076013     -0.89316136320658     -1.35696474368109
  H           0.55621377688972     -1.15415461626516      0.81858178303810
  H           0.75735883822469      0.60656236563015      0.91318548148410
  H          -1.91239200744727     -0.77841726310599      0.66967753771645
  H          -1.76901496564037      0.83207112973915      0.70882322501377
  H           2.59322249931293     -0.42541906441935     -0.04373648404445
  O          -5.37686192387490     -0.54261240883385     -1.00144355603675
  C          -4.74863856411171     -0.18604312274540     -1.90301171250853
  O          -4.12670842889187      0.17002290054973     -2.80913974668463
