14
Coordinates from ORCA-job ./orca E -399.099093800588
  O           1.75160156221364     -0.30667274454086     -0.59344963395564
  N          -1.90556709325237      0.01528754052714     -0.03939236919677
  C          -0.61988856974786     -0.06065234134396     -0.73169211996898
  C           0.56374607048704     -0.24178393323520      0.19993707338619
  H          -0.48362881668612      0.85332845244859     -1.31226739567971
  H          -0.65273766869351     -0.89322964852445     -1.43663453626310
  H           0.44477281461721     -1.16312665735545      0.77709291787504
  H           0.62096615462136      0.59872045662062      0.89671081150232
  H          -2.02727878996229     -0.81169301224853      0.53450693241572
  H          -1.89421246467855      0.79817998451679      0.60424849145405
  H           2.50412268469579     -0.39661490251658     -0.00207051557205
  O          -5.01022757931746     -0.46074427717316     -0.76014064401229
  C          -4.40522965403395     -0.16342501508672     -1.69875142814946
  O          -3.83342070056270      0.13111277041179     -2.65877792473520
