14
Coordinates from ORCA-job ./orca E -399.105529926073
  O           1.55952679668876     -0.20545164508330     -0.61284145387277
  N          -2.08515477726134     -0.15467679250751     -0.19896428094826
  C          -0.78287947386193     -0.10609427460870     -0.88532984827755
  C           0.34092670611752     -0.21750802287423      0.12376783493364
  H          -0.72426923234412      0.83338039340773     -1.42699106640231
  H          -0.74648635150356     -0.93017275468009     -1.59138351058697
  H           0.24449412407642     -1.14607967238473      0.69136854550947
  H           0.30717130763434      0.62322174163655      0.81957694971476
  H          -2.17816689791159     -1.02237782211118      0.32505632439568
  H          -2.16563372722477      0.60101691377538      0.47726554874295
  H           2.28606827039732     -0.24042593369311      0.01606707793201
  O          -4.42160577128549      0.04639463142177     -0.47069419519118
  C          -3.41500021742559     -0.06109902729901     -1.14968329773706
  O          -3.16597280639561     -0.12144106249954     -2.33789496911224
