14
Coordinates from ORCA-job ./orca E -399.093076486479
  O           1.66481451818088     -0.21169465959576     -0.61168398406450
  N          -2.00958969268853     -0.14308584906373     -0.11772494628939
  C          -0.71349845076236     -0.13049614669419     -0.78840730700064
  C           0.46391340391667     -0.22185361619491      0.16383160456576
  H          -0.63464420188929      0.78761369578242     -1.37286710823147
  H          -0.67773029943892     -0.96794760089558     -1.48714098393712
  H           0.39977652244825     -1.14356964036818      0.74847584120810
  H           0.45295035205280      0.62687290049657      0.85272071272668
  H          -2.10208991445573     -0.98653119117818      0.43697447226861
  H          -2.06811300392775      0.63167955229451      0.53333206290145
  H           2.41220754920781     -0.25089750128912     -0.00824301815744
  O          -4.72714921589958     -0.07939307021180     -0.59175302286013
  C          -3.97350551519940     -0.03568598367066     -1.47538190037720
  O          -3.43432410184456      0.02367578308861     -2.50281276365257
