14
Coordinates from ORCA-job ./orca E -399.095577987265
  O           1.58866841077972     -0.20704287812725     -0.63683759114026
  N          -2.05741979397517     -0.13391574134620     -0.13905311272300
  C          -0.77090813188052     -0.08597960214230     -0.82756364453663
  C           0.39012273078404     -0.22912042182700      0.13656220315039
  H          -0.70389218284677      0.86121925479462     -1.35905211849565
  H          -0.74770022466764     -0.89281178535053     -1.55753752370640
  H           0.30665997658819     -1.17155899581082      0.68349342906874
  H           0.38718475721887      0.59316534128541      0.85532256404843
  H          -2.16026782715486     -0.99042989028608      0.39400804391207
  H          -2.17067791155185      0.64401960631235      0.50081416367399
  H           2.33463004440313     -0.26289271535110     -0.03283746109757
  O          -4.53486211822822      0.03077937383942     -0.55484938102043
  C          -3.59122306003389     -0.08086668260022     -1.27780251215065
  O          -3.21729671973472     -0.17587819089027     -2.40534739988286
