14
Coordinates from ORCA-job ./orca E -399.098109036769
  O           1.72966113565236     -0.30551508543050     -0.59727642339654
  N          -1.93038521749385      0.01421453270727     -0.05964730799232
  C          -0.64098494497105     -0.06010345374260     -0.74460127175787
  C           0.53871767369452     -0.24158210551877      0.19170691722029
  H          -0.50277057906906      0.85457948637643     -1.32374602695356
  H          -0.67041240068001     -0.89169035750369     -1.45095387179052
  H           0.41798584335448     -1.16339552996129      0.76771666969608
  H           0.59308213722827      0.59839206017123      0.88932806090526
  H          -2.05657561304889     -0.81458424064349      0.51054856863495
  H          -1.92293323302279      0.79494767973621      0.58675373325239
  H           2.47995399599917     -0.39661395620357     -0.00325385937788
  O          -4.92503720203362     -0.45450890343987     -0.71720453803941
  C          -4.31052227529543     -0.16174929169486     -1.65149170840451
  O          -3.74676137061386      0.12629583764751     -2.61855928289625
