14
Coordinates from ORCA-job ./orca E -399.093881887683
  O           1.68820817655635     -0.25104091993964     -0.58480289027398
  N          -1.99144742166132     -0.08225174091163     -0.14362452748028
  C          -0.68532967197126     -0.10041888319904     -0.79631270544173
  C           0.47534103767473     -0.23095252438463      0.17176631869658
  H          -0.57283979654717      0.81909843006693     -1.37317496621065
  H          -0.66157372527872     -0.93370972666817     -1.50081196800804
  H           0.37529734263211     -1.15410220799340      0.74937928498097
  H           0.47812656882270      0.61338854626486      0.86612683308439
  H          -2.10411917529986     -0.91937490148959      0.41702433570640
  H          -2.03738509349536      0.69629727122846      0.50413425450138
  H           2.42485765757983     -0.30777858785472      0.03033629497973
  O          -4.74630776657357     -0.23492327323003     -0.56576919781010
  C          -4.05277025961059     -0.08116094916064     -1.48315784721453
  O          -3.53703992312758      0.06561613977125     -2.51179356041003
