14
Coordinates from ORCA-job ./orca E -399.100564807670
  O           1.79728679608966     -0.31779719312980     -0.59909143002035
  N          -1.84491267776655      0.02858599864942      0.03056830028658
  C          -0.57494399006731     -0.05745161516181     -0.68963726552102
  C           0.62651849364146     -0.24143946931631      0.21818758358317
  H          -0.44632269768682      0.85343093932221     -1.27663944755264
  H          -0.62762000347860     -0.89283358771315     -1.38990305773874
  H           0.51360713059306     -1.15917951681062      0.80224728388374
  H           0.70362204806499      0.60206445124262      0.90941622747498
  H          -1.95613953684838     -0.79298709885880      0.61430952421057
  H          -1.81718656994087      0.81725484501603      0.66640506364379
  H           2.56102136903591     -0.41136961651279     -0.02285485549754
  O          -5.23360155905199     -0.50468704620379     -0.90084113272741
  C          -4.62351781434756     -0.17621346277508     -1.82530969310892
  O          -4.02479303853682      0.15130904475187     -2.75753744181613
