14
Coordinates from ORCA-job ./orca E -399.094758604302
  O           1.70666756826186     -0.25526894397213     -0.56839362188480
  N          -1.97728826676349     -0.07899272460776     -0.15612581361251
  C          -0.66534187327042     -0.09979538393266     -0.79840542858572
  C           0.48775526378456     -0.23105152866399      0.17837552766620
  H          -0.54646153769013      0.81874160818139     -1.37570905838434
  H          -0.63741103347190     -0.93372595033213     -1.50210949020303
  H           0.38129990711405     -1.15271704820653      0.75728026069368
  H           0.48693879324033      0.61473077795649      0.87105886821334
  H          -2.09425872168945     -0.91760041102788      0.40155090764100
  H          -2.02237103558843      0.69605370267383      0.49608421677641
  H           2.43830633887682     -0.31043180773857      0.05285026000774
  O          -4.77666601951920     -0.24436084672027     -0.55596523485402
  C          -4.11929012257422     -0.08138941137368     -1.49637030303460
  O          -3.60886131101009      0.07449464026391     -2.52480143133922
