14
Coordinates from ORCA-job ./orca E -399.091556685524
  O           1.62754150514467     -0.21816073562163     -0.63163960716123
  N          -2.03398060160909     -0.13133663199877     -0.11621518192524
  C          -0.74644592490309     -0.11683314998599     -0.79862266968081
  C           0.43201334143419     -0.22372823419813      0.15048609199006
  H          -0.67051257047648      0.80718237073944     -1.37237919505293
  H          -0.72164882315783     -0.94842911477774     -1.50360386918400
  H           0.36217836623316     -1.14894717116311      0.72853765450738
  H           0.43077250891684      0.62033443159305      0.84469282808182
  H          -2.13710905494145     -0.97411843754596      0.43656255314017
  H          -2.11217104055645      0.65235077238704      0.52101044970150
  H           2.37779526051591     -0.26568205620423     -0.03232051625779
  O          -4.64293416950842     -0.10035320052250     -0.58580393110820
  C          -3.80054847826993     -0.05623108562392     -1.39936666655859
  O          -3.31193236912172      0.00263891542247     -2.46201828139198
