14
Coordinates from ORCA-job ./orca E -399.096930785394
  O           1.71021188624704     -0.30462188404157     -0.59783727123768
  N          -1.95282596186029      0.01563199910596     -0.08276247901410
  C          -0.65975449454597     -0.05709608038560     -0.75996594769032
  C           0.51393123211020     -0.24279016183230      0.18318337209497
  H          -0.51797231032998      0.85947853222776     -1.33525125533968
  H          -0.68490293316926     -0.88642417694232     -1.46920961863641
  H           0.38852069453126     -1.16685503510084      0.75457841963446
  H           0.56427066584804      0.59419823679365      0.88466779011316
  H          -2.08203217699718     -0.81290964230521      0.48707175290526
  H          -1.95077141142351      0.79711676618853      0.56283354183823
  H           2.45612653983899     -0.39981409996213      0.00105684918783
  O          -4.84838314381923     -0.45369439217671     -0.67432098213650
  C          -4.21804514729514     -0.16311816636119     -1.59950718458249
  O          -3.66535548943472      0.11958477729199     -2.57521732803659
