14
Coordinates from ORCA-job ./orca E -399.103201149392
  O           1.56621544897796     -0.20876278762748     -0.62083928221789
  N          -2.07745167388267     -0.14299805157513     -0.18172394812191
  C          -0.78015837160519     -0.09493699251562     -0.86894817408585
  C           0.35387373633858     -0.22208331494602      0.12730974675515
  H          -0.71747751473658      0.84824203073699     -1.40475568495622
  H          -0.74981441748356     -0.91219221260299     -1.58401199167747
  H           0.25837054596751     -1.15639364555613      0.68564784458094
  H           0.33227289562014      0.61094162951349      0.83281169530985
  H          -2.17197431706757     -1.00426034625667      0.35041411330823
  H          -2.17271831430472      0.62460888637992      0.47736006969023
  H           2.29875691970401     -0.25594495805218      0.00020734900468
  O          -4.45249479584081      0.02640675742113     -0.49575467113618
  C          -3.45757427937464     -0.07336505786780     -1.18184216953415
  O          -3.17680791261211     -0.14057526455149     -2.35655523781923
