14
Coordinates from ORCA-job ./orca E -399.101060686342
  O           1.85376970416686     -0.33750432814728     -0.61789742608620
  N          -1.75930204212478      0.05108461990586      0.14165708686701
  C          -0.51739316088749     -0.05370357085760     -0.62404715403476
  C           0.71508725987520     -0.23764700529954      0.24099591216431
  H          -0.40365923813240      0.84936863559543     -1.22597124330572
  H          -0.60273395880609     -0.89675412147010     -1.31171972081802
  H           0.61483948576816     -1.14627999986374      0.84129004220793
  H           0.82697512689114      0.61396627006230      0.91737628853565
  H          -1.85335515747180     -0.76178245983134      0.74038452116394
  H          -1.70299717798246      0.84830429696040      0.76480430289460
  H           2.63620997459466     -0.44040918818207     -0.06896903155941
  O          -5.57019194526068     -0.58783806581361     -1.13649277531157
  C          -4.91706514865156     -0.19657748369030     -2.00533907667769
  O          -4.26716577227861      0.19445907313159     -2.87675206693998
