14
Coordinates from ORCA-job ./orca E -399.097910322796
  O           1.58074531634758     -0.20838046951176     -0.63288235061478
  N          -2.06359095012396     -0.13549312375333     -0.15160178173742
  C          -0.77445450698105     -0.08738394547222     -0.83997974707430
  C           0.37851419682082     -0.22692285021152      0.13376741794256
  H          -0.70863248872440      0.85870178041455     -1.37247687176116
  H          -0.74974116145792     -0.89720207382406     -1.56562827701789
  H           0.29084882384005     -1.16705319069094      0.68381779772784
  H           0.37117443616925      0.59833867500392      0.84888910971276
  H          -2.16463615500013     -0.99291169209925      0.38182990287723
  H          -2.17501391611539      0.64114689244119      0.49129583142566
  H           2.32306351154154     -0.26384463881200     -0.02434246750035
  O          -4.50793918353685      0.02414169231658     -0.53722763463418
  C          -3.54513162383588     -0.08031920381416     -1.24582251676842
  O          -3.20218834924332     -0.16413117948698     -2.39031875347738
