14
Coordinates from ORCA-job ./orca E -399.100945234702
  O           1.82919523351939     -0.33015377066175     -0.61061676841695
  N          -1.79630039214417      0.04267232437570      0.09481801764627
  C          -0.54247255631897     -0.05420752969669     -0.65202727463661
  C           0.67695521242721     -0.23963610928563      0.23110540560479
  H          -0.42190039460746      0.85264086807956     -1.24688575588121
  H          -0.61458794628825     -0.89339157515556     -1.34592903318590
  H           0.57047048839328     -1.15238237754657      0.82408430015493
  H           0.77512903975717      0.60814103748771      0.91438642574193
  H          -1.89760416440239     -0.77356818258520      0.68775243457848
  H          -1.75267207904287      0.83689493316835      0.72272932361024
  H           2.60389753068619     -0.43013135281066     -0.05031525460534
  O          -5.42529542339004     -0.55535271677818     -1.03545344446712
  C          -4.79059128321231     -0.18926040171139     -1.92861940346373
  O          -4.16120531567661      0.17642152562033     -2.82570931357968
