14
Coordinates from ORCA-job ./orca E -399.091791825418
  O           1.64151854521386     -0.21859454885864     -0.62234679468095
  N          -2.02554537978905     -0.12871142341624     -0.12061288503391
  C          -0.73352484354818     -0.11502076874376     -0.79637582300377
  C           0.44263097351590     -0.22500606074831      0.15537952006041
  H          -0.65269031693885      0.80964867199545     -1.36900925508419
  H          -0.70532093572054     -0.94522203552230     -1.50340433078277
  H           0.37035508387160     -1.15158839916598      0.73112304872318
  H           0.43998557435429      0.61725211673738      0.85192670791062
  H          -2.12338407177055     -0.96949265242115      0.43669949312660
  H          -2.09940993975443      0.65453847362201      0.51808939369179
  H           2.38966291009224     -0.26944339409333     -0.02068803776159
  O          -4.66906950490838     -0.10296575470848     -0.58129380135264
  C          -3.86208660172782     -0.05725217216461     -1.42387072816964
  O          -3.36010354318980      0.00054461998799     -2.47629684854298
