14
Coordinates from ORCA-job ./orca E -399.101104646786
  O           1.87808989858743     -0.34642731269164     -0.63675130470660
  N          -1.71101461782731      0.06730234080612      0.21848578393553
  C          -0.49196233074087     -0.05011052610393     -0.58153109130987
  C           0.76238809081344     -0.23703546971589      0.25058226218060
  H          -0.38928897676591      0.84867484793522     -1.19189801048019
  H          -0.60104155649824     -0.89628720662113     -1.26192740894191
  H           0.67325459207491     -1.14266648247086      0.85707960074157
  H           0.89623119463082      0.61651688866834      0.92057236769100
  H          -1.79414864559080     -0.74249925633214      0.82301172829426
  H          -1.63033108775641      0.86613085019282      0.83710144375632
  H           2.67305843922930     -0.45573980327411     -0.10733688266107
  O          -5.74036706212838     -0.62431170357345     -1.27090262209324
  C          -5.07049308341965     -0.20970010405649     -2.11574761846943
  O          -4.40135690490819      0.20483960973714     -2.96141858883689
