14
Coordinates from ORCA-job ./orca E -399.106894304224
  O           1.55251590549523     -0.20057837615639     -0.60571838062298
  N          -2.09440502010587     -0.16473165735458     -0.21543099788578
  C          -0.78604724811243     -0.11537997767304     -0.90038060746081
  C           0.32830018985855     -0.21362531668167      0.12015007891232
  H          -0.73134138019930      0.82097970854201     -1.44673764415311
  H          -0.74455366908430     -0.94491298587232     -1.59893788288553
  H           0.23141275726293     -1.13805818944795      0.69435973935383
  H           0.28280233241884      0.63270316795385      0.80850496148224
  H          -2.18411079529638     -1.03901105744518      0.30054371528677
  H          -2.16001582987609      0.57806065224199      0.47825259617510
  H           2.27343329993953     -0.22570071482972      0.03013805990089
  O          -4.38985070637410      0.07166573415777     -0.44770649032880
  C          -3.37216075628497     -0.05112068447143     -1.11886545519655
  O          -3.15296112994129     -0.11160363046332     -2.31885203347744
