14
Coordinates from ORCA-job ./orca E -399.092433091812
  O           1.60680419552866     -0.21891577698175     -0.63765720660831
  N          -2.04564168166589     -0.13044677864395     -0.12291361196683
  C          -0.76119201428263     -0.11326943156963     -0.81122059372424
  C           0.41186548597153     -0.22306507612336      0.14364009119965
  H          -0.68944311508605      0.81282980562580     -1.38023824589643
  H          -0.73993803204711     -0.94443480348788     -1.51526083363196
  H           0.33838596450259     -1.14880579471691      0.71995846740832
  H           0.41054755685494      0.62039991901085      0.83808741221211
  H          -2.15902698870414     -0.97540575453237      0.42437191713570
  H          -2.13827598499619      0.65726052394807      0.50736592078570
  H           2.35646355767674     -0.26822928210169     -0.03771004401108
  O          -4.59219556025036     -0.10095022885417     -0.57495160675395
  C          -3.69154790600121     -0.06247271867667     -1.33952828858980
  O          -3.25378752780057     -0.00580793039633     -2.43462371845873
