14
Coordinates from ORCA-job ./orca E -399.093706086951
  O           1.59731371437884     -0.21795396668349     -0.63820992087158
  N          -2.05134113337431     -0.13178459712657     -0.12958827013470
  C          -0.76688719611258     -0.11225087402678     -0.81953162769445
  C           0.40141694185573     -0.22292316936935      0.14061110058684
  H          -0.69711276940957      0.81524112679721     -1.38544409006146
  H          -0.74595500624125     -0.94306851618230     -1.52307583144450
  H           0.32587059153678     -1.14924280440920      0.71551295699879
  H           0.39796508559310      0.61997128967873      0.83548783647006
  H          -2.16798816170594     -0.97823369300730      0.41514494108175
  H          -2.14921239763972      0.65656838218360      0.49951760217579
  H           2.34574627472372     -0.26611897531966     -0.03662356029555
  O          -4.56600266312688     -0.09282267370578     -0.56511758246697
  C          -3.63996686924543     -0.06407206277778     -1.30855027164920
  O          -3.23082846153217     -0.01462279355132     -2.42081362359465
