14
Coordinates from ORCA-job ./orca E -399.100175805898
  O           1.77964134486934     -0.31251800762042     -0.59571219801121
  N          -1.86933734503841      0.02186353024765      0.00114063513437
  C          -0.59239950460995     -0.05936434083539     -0.70703081304445
  C           0.60138362456275     -0.24153526412720      0.21128994479068
  H          -0.46063835217741      0.85284745024326     -1.29130662626259
  H          -0.63612944030228     -0.89366054026175     -1.40924873267513
  H           0.48622265284711     -1.16080274928704      0.79250554870453
  H           0.66951157111932      0.60081336300928      0.90485777824518
  H          -1.98476367616171     -0.80227684597222      0.58044823285547
  H          -1.84865358187695      0.80774610452941      0.64076698218978
  H           2.53869201719062     -0.40351359062601     -0.01290927739809
  O          -5.14161197994684     -0.48303451320351     -0.84079871205929
  C          -4.53758738279035     -0.16981497153857     -1.77459420381491
  O          -3.95131199798504      0.14193704794251     -2.72008889955423
