14
Coordinates from ORCA-job ./orca E -399.100539324847
  O           1.57353585122416     -0.20982738284051     -0.62692636353439
  N          -2.07006237154082     -0.13680591826453     -0.16672741255350
  C          -0.77707026550180     -0.08896177344943     -0.85423742036361
  C           0.36631931372982     -0.22504416477709      0.13067494295285
  H          -0.71169762447823      0.85620774897417     -1.38731572401860
  H          -0.75013183201745     -0.90165756569367     -1.57561194030509
  H           0.27349327160460     -1.16293347712919      0.68356216564831
  H           0.35318890477375      0.60309550431698      0.84221634641289
  H          -2.16739804320451     -0.99490576994551      0.36809127390331
  H          -2.17560201815299      0.63722078750896      0.48169833053520
  H           2.31099016999371     -0.26351000391894     -0.01229618712294
  O          -4.48088743640284      0.01913253149670     -0.51633115533319
  C          -3.50141855481273     -0.07949505430317     -1.21354628886066
  O          -3.19024141551436     -0.15382878947476     -2.37393090826040
