14
Coordinates from ORCA-job ./orca E -399.100827931367
  O       1.899059     -0.349415     -0.657424
  N      -1.696066      0.073260      0.266332
  C      -0.483797     -0.050551     -0.554117
  C       0.792230     -0.235032      0.255129
  H      -0.390973      0.845905     -1.174667
  H      -0.605826     -0.902447     -1.229901
  H       0.715141     -1.139992      0.869337
  H       0.939641      0.622904      0.921464
  H      -1.779940     -0.739439      0.872041
  H      -1.606651      0.874422      0.885908
  H       2.706389     -0.461853     -0.139330
  O      -5.826101     -0.632633     -1.338399
  C      -5.144968     -0.212976     -2.178114
  O      -4.465121      0.206532     -3.018939
14
Coordinates from ORCA-job ./orca E -399.101079843907
  O       1.886775     -0.349366     -0.654740
  N      -1.689252      0.072544      0.263895
  C      -0.482156     -0.049820     -0.553771
  C       0.787666     -0.234467      0.256010
  H      -0.390006      0.845177     -1.171282
  H      -0.603812     -0.899645     -1.227418
  H       0.711116     -1.137270      0.867825
  H       0.936938      0.621930      0.918714
  H      -1.770071     -0.737984      0.867044
  H      -1.597812      0.870175      0.882089
  H       2.689682     -0.462057     -0.138357
  O      -5.819835     -0.632288     -1.339620
  C      -5.141208     -0.213533     -2.176255
  O      -4.465006      0.205290     -3.014813
14
Coordinates from ORCA-job ./orca E -399.101091501401
  O       1.885579     -0.349110     -0.653448
  N      -1.688383      0.072417      0.263323
  C      -0.482055     -0.049788     -0.554400
  C       0.786841     -0.234332      0.255471
  H      -0.389794      0.845328     -1.171674
  H      -0.603713     -0.899719     -1.227977
  H       0.709661     -1.137261      0.867164
  H       0.935461      0.622062      0.918513
  H      -1.768513     -0.738385      0.866592
  H      -1.596163      0.870013      0.881743
  H       2.688738     -0.462029     -0.137156
  O      -5.818700     -0.632040     -1.339141
  C      -5.141039     -0.213486     -2.175857
  O      -4.464903      0.205018     -3.013834
14
Coordinates from ORCA-job ./orca E -399.101096906919
  O       1.885649     -0.348754     -0.652513
  N      -1.688145      0.072366      0.263085
  C      -0.482107     -0.049911     -0.554978
  C       0.786571     -0.234331      0.255065
  H      -0.389695      0.845270     -1.172241
  H      -0.603842     -0.899929     -1.228537
  H       0.708708     -1.137351      0.866794
  H       0.934139      0.621966      0.918694
  H      -1.767763     -0.738439      0.866485
  H      -1.595222      0.869842      0.881628
  H       2.688978     -0.461749     -0.136483
  O      -5.818376     -0.631732     -1.338572
  C      -5.141127     -0.213415     -2.175647
  O      -4.464749      0.204853     -3.013461
14
Coordinates from ORCA-job ./orca E -399.099623753088
  O       1.887388     -0.349476     -0.654504
  N      -1.719798      0.071705      0.248512
  C      -0.480148     -0.048682     -0.558338
  C       0.787860     -0.234778      0.252494
  H      -0.378314      0.848943     -1.175634
  H      -0.594194     -0.901529     -1.228890
  H       0.708874     -1.138126      0.863597
  H       0.935894      0.621056      0.916618
  H      -1.780122     -0.751029      0.871173
  H      -1.608286      0.884358      0.887544
  H       2.690319     -0.463460     -0.138070
  O      -5.820008     -0.631456     -1.338022
  C      -5.115141     -0.214589     -2.152909
  O      -4.461308      0.205747     -3.014251
14
Coordinates from ORCA-job ./orca E -399.100842881953
  O       1.879429     -0.350395     -0.647981
  N      -1.710112      0.071758      0.239648
  C      -0.482872     -0.046280     -0.561590
  C       0.779158     -0.234050      0.256668
  H      -0.383191      0.850961     -1.174367
  H      -0.595735     -0.897489     -1.234626
  H       0.696554     -1.137237      0.867512
  H       0.926617      0.621696      0.921127
  H      -1.765453     -0.735823      0.850988
  H      -1.598647      0.861836      0.866442
  H       2.680995     -0.465436     -0.129760
  O      -5.804303     -0.633574     -1.323423
  C      -5.114304     -0.213538     -2.149331
  O      -4.455117      0.206259     -3.001985
14
Coordinates from ORCA-job ./orca E -399.100988930523
  O       1.878706     -0.350986     -0.644312
  N      -1.706207      0.071516      0.236037
  C      -0.484456     -0.045891     -0.566189
  C       0.775007     -0.234169      0.256483
  H      -0.385096      0.851878     -1.177828
  H      -0.596155     -0.895505     -1.241943
  H       0.689740     -1.137297      0.867121
  H       0.920535      0.621167      0.921943
  H      -1.764332     -0.736443      0.846100
  H      -1.598678      0.861527      0.861677
  H       2.678797     -0.466026     -0.123740
  O      -5.793001     -0.634069     -1.313671
  C      -5.113697     -0.213484     -2.148271
  O      -4.448145      0.206469     -2.994088
14
Coordinates from ORCA-job ./orca E -399.101064116856
  O       1.880600     -0.350974     -0.640854
  N      -1.702614      0.071030      0.234732
  C      -0.485866     -0.046556     -0.571114
  C       0.772066     -0.234765      0.254781
  H      -0.386542      0.851756     -1.182439
  H      -0.597099     -0.894153     -1.249670
  H       0.684292     -1.138050      0.864878
  H       0.914364      0.619982      0.921611
  H      -1.767655     -0.738077      0.843472
  H      -1.602188      0.863977      0.859066
  H       2.678820     -0.465032     -0.117245
  O      -5.782435     -0.633483     -1.304445
  C      -5.112233     -0.213384     -2.146601
  O      -4.440491      0.206416     -2.986853
14
Coordinates from ORCA-job ./orca E -399.101072927194
  O       1.881934     -0.350255     -0.640442
  N      -1.701123      0.070730      0.235925
  C      -0.486243     -0.047520     -0.571977
  C       0.772039     -0.235256      0.253705
  H      -0.387034      0.850739     -1.183592
  H      -0.598341     -0.894540     -1.250970
  H       0.684194     -1.138855      0.863353
  H       0.912799      0.619337      0.921002
  H      -1.771120     -0.738715      0.843542
  H      -1.605002      0.865471      0.858526
  H       2.679692     -0.463190     -0.115946
  O      -5.780207     -0.632292     -1.302615
  C      -5.110666     -0.213064     -2.145591
  O      -4.437905      0.206097     -2.985599
14
Coordinates from ORCA-job ./orca E -399.101084825497
  O       1.883196     -0.348577     -0.641402
  N      -1.699301      0.070258      0.238680
  C      -0.486659     -0.049290     -0.571372
  C       0.773061     -0.236030      0.252513
  H      -0.387900      0.848591     -1.183750
  H      -0.600946     -0.896212     -1.249940
  H       0.686544     -1.140271      0.861449
  H       0.912169      0.618507      0.920199
  H      -1.776846     -0.739530      0.844271
  H      -1.609302      0.867699      0.858191
  H       2.681093     -0.459618     -0.116764
  O      -5.779295     -0.629868     -1.302468
  C      -5.107772     -0.212292     -2.144517
  O      -4.435023      0.205320     -2.985770
14
Coordinates from ORCA-job ./orca E -399.101101447035
  O       1.882938     -0.347655     -0.642767
  N      -1.699119      0.070102      0.239951
  C      -0.486832     -0.049992     -0.570032
  C       0.773886     -0.236225      0.252488
  H      -0.388445      0.847539     -1.182957
  H      -0.602240     -0.897420     -1.247799
  H       0.688778     -1.140740      0.861217
  H       0.912972      0.618359      0.920137
  H      -1.779036     -0.739803      0.844749
  H      -1.610829      0.868314      0.858379
  H       2.681478     -0.458165     -0.118973
  O      -5.779813     -0.628637     -1.303625
  C      -5.106594     -0.211850     -2.144741
  O      -4.434126      0.204859     -2.986707
14
Coordinates from ORCA-job ./orca E -399.099616977745
  O       1.884759     -0.348411     -0.644511
  N      -1.730719      0.069410      0.225432
  C      -0.484773     -0.048713     -0.573679
  C       0.775072     -0.236667      0.249917
  H      -0.377037      0.851326     -1.186686
  H      -0.592552     -0.898944     -1.248464
  H       0.688689     -1.141505      0.857987
  H       0.914509      0.617460      0.918078
  H      -1.791188     -0.752416      0.849408
  H      -1.623803      0.882787      0.864279
  H       2.682783     -0.459933     -0.120142
  O      -5.781397     -0.628381     -1.302938
  C      -5.080544     -0.213052     -2.121984
  O      -4.430780      0.205725     -2.987375
14
Coordinates from ORCA-job ./orca E -399.100840432387
  O       1.876064     -0.349142     -0.638801
  N      -1.720997      0.069343      0.216655
  C      -0.487572     -0.046506     -0.576165
  C       0.766408     -0.235806      0.254298
  H      -0.382279      0.852892     -1.184800
  H      -0.594347     -0.895424     -1.252980
  H       0.677323     -1.140486      0.862113
  H       0.905876      0.618385      0.922444
  H      -1.776832     -0.737411      0.829163
  H      -1.614283      0.860236      0.843272
  H       2.672982     -0.461672     -0.113001
  O      -5.765615     -0.630192     -1.288828
  C      -5.079387     -0.211781     -2.118651
  O      -4.424323      0.206252     -2.975399
14
Coordinates from ORCA-job ./orca E -399.100984922586
  O       1.874934     -0.349590     -0.635992
  N      -1.717413      0.069037      0.213355
  C      -0.489241     -0.046236     -0.579908
  C       0.762572     -0.235789      0.254250
  H      -0.384501      0.853473     -1.187738
  H      -0.594934     -0.893880     -1.259019
  H       0.671685     -1.140420      0.861918
  H       0.900749      0.618094      0.923093
  H      -1.776531     -0.738182      0.824489
  H      -1.615038      0.859926      0.838853
  H       2.670663     -0.462212     -0.108316
  O      -5.754368     -0.630401     -1.279716
  C      -5.078567     -0.211588     -2.118033
  O      -4.416992      0.206455     -2.967917
14
Coordinates from ORCA-job ./orca E -399.101061932068
  O       1.876288     -0.349478     -0.633652
  N      -1.714250      0.068477      0.212481
  C      -0.490817     -0.046944     -0.583746
  C       0.760035     -0.236160      0.252731
  H      -0.386464      0.853003     -1.191774
  H      -0.596013     -0.892948     -1.265217
  H       0.667660     -1.140924      0.859991
  H       0.895895      0.617251      0.922553
  H      -1.781133     -0.739989      0.822006
  H      -1.619835      0.862266      0.836708
  H       2.670525     -0.461417     -0.103610
  O      -5.743515     -0.629488     -1.271106
  C      -5.076785     -0.211355     -2.117009
  O      -4.408572      0.206393     -2.961037
14
Coordinates from ORCA-job ./orca E -399.101073391926
  O       1.877396     -0.348784     -0.633728
  N      -1.712883      0.068118      0.213933
  C      -0.491285     -0.047861     -0.584163
  C       0.760182     -0.236494      0.251712
  H      -0.387273      0.851881     -1.192769
  H      -0.597263     -0.893418     -1.265948
  H       0.668077     -1.141506      0.858652
  H       0.894947      0.616830      0.921807
  H      -1.785312     -0.740816      0.822043
  H      -1.623432      0.863688      0.836471
  H       2.671329     -0.459869     -0.103106
  O      -5.740970     -0.628162     -1.269445
  C      -5.074987     -0.210993     -2.116265
  O      -4.405508      0.206071     -2.959877
14
Coordinates from ORCA-job ./orca E -399.101087127497
  O       1.878393     -0.347242     -0.635276
  N      -1.711188      0.067534      0.217079
  C      -0.491786     -0.049483     -0.582997
  C       0.761467     -0.236982      0.250593
  H      -0.388587      0.849683     -1.192738
  H      -0.599804     -0.895107     -1.264220
  H       0.670969     -1.142462      0.857108
  H       0.895180      0.616427      0.920764
  H      -1.791845     -0.742001      0.822645
  H      -1.628668      0.865691      0.836666
  H       2.672666     -0.456905     -0.104914
  O      -5.739802     -0.625595     -1.269608
  C      -5.071770     -0.210171     -2.115482
  O      -4.402208      0.205300     -2.960300
14
Coordinates from ORCA-job ./orca E -399.101104646786
  O       1.878090     -0.346427     -0.636751
  N      -1.711015      0.067302      0.218486
  C      -0.491962     -0.050111     -0.581531
  C       0.762388     -0.237035      0.250582
  H      -0.389289      0.848675     -1.191898
  H      -0.601042     -0.896287     -1.261927
  H       0.673255     -1.142666      0.857080
  H       0.896231      0.616517      0.920572
  H      -1.794149     -0.742499      0.823012
  H      -1.630331      0.866131      0.837101
  H       2.673058     -0.455740     -0.107337
  O      -5.740367     -0.624312     -1.270903
  C      -5.070493     -0.209700     -2.115748
  O      -4.401357      0.204840     -2.961419
14
Coordinates from ORCA-job ./orca E -399.099623379046
  O       1.879980     -0.347201     -0.638317
  N      -1.742595      0.066581      0.204055
  C      -0.489821     -0.048807     -0.585404
  C       0.763503     -0.237466      0.247999
  H      -0.377848      0.852532     -1.195902
  H      -0.591327     -0.897767     -1.262821
  H       0.672985     -1.143415      0.853819
  H       0.897598      0.615637      0.918511
  H      -1.806166     -0.755122      0.827661
  H      -1.643286      0.880547      0.843031
  H       2.674339     -0.457533     -0.108199
  O      -5.741913     -0.624053     -1.270131
  C      -5.044372     -0.210918     -2.092993
  O      -4.398060      0.205672     -2.961988
14
Coordinates from ORCA-job ./orca E -399.100841206247
  O       1.871206     -0.347882     -0.632567
  N      -1.732657      0.066408      0.195183
  C      -0.492700     -0.046745     -0.587961
  C       0.754685     -0.236539      0.252300
  H      -0.383268      0.853886     -1.194022
  H      -0.593225     -0.894422     -1.267300
  H       0.661461     -1.142248      0.857957
  H       0.888661      0.616716      0.922710
  H      -1.791501     -0.740343      0.807404
  H      -1.633205      0.857942      0.822076
  H       2.664429     -0.459103     -0.100967
  O      -5.726068     -0.625728     -1.255896
  C      -5.043129     -0.209521     -2.089505
  O      -4.391672      0.206266     -2.950094
14
Coordinates from ORCA-job ./orca E -399.100984439676
  O       1.870062     -0.348309     -0.629763
  N      -1.729055      0.066012      0.191892
  C      -0.494414     -0.046565     -0.591664
  C       0.750855     -0.236457      0.252210
  H      -0.385607      0.854361     -1.196938
  H      -0.593840     -0.893020     -1.273210
  H       0.655866     -1.142050      0.857828
  H       0.883480      0.616572      0.923214
  H      -1.791148     -0.741236      0.802732
  H      -1.633806      0.857477      0.817748
  H       2.662098     -0.459559     -0.096307
  O      -5.714820     -0.625798     -1.246816
  C      -5.042285     -0.209236     -2.088876
  O      -4.384369      0.206493     -2.942732
14
Coordinates from ORCA-job ./orca E -399.101061109978
  O       1.871375     -0.348197     -0.627486
  N      -1.725985      0.065336      0.191088
  C      -0.496041     -0.047357     -0.595396
  C       0.748387     -0.236740      0.250661
  H      -0.387707      0.853782     -1.200939
  H      -0.594889     -0.892249     -1.279201
  H       0.651987     -1.142363      0.856036
  H       0.878683      0.615936      0.922480
  H      -1.795818     -0.743186      0.800256
  H      -1.638563      0.859539      0.815780
  H       2.661951     -0.458693     -0.091737
  O      -5.703941     -0.624667     -1.238278
  C      -5.040499     -0.208898     -2.087938
  O      -4.375922      0.206445     -2.936008
14
Coordinates from ORCA-job ./orca E -399.101071937162
  O       1.872423     -0.347534     -0.627615
  N      -1.724685      0.064912      0.192589
  C      -0.496531     -0.048286     -0.595753
  C       0.748564     -0.237019      0.249649
  H      -0.388592      0.852626     -1.201924
  H      -0.596079     -0.892774     -1.279839
  H       0.652464     -1.142825      0.854810
  H       0.877797      0.615639      0.921643
  H      -1.800042     -0.744119      0.800261
  H      -1.642166      0.860783      0.815675
  H       2.662729     -0.457138     -0.091336
  O      -5.701353     -0.623213     -1.236642
  C      -5.038694     -0.208485     -2.087271
  O      -4.372816      0.206118     -2.934925
14
Coordinates from ORCA-job ./orca E -399.101085765335
  O       1.873347     -0.346050     -0.629237
  N      -1.723057      0.064223      0.195823
  C      -0.497072     -0.049919     -0.594519
  C       0.749880     -0.237423      0.248549
  H      -0.390040      0.850383     -1.201910
  H      -0.598538     -0.894531     -1.278015
  H       0.655415     -1.143597      0.853442
  H       0.878121      0.615414      0.920485
  H      -1.806673     -0.745515      0.800761
  H      -1.647446      0.862530      0.816082
  H       2.664048     -0.454147     -0.093278
  O      -5.700096     -0.620421     -1.236805
  C      -5.035438     -0.207576     -2.086592
  O      -4.369433      0.205316     -2.935467
14
Coordinates from ORCA-job ./orca E -399.101103730840
  O       1.873040     -0.345243     -0.630743
  N      -1.722877      0.063938      0.197290
  C      -0.497272     -0.050567     -0.593030
  C       0.750813     -0.237443      0.248546
  H      -0.390820      0.849334     -1.201085
  H      -0.599783     -0.895754     -1.275685
  H       0.657733     -1.143736      0.853481
  H       0.879204      0.615570      0.920259
  H      -1.809051     -0.746135      0.801061
  H      -1.649138      0.862870      0.816610
  H       2.664463     -0.452919     -0.095744
  O      -5.700631     -0.618993     -1.238089
  C      -5.034112     -0.207051     -2.086883
  O      -4.368551      0.204816     -2.936666
14
Coordinates from ORCA-job ./orca E -399.101096823879
  O       1.872446     -0.344710     -0.632001
  N      -1.723172      0.063750      0.198079
  C      -0.497452     -0.050877     -0.591794
  C       0.751402     -0.237275      0.248768
  H      -0.391470      0.848692     -1.200385
  H      -0.600499     -0.896646     -1.273704
  H       0.659456     -1.143551      0.853887
  H       0.880225      0.615887      0.920232
  H      -1.810170     -0.746593      0.801224
  H      -1.649834      0.862688      0.817302
  H       2.664545     -0.452444     -0.097991
  O      -5.701023     -0.617969     -1.239139
  C      -5.033472     -0.206685     -2.087516
  O      -4.367964      0.204420     -2.937641
14
Coordinates from ORCA-job ./orca E -399.099601977752
  O       1.875597     -0.345859     -0.632874
  N      -1.755000      0.063942      0.182624
  C      -0.494298     -0.049738     -0.595471
  C       0.753424     -0.238118      0.246422
  H      -0.379347      0.852212     -1.204127
  H      -0.591702     -0.896503     -1.276157
  H       0.659689     -1.144849      0.850587
  H       0.881758      0.614123      0.919149
  H      -1.821317     -0.756730      0.805405
  H      -1.663816      0.877347      0.822556
  H       2.666837     -0.454900     -0.097853
  O      -5.705354     -0.620273     -1.237932
  C      -5.008389     -0.207786     -2.064561
  O      -4.365064      0.205819     -2.938447
14
Coordinates from ORCA-job ./orca E -399.100848096316
  O       1.866349     -0.346068     -0.625279
  N      -1.743930      0.063754      0.172266
  C      -0.497406     -0.047380     -0.600284
  C       0.742570     -0.237449      0.250557
  H      -0.384391      0.854392     -1.204092
  H      -0.592629     -0.893152     -1.282786
  H       0.645181     -1.144359      0.853801
  H       0.869741      0.614635      0.923733
  H      -1.805011     -0.743054      0.784534
  H      -1.651415      0.855385      0.800293
  H       2.655478     -0.456271     -0.087431
  O      -5.684193     -0.621199     -1.220348
  C      -5.007355     -0.207043     -2.060432
  O      -4.359970      0.206496     -2.925214
14
Coordinates from ORCA-job ./orca E -399.100985263278
  O       1.865456     -0.346058     -0.621934
  N      -1.740240      0.062987      0.169072
  C      -0.499401     -0.047333     -0.604670
  C       0.738208     -0.237384      0.250187
  H      -0.386552      0.854777     -1.207568
  H      -0.592693     -0.892270     -1.289010
  H       0.638915     -1.144291      0.853184
  H       0.863573      0.614486      0.924016
  H      -1.804837     -0.744420      0.779872
  H      -1.651492      0.854705      0.795831
  H       2.653079     -0.456140     -0.081769
  O      -5.671078     -0.620293     -1.210027
  C      -5.006472     -0.206739     -2.059647
  O      -4.353447      0.206659     -2.918219
14
Coordinates from ORCA-job ./orca E -399.101051638244
  O       1.866790     -0.345563     -0.620350
  N      -1.737742      0.061871      0.169382
  C      -0.501233     -0.048392     -0.607658
  C       0.736236     -0.237495      0.248554
  H      -0.388630      0.853749     -1.210915
  H      -0.593507     -0.892504     -1.293319
  H       0.636148     -1.144364      0.851469
  H       0.859606      0.614284      0.922791
  H      -1.810033     -0.746727      0.778265
  H      -1.655910      0.856122      0.794735
  H       2.653270     -0.454562     -0.078344
  O      -5.661193     -0.618237     -1.202768
  C      -5.004423     -0.205833     -2.058924
  O      -4.346360      0.206338     -2.913597
14
Coordinates from ORCA-job ./orca E -399.101090862137
  O       1.867728     -0.344639     -0.621105
  N      -1.736319      0.060934      0.171714
  C      -0.502201     -0.049774     -0.607623
  C       0.736595     -0.237582      0.247368
  H      -0.390314      0.851983     -1.211801
  H      -0.595066     -0.893765     -1.293239
  H       0.637357     -1.144495      0.850361
  H       0.859000      0.614399      0.921467
  H      -1.815541     -0.748414      0.778491
  H      -1.660340      0.857121      0.795195
  H       2.654212     -0.452260     -0.078883
  O      -5.658153     -0.615601     -1.201200
  C      -5.001803     -0.205003     -2.058556
  O      -4.342137      0.205783     -2.912871
14
Coordinates from ORCA-job ./orca E -399.101080026834
  O       1.868028     -0.343193     -0.623703
  N      -1.735004      0.059767      0.175596
  C      -0.503126     -0.051690     -0.605581
  C       0.738197     -0.237596      0.246401
  H      -0.392717      0.849285     -1.211334
  H      -0.597788     -0.896186     -1.290209
  H       0.641266     -1.144546      0.849744
  H       0.860180      0.614918      0.919884
  H      -1.822465     -0.750497      0.779275
  H      -1.665802      0.858058      0.796586
  H       2.655442     -0.448941     -0.082488
  O      -5.657317     -0.611881     -1.202298
  C      -4.998065     -0.203535     -2.058530
  O      -4.337812      0.204724     -2.914023
14
Coordinates from ORCA-job ./orca E -399.101097382606
  O       1.867465     -0.342441     -0.625595
  N      -1.734976      0.059262      0.177314
  C      -0.503388     -0.052459     -0.603760
  C       0.739271     -0.237425      0.246444
  H      -0.393953      0.848017     -1.210421
  H      -0.599151     -0.897595     -1.287468
  H       0.643974     -1.144313      0.850147
  H       0.861592      0.615447      0.919441
  H      -1.824858     -0.751459      0.779665
  H      -1.667625      0.857962      0.797623
  H       2.655799     -0.447626     -0.085586
  O      -5.658114     -0.609916     -1.203997
  C      -4.996558     -0.202911     -2.059103
  O      -4.336460      0.204144     -2.915385
14
Coordinates from ORCA-job ./orca E -399.101090164492
  O       1.866800     -0.342012     -0.626910
  N      -1.735332      0.058935      0.178171
  C      -0.503559     -0.052787     -0.602487
  C       0.739865     -0.237133      0.246659
  H      -0.394853      0.847312     -1.209820
  H      -0.599870     -0.898466     -1.285495
  H       0.645698     -1.143870      0.850760
  H       0.862665      0.616012      0.919248
  H      -1.825799     -0.752146      0.779814
  H      -1.668327      0.857460      0.798611
  H       2.655836     -0.447207     -0.087905
  O      -5.658546     -0.608660     -1.205142
  C      -4.995915     -0.202417     -2.059798
  O      -4.335646      0.203664     -2.916387
14
Coordinates from ORCA-job ./orca E -399.099590540940
  O       1.870023     -0.343176     -0.627536
  N      -1.767059      0.059122      0.162719
  C      -0.500309     -0.051614     -0.606456
  C       0.741778     -0.237951      0.244302
  H      -0.382691      0.850883     -1.213895
  H      -0.591033     -0.898275     -1.288234
  H       0.645685     -1.145132      0.847434
  H       0.863952      0.614297      0.918144
  H      -1.836765     -0.762344      0.783918
  H      -1.682199      0.872049      0.803853
  H       2.658077     -0.449678     -0.087348
  O      -5.662845     -0.610976     -1.203717
  C      -4.970779     -0.203543     -2.036784
  O      -4.332817      0.205025     -2.917081
14
Coordinates from ORCA-job ./orca E -399.100835633498
  O       1.860742     -0.343363     -0.619834
  N      -1.755772      0.058874      0.152268
  C      -0.503466     -0.049384     -0.611413
  C       0.730736     -0.237247      0.248327
  H      -0.387852      0.852883     -1.213986
  H      -0.592054     -0.895054     -1.294948
  H       0.630958     -1.144549      0.850591
  H       0.851583      0.614911      0.922543
  H      -1.820081     -0.748760      0.763103
  H      -1.669296      0.850109      0.781581
  H       2.646587     -0.450934     -0.076695
  O      -5.641576     -0.611837     -1.185996
  C      -4.969690     -0.202691     -2.032438
  O      -4.327800      0.205729     -2.903784
14
Coordinates from ORCA-job ./orca E -399.100972889758
  O       1.859862     -0.343327     -0.616459
  N      -1.752065      0.058057      0.149064
  C      -0.505495     -0.049389     -0.615798
  C       0.726348     -0.237164      0.247897
  H      -0.390088      0.853202     -1.217483
  H      -0.592153     -0.894221     -1.301140
  H       0.624674     -1.144441      0.849949
  H       0.845324      0.614812      0.922724
  H      -1.819789     -0.750146      0.758484
  H      -1.669268      0.849353      0.777141
  H       2.644160     -0.450744     -0.070969
  O      -5.628435     -0.610820     -1.175680
  C      -4.968805     -0.202369     -2.031621
  O      -4.321251      0.205882     -2.896788
14
Coordinates from ORCA-job ./orca E -399.101038910175
  O       1.861186     -0.342830     -0.614901
  N      -1.749655      0.056894      0.149405
  C      -0.507355     -0.050448     -0.618727
  C       0.724407     -0.237264      0.246225
  H      -0.392228      0.852169     -1.220800
  H      -0.592960     -0.894452     -1.305382
  H       0.621952     -1.144488      0.848225
  H       0.841381      0.614640      0.921423
  H      -1.824928     -0.752458      0.756957
  H      -1.673710      0.850662      0.776107
  H       2.644328     -0.449149     -0.067578
  O      -5.618547     -0.608651     -1.168486
  C      -4.966783     -0.201449     -2.030955
  O      -4.314070      0.205510     -2.892195
14
Coordinates from ORCA-job ./orca E -399.101077960099
  O       1.862087     -0.341928     -0.615691
  N      -1.748312      0.055924      0.151764
  C      -0.508336     -0.051792     -0.618646
  C       0.724787     -0.237353      0.245047
  H      -0.393944      0.850452     -1.221636
  H      -0.594486     -0.895662     -1.305286
  H       0.623179     -1.144614      0.847137
  H       0.840834      0.614754      0.920095
  H      -1.830375     -0.754155      0.757228
  H      -1.678178      0.851577      0.776617
  H       2.645246     -0.446858     -0.068176
  O      -5.615525     -0.605936     -1.166974
  C      -4.964186     -0.200618     -2.030658
  O      -4.309774      0.204895     -2.891500
14
Coordinates from ORCA-job ./orca E -399.101066879796
  O       1.862354     -0.340499     -0.618347
  N      -1.747032      0.054689      0.155730
  C      -0.509297     -0.053675     -0.616562
  C       0.726405     -0.237371      0.244086
  H      -0.396429      0.847807     -1.221117
  H      -0.597200     -0.898022     -1.302282
  H       0.627095     -1.144667      0.846536
  H       0.842071      0.615258      0.918525
  H      -1.837316     -0.756316      0.758039
  H      -1.683780      0.852434      0.778063
  H       2.646476     -0.443502     -0.071868
  O      -5.614665     -0.602046     -1.168099
  C      -4.960394     -0.199128     -2.030706
  O      -4.305268      0.203725     -2.892679
14
Coordinates from ORCA-job ./orca E -399.101084576261
  O       1.861784     -0.339757     -0.620258
  N      -1.746992      0.054149      0.157489
  C      -0.509576     -0.054429     -0.614732
  C       0.727478     -0.237200      0.244142
  H      -0.397707      0.846576     -1.220168
  H      -0.598576     -0.899399     -1.299568
  H       0.629793     -1.144436      0.846955
  H       0.843508      0.615773      0.918109
  H      -1.839699     -0.757331      0.758416
  H      -1.685653      0.852308      0.779117
  H       2.646850     -0.442164     -0.075000
  O      -5.615486     -0.599994     -1.169820
  C      -4.958850     -0.198483     -2.031293
  O      -4.303858      0.203075     -2.894070
14
Coordinates from ORCA-job ./orca E -399.101077187871
  O       1.861123     -0.339326     -0.621577
  N      -1.747337      0.053794      0.158359
  C      -0.509755     -0.054757     -0.613460
  C       0.728066     -0.236908      0.244368
  H      -0.398627      0.845892     -1.219538
  H      -0.599305     -0.900254     -1.297618
  H       0.631507     -1.143994      0.847580
  H       0.844586      0.616330      0.917940
  H      -1.840608     -0.758062      0.758554
  H      -1.686353      0.851777      0.780108
  H       2.646906     -0.441713     -0.077324
  O      -5.615961     -0.598659     -1.170978
  C      -4.958192     -0.197977     -2.031994
  O      -4.303030      0.202544     -2.895100
14
Coordinates from ORCA-job ./orca E -399.099556412886
  O       1.863778     -0.340226     -0.623234
  N      -1.779761      0.053670      0.143623
  C      -0.506823     -0.054107     -0.616352
  C       0.730332     -0.237520      0.242168
  H      -0.386484      0.848888     -1.222641
  H      -0.590782     -0.900713     -1.299098
  H       0.633075     -1.145190      0.844390
  H       0.846988      0.615102      0.916496
  H      -1.852734     -0.768394      0.763408
  H      -1.701029      0.866166      0.785870
  H       2.649188     -0.443587     -0.078625
  O      -5.620593     -0.600290     -1.170373
  C      -4.932821     -0.198745     -2.009721
  O      -4.299315      0.203633     -2.896592
14
Coordinates from ORCA-job ./orca E -399.100796884385
  O       1.852778     -0.340291     -0.619634
  N      -1.770080      0.055198      0.136220
  C      -0.511494     -0.050464     -0.617591
  C       0.720277     -0.237682      0.245793
  H      -0.393202      0.852087     -1.219285
  H      -0.593429     -0.895895     -1.302236
  H       0.620671     -1.146509      0.845788
  H       0.837970      0.613488      0.921763
  H      -1.838165     -0.752628      0.746387
  H      -1.690545      0.846786      0.765907
  H       2.637570     -0.446194     -0.074668
  O      -5.598679     -0.601142     -1.155771
  C      -4.929577     -0.198594     -2.007506
  O      -4.291076      0.200527     -2.885846
14
Coordinates from ORCA-job ./orca E -399.100949256098
  O       1.850402     -0.340670     -0.617517
  N      -1.766226      0.055444      0.134029
  C      -0.514162     -0.048842     -0.621232
  C       0.715511     -0.237969      0.245355
  H      -0.396364      0.854435     -1.221459
  H      -0.594360     -0.892918     -1.308434
  H       0.613652     -1.147346      0.844210
  H       0.832709      0.612048      0.922965
  H      -1.837243     -0.752779      0.742864
  H      -1.690742      0.847154      0.762193
  H       2.633990     -0.448110     -0.071031
  O      -5.584248     -0.599854     -1.145540
  C      -4.927014     -0.200438     -2.007545
  O      -4.282888      0.198534     -2.879541
14
Coordinates from ORCA-job ./orca E -399.101021329268
  O       1.851130     -0.340961     -0.615507
  N      -1.763010      0.055061      0.134609
  C      -0.516149     -0.048356     -0.625272
  C       0.712599     -0.238159      0.243502
  H      -0.398829      0.855680     -1.224804
  H      -0.595833     -0.890752     -1.314879
  H       0.608462     -1.147693      0.841731
  H       0.828318      0.611092      0.922302
  H      -1.840668     -0.754562      0.741433
  H      -1.694389      0.849171      0.761604
  H       2.633061     -0.449045     -0.066795
  O      -5.572621     -0.598446     -1.137174
  C      -4.924109     -0.200714     -2.006519
  O      -4.274941      0.196371     -2.874912
14
Coordinates from ORCA-job ./orca E -399.101034679088
  O       1.852554     -0.340428     -0.615092
  N      -1.761184      0.054180      0.136628
  C      -0.516791     -0.049263     -0.626557
  C       0.712412     -0.238181      0.242106
  H      -0.400183      0.854959     -1.226112
  H      -0.597609     -0.890938     -1.316728
  H       0.607957     -1.147633      0.840405
  H       0.826734      0.611208      0.920894
  H      -1.844556     -0.756360      0.741270
  H      -1.697556      0.849821      0.762136
  H       2.633794     -0.447707     -0.065289
  O      -5.569519     -0.595814     -1.134674
  C      -4.921610     -0.200571     -2.005615
  O      -4.271425      0.195415     -2.874052
14
Coordinates from ORCA-job ./orca E -399.101047887072
  O       1.853979     -0.339316     -0.615645
  N      -1.759328      0.052747      0.139578
  C      -0.517163     -0.051232     -0.626499
  C       0.713336     -0.238071      0.240875
  H      -0.401828      0.852833     -1.226620
  H      -0.600414     -0.892833     -1.316208
  H       0.609875     -1.147207      0.839853
  H       0.826025      0.612186      0.918790
  H      -1.849487     -0.758992      0.740979
  H      -1.701038      0.849875      0.763206
  H       2.635105     -0.444642     -0.065342
  O      -5.568731     -0.592359     -1.134406
  C      -4.918723     -0.198856     -2.004557
  O      -4.268589      0.194554     -2.874686
14
Coordinates from ORCA-job ./orca E -399.101064758828
  O       1.854112     -0.338364     -0.616697
  N      -1.759043      0.051845      0.140871
  C      -0.517252     -0.052584     -0.625362
  C       0.714293     -0.237917      0.240783
  H      -0.402772      0.851074     -1.226260
  H      -0.601841     -0.894796     -1.314119
  H       0.612371     -1.146823      0.840389
  H       0.826384      0.613049      0.917918
  H      -1.851735     -0.760496      0.740703
  H      -1.702275      0.849252      0.763923
  H       2.635799     -0.442327     -0.066919
  O      -5.569617     -0.589847     -1.135432
  C      -4.917580     -0.197867     -2.004750
  O      -4.267827      0.194487     -2.875727
14
Coordinates from ORCA-job ./orca E -399.101060686342
  O       1.853770     -0.337504     -0.617897
  N      -1.759302      0.051085      0.141657
  C      -0.517393     -0.053704     -0.624047
  C       0.715087     -0.237647      0.240996
  H      -0.403659      0.849369     -1.225971
  H      -0.602734     -0.896754     -1.311720
  H       0.614839     -1.146280      0.841290
  H       0.826975      0.613966      0.917376
  H      -1.853355     -0.761782      0.740385
  H      -1.702997      0.848304      0.764804
  H       2.636210     -0.440409     -0.068969
  O      -5.570192     -0.587838     -1.136493
  C      -4.917065     -0.196577     -2.005339
  O      -4.267166      0.194459     -2.876752
14
Coordinates from ORCA-job ./orca E -399.099325269910
  O       1.857547     -0.337997     -0.619602
  N      -1.793215      0.051173      0.127916
  C      -0.513342     -0.053098     -0.627452
  C       0.718278     -0.238352      0.238538
  H      -0.390821      0.852146     -1.229626
  H      -0.589017     -0.897819     -1.314381
  H       0.617487     -1.147932      0.837307
  H       0.829959      0.612359      0.916090
  H      -1.868402     -0.771756      0.746532
  H      -1.719983      0.862923      0.771016
  H       2.639508     -0.441984     -0.070193
  O      -5.580698     -0.589267     -1.134245
  C      -4.892165     -0.197105     -1.983577
  O      -4.262119      0.195396     -2.879003
14
Coordinates from ORCA-job ./orca E -399.100765274733
  O       1.845017     -0.338673     -0.616015
  N      -1.781782      0.052676      0.119592
  C      -0.519113     -0.049236     -0.628433
  C       0.707038     -0.238329      0.242472
  H      -0.398742      0.855608     -1.226095
  H      -0.595688     -0.892665     -1.316104
  H       0.603638     -1.148710      0.839433
  H       0.820344      0.611170      0.921271
  H      -1.850898     -0.756201      0.728219
  H      -1.706797      0.843717      0.750517
  H       2.626468     -0.445248     -0.066418
  O      -5.553375     -0.591461     -1.121366
  C      -4.888184     -0.196750     -1.980784
  O      -4.254908      0.192787     -2.866968
14
Coordinates from ORCA-job ./orca E -399.100917787267
  O       1.842634     -0.339002     -0.614116
  N      -1.777927      0.052863      0.117527
  C      -0.522165     -0.047896     -0.631782
  C       0.702274     -0.238579      0.241914
  H      -0.402079      0.857494     -1.228351
  H      -0.598263     -0.890083     -1.321666
  H       0.596820     -1.149380      0.837978
  H       0.815041      0.609886      0.922199
  H      -1.850009     -0.756540      0.724967
  H      -1.706834      0.844173      0.747113
  H       2.622991     -0.446768     -0.063103
  O      -5.537315     -0.590038     -1.111565
  C      -4.885324     -0.199063     -1.981078
  O      -4.246826      0.191619     -2.860716
14
Coordinates from ORCA-job ./orca E -399.100975918174
  O       1.843304     -0.339113     -0.612627
  N      -1.775234      0.052548      0.118529
  C      -0.524241     -0.047885     -0.635149
  C       0.699757     -0.238809      0.240063
  H      -0.404338      0.857882     -1.231541
  H      -0.600521     -0.888620     -1.327118
  H       0.592631     -1.149670      0.835767
  H       0.811041      0.609094      0.921266
  H      -1.853939     -0.758001      0.724110
  H      -1.710629      0.845922      0.746976
  H       2.622305     -0.446958     -0.059736
  O      -5.525513     -0.588954     -1.103992
  C      -4.882425     -0.199010     -1.980426
  O      -4.239180      0.190261     -2.856802
14
Coordinates from ORCA-job ./orca E -399.101029311513
  O       1.844612     -0.338362     -0.612442
  N      -1.773477      0.051690      0.120876
  C      -0.525047     -0.049068     -0.636269
  C       0.699590     -0.238949      0.238601
  H      -0.405797      0.856697     -1.232969
  H      -0.602382     -0.889080     -1.328859
  H       0.592505     -1.149773      0.834366
  H       0.809344      0.609091      0.919798
  H      -1.858536     -0.759697      0.724180
  H      -1.714186      0.846616      0.747714
  H       2.623040     -0.445086     -0.058574
  O      -5.521784     -0.586068     -1.101209
  C      -4.879595     -0.198841     -1.979788
  O      -4.235271      0.189517     -2.856107
14
Coordinates from ORCA-job ./orca E -399.101019554133
  O       1.845757     -0.337121     -0.613192
  N      -1.771751      0.050399      0.123879
  C      -0.525523     -0.051116     -0.636005
  C       0.700476     -0.238955      0.237485
  H      -0.407501      0.854333     -1.233508
  H      -0.604844     -0.891127     -1.328139
  H       0.594681     -1.149561      0.833843
  H       0.808653      0.609878      0.917907
  H      -1.863694     -0.762105      0.724010
  H      -1.717607      0.846735      0.748870
  H       2.624229     -0.441759     -0.059018
  O      -5.520694     -0.582739     -1.100881
  C      -4.876653     -0.196930     -1.978962
  O      -4.232510      0.188756     -2.856970
14
Coordinates from ORCA-job ./orca E -399.101037872376
  O       1.845867     -0.336109     -0.614360
  N      -1.771406      0.049434      0.125346
  C      -0.525657     -0.052536     -0.634748
  C       0.701501     -0.238782      0.237409
  H      -0.408631      0.852472     -1.233115
  H      -0.606163     -0.893221     -1.325866
  H       0.597362     -1.149160      0.834413
  H       0.809118      0.610777      0.917027
  H      -1.866280     -0.763769      0.723671
  H      -1.718957      0.846090      0.749698
  H       2.624967     -0.439323     -0.060791
  O      -5.521564     -0.579995     -1.101974
  C      -4.875330     -0.195850     -1.979176
  O      -4.231808      0.188659     -2.858215
14
Coordinates from ORCA-job ./orca E -399.101032536985
  O       1.845516     -0.335322     -0.615574
  N      -1.771652      0.048654      0.126149
  C      -0.525814     -0.053575     -0.633402
  C       0.702308     -0.238449      0.237654
  H      -0.409616      0.850871     -1.232778
  H      -0.606936     -0.895138     -1.323404
  H       0.599766     -1.148536      0.835365
  H       0.809857      0.611754      0.916503
  H      -1.867952     -0.765162      0.723241
  H      -1.719649      0.845096      0.750640
  H       2.625379     -0.437582     -0.062881
  O      -5.522068     -0.578000     -1.103057
  C      -4.874800     -0.194541     -1.979760
  O      -4.231321      0.188618     -2.859376
14
Coordinates from ORCA-job ./orca E -399.099285343865
  O       1.849331     -0.335817     -0.617236
  N      -1.805552      0.048718      0.112469
  C      -0.521714     -0.052955     -0.636892
  C       0.705496     -0.239133      0.235173
  H      -0.396763      0.853679     -1.236561
  H      -0.593203     -0.896224     -1.326186
  H       0.602385     -1.150156      0.831361
  H       0.812801      0.610174      0.915182
  H      -1.883039     -0.775199      0.729427
  H      -1.736738      0.859708      0.756923
  H       2.628684     -0.439156     -0.064023
  O      -5.532611     -0.579396     -1.100703
  C      -4.849842     -0.195033     -1.958015
  O      -4.226217      0.189476     -2.861601
14
Coordinates from ORCA-job ./orca E -399.100728242475
  O       1.836792     -0.336533     -0.613522
  N      -1.793912      0.050148      0.104014
  C      -0.527466     -0.049145     -0.638015
  C       0.694132     -0.239045      0.239085
  H      -0.404749      0.857061     -1.233129
  H      -0.599854     -0.891121     -1.327935
  H       0.588342     -1.150791      0.833547
  H       0.802971      0.609132      0.920253
  H      -1.865198     -0.759746      0.711028
  H      -1.723150      0.840427      0.736326
  H       2.615567     -0.442399     -0.060015
  O      -5.505332     -0.581575     -1.087785
  C      -4.845849     -0.194686     -1.955053
  O      -4.219275      0.186961     -2.849480
14
Coordinates from ORCA-job ./orca E -399.100883621647
  O       1.834466     -0.336867     -0.611560
  N      -1.790061      0.050266      0.101874
  C      -0.530496     -0.047869     -0.641377
  C       0.689389     -0.239240      0.238524
  H      -0.408107      0.858870     -1.235402
  H      -0.602378     -0.888639     -1.333432
  H       0.581548     -1.151350      0.832167
  H       0.797645      0.607968      0.921094
  H      -1.864264     -0.760169      0.707692
  H      -1.723099      0.840771      0.732907
  H       2.612122     -0.443871     -0.056607
  O      -5.489312     -0.580111     -1.078029
  C      -4.843094     -0.196925     -1.955285
  O      -4.211342      0.185852     -2.843247
14
Coordinates from ORCA-job ./orca E -399.100943792071
  O       1.835169     -0.336915     -0.610060
  N      -1.787467      0.049881      0.102817
  C      -0.532562     -0.047937     -0.644689
  C       0.686933     -0.239435      0.236681
  H      -0.410372      0.859158     -1.238583
  H      -0.604558     -0.887319     -1.338755
  H       0.577482     -1.151585      0.830002
  H       0.793665      0.607243      0.920121
  H      -1.868278     -0.761694      0.706760
  H      -1.726916      0.842377      0.732764
  H       2.611473     -0.443940     -0.053241
  O      -5.477465     -0.578850     -1.070430
  C      -4.840311     -0.196826     -1.954681
  O      -4.203775      0.184528     -2.839387
14
Coordinates from ORCA-job ./orca E -399.100994008330
  O       1.836437     -0.336118     -0.609926
  N      -1.785816      0.048993      0.105137
  C      -0.533354     -0.049152     -0.645716
  C       0.686824     -0.239565      0.235263
  H      -0.411809      0.857909     -1.239965
  H      -0.606329     -0.887862     -1.340349
  H       0.577489     -1.151680      0.828655
  H       0.792049      0.607261      0.918674
  H      -1.872951     -0.763423      0.706786
  H      -1.730509      0.842971      0.733540
  H       2.612211     -0.441991     -0.052194
  O      -5.473707     -0.575862     -1.067685
  C      -4.837571     -0.196570     -1.954113
  O      -4.199946      0.183774     -2.838789
14
Coordinates from ORCA-job ./orca E -399.100981598813
  O       1.837568     -0.334783     -0.610742
  N      -1.784122      0.047643      0.108214
  C      -0.533857     -0.051258     -0.645375
  C       0.687760     -0.239575      0.234158
  H      -0.413560      0.855454     -1.240497
  H      -0.608770     -0.889997     -1.339539
  H       0.579810     -1.151496      0.828136
  H       0.791398      0.608034      0.916806
  H      -1.878367     -0.765933      0.706550
  H      -1.734107      0.843006      0.734782
  H       2.613427     -0.438514     -0.052754
  O      -5.472438     -0.572251     -1.067267
  C      -4.834569     -0.194587     -1.953367
  O      -4.197155      0.182944     -2.839785
14
Coordinates from ORCA-job ./orca E -399.101000358439
  O       1.837667     -0.333728     -0.611940
  N      -1.783760      0.046650      0.109722
  C      -0.534006     -0.052688     -0.644078
  C       0.688801     -0.239406      0.234101
  H      -0.414719      0.853572     -1.240092
  H      -0.610091     -0.892110     -1.337232
  H       0.582541     -1.151113      0.828713
  H       0.791886      0.608912      0.915961
  H      -1.881055     -0.767671      0.706141
  H      -1.735523      0.842308      0.735667
  H       2.614178     -0.436013     -0.054583
  O      -5.473222     -0.569352     -1.068310
  C      -4.833196     -0.193447     -1.953603
  O      -4.196484      0.182773     -2.841149
14
Coordinates from ORCA-job ./orca E -399.100994726192
  O       1.837312     -0.332902     -0.613171
  N      -1.783995      0.045841      0.110543
  C      -0.534166     -0.053734     -0.642696
  C       0.689621     -0.239076      0.234369
  H      -0.415720      0.851961     -1.239735
  H      -0.610867     -0.894043     -1.334735
  H       0.584987     -1.150505      0.829683
  H       0.792644      0.609874      0.915479
  H      -1.882779     -0.769139      0.705633
  H      -1.736234      0.841251      0.736662
  H       2.614609     -0.434209     -0.056709
  O      -5.473682     -0.567190     -1.069350
  C      -4.832635     -0.192094     -1.954208
  O      -4.196077      0.182651     -2.842445
14
Coordinates from ORCA-job ./orca E -399.099233541885
  O       1.841167     -0.333399     -0.614783
  N      -1.817878      0.045885      0.096923
  C      -0.530015     -0.053096     -0.646278
  C       0.692803     -0.239737      0.231865
  H      -0.402852      0.854801     -1.243655
  H      -0.597119     -0.895147     -1.337646
  H       0.587568     -1.152090      0.825659
  H       0.795542      0.608325      0.914124
  H      -1.897902     -0.779248      0.711849
  H      -1.753422      0.855851      0.743020
  H       2.617920     -0.435783     -0.057758
  O      -5.484261     -0.568550     -1.066883
  C      -4.807616     -0.192554     -1.932480
  O      -4.190919      0.183428     -2.844637
14
Coordinates from ORCA-job ./orca E -399.100679482659
  O       1.828621     -0.334148     -0.610946
  N      -1.806035      0.047246      0.088351
  C      -0.535764     -0.049359     -0.647548
  C       0.681309     -0.239600      0.235747
  H      -0.410899      0.858077     -1.240336
  H      -0.603761     -0.890094     -1.339444
  H       0.573357     -1.152600      0.827898
  H       0.785474      0.607421      0.919074
  H      -1.879719     -0.763883      0.693418
  H      -1.739436      0.836514      0.722327
  H       2.604733     -0.438972     -0.053520
  O      -5.457054     -0.570707     -1.053937
  C      -4.803601     -0.192201     -1.929354
  O      -4.184209      0.180993     -2.832410
14
Coordinates from ORCA-job ./orca E -399.100834621734
  O       1.826348     -0.334457     -0.608910
  N      -1.802170      0.047303      0.086133
  C      -0.538784     -0.048161     -0.650934
  C       0.676566     -0.239765      0.235175
  H      -0.414270      0.859793     -1.242641
  H      -0.606253     -0.887710     -1.344908
  H       0.566587     -1.153094      0.826559
  H       0.780066      0.606334      0.919848
  H      -1.878702     -0.764356      0.690021
  H      -1.739269      0.836769      0.718869
  H       2.601311     -0.440343     -0.049999
  O      -5.441083     -0.569180     -1.044219
  C      -4.800943     -0.194364     -1.929512
  O      -4.176387      0.179918     -2.826164
14
Coordinates from ORCA-job ./orca E -399.100895572499
  O       1.827090     -0.334420     -0.607396
  N      -1.799675      0.046856      0.087021
  C      -0.540840     -0.048322     -0.654196
  C       0.674167     -0.239952      0.233340
  H      -0.416518      0.859962     -1.245814
  H      -0.608364     -0.886527     -1.350121
  H       0.562665     -1.153319      0.824416
  H       0.776076      0.605638      0.918852
  H      -1.882759     -0.765914      0.689058
  H      -1.743082      0.838257      0.718707
  H       2.600705     -0.440232     -0.046625
  O      -5.429278     -0.567727     -1.036642
  C      -4.798283     -0.194212     -1.928941
  O      -4.168886      0.178598     -2.822341
14
Coordinates from ORCA-job ./orca E -399.100944565339
  O       1.828338     -0.333559     -0.607286
  N      -1.798114      0.045940      0.089312
  C      -0.541624     -0.049569     -0.655161
  C       0.674098     -0.240090      0.231948
  H      -0.417930      0.858661     -1.247171
  H      -0.610065     -0.887141     -1.351627
  H       0.562780     -1.153442      0.823078
  H       0.774491      0.605637      0.917436
  H      -1.887480     -0.767653      0.689063
  H      -1.746702      0.838775      0.719492
  H       2.601443     -0.438181     -0.045633
  O      -5.425499     -0.564622     -1.033914
  C      -4.795631     -0.193880     -1.928421
  O      -4.165088      0.177811     -2.821796
14
Coordinates from ORCA-job ./orca E -399.100931645251
  O       1.829454     -0.332120     -0.608148
  N      -1.796458      0.044538      0.092431
  C      -0.542147     -0.051720     -0.654764
  C       0.675067     -0.240124      0.230855
  H      -0.419698      0.856141     -1.247692
  H      -0.612479     -0.889337     -1.350762
  H       0.565216     -1.153322      0.822530
  H       0.773846      0.606354      0.915620
  H      -1.893063     -0.770229      0.688788
  H      -1.750430      0.838741      0.720777
  H       2.602672     -0.434545     -0.046273
  O      -5.424115     -0.560735     -1.033426
  C      -4.792602     -0.191844     -1.927746
  O      -4.162243      0.176889     -2.822871
14
Coordinates from ORCA-job ./orca E -399.100951133656
  O       1.829551     -0.331012     -0.609376
  N      -1.796077      0.043509      0.093987
  C      -0.542310     -0.053167     -0.653432
  C       0.676127     -0.239965      0.230812
  H      -0.420887      0.854238     -1.247271
  H      -0.613816     -0.891469     -1.348430
  H       0.568004     -1.152973      0.823105
  H       0.774350      0.607202      0.914816
  H      -1.895854     -0.772039      0.688324
  H      -1.751930      0.838003      0.721705
  H       2.603447     -0.431965     -0.048157
  O      -5.424845     -0.557666     -1.034441
  C      -4.791177     -0.190636     -1.927997
  O      -4.161565      0.176628     -2.824326
14
Coordinates from ORCA-job ./orca E -399.100945234702
  O       1.829195     -0.330154     -0.610617
  N      -1.796300      0.042672      0.094818
  C      -0.542473     -0.054208     -0.652027
  C       0.676955     -0.239636      0.231105
  H      -0.421900      0.852641     -1.246886
  H      -0.614588     -0.893392     -1.345929
  H       0.570470     -1.152382      0.824084
  H       0.775129      0.608141      0.914386
  H      -1.897604     -0.773568      0.687752
  H      -1.752672      0.836895      0.722729
  H       2.603898     -0.430131     -0.050315
  O      -5.425295     -0.555353     -1.035453
  C      -4.790591     -0.189260     -1.928619
  O      -4.161205      0.176422     -2.825709
14
Coordinates from ORCA-job ./orca E -399.099166843934
  O       1.833091     -0.330655     -0.612172
  N      -1.830160      0.042699      0.081257
  C      -0.538266     -0.053548     -0.655710
  C       0.680129     -0.240273      0.228576
  H      -0.409017      0.855515     -1.250951
  H      -0.600823     -0.894511     -1.348980
  H       0.573005     -1.153929      0.820041
  H       0.777977      0.606626      0.912993
  H      -1.912758     -0.783756      0.693993
  H      -1.769951      0.851479      0.729164
  H       2.607210     -0.431709     -0.051257
  O      -5.435908     -0.556674     -1.032867
  C      -4.765511     -0.189692     -1.906906
  O      -4.155999      0.177115     -2.827861
14
Coordinates from ORCA-job ./orca E -399.100616041132
  O       1.820539     -0.331428     -0.608222
  N      -1.818116      0.043985      0.072578
  C      -0.544016     -0.049897     -0.657118
  C       0.668508     -0.240089      0.232419
  H      -0.417131      0.858669     -1.247742
  H      -0.607467     -0.889526     -1.350807
  H       0.558643     -1.154316      0.822326
  H       0.767666      0.605860      0.917812
  H      -1.894239     -0.768474      0.675548
  H      -1.755574      0.832092      0.708372
  H       2.593953     -0.434829     -0.046801
  O      -5.408778     -0.558798     -1.019894
  C      -4.761460     -0.189332     -1.903623
  O      -4.149510      0.174768     -2.815528
14
Coordinates from ORCA-job ./orca E -399.100766783115
  O       1.818314     -0.331719     -0.606119
  N      -1.814239      0.043983      0.070286
  C      -0.547032     -0.048777     -0.660519
  C       0.663768     -0.240224      0.231838
  H      -0.420520      0.860295     -1.250074
  H      -0.609936     -0.887243     -1.356226
  H       0.551899     -1.154743      0.821035
  H       0.762188      0.604855      0.918513
  H      -1.893135     -0.768994      0.672091
  H      -1.755297      0.832261      0.704876
  H       2.590552     -0.436105     -0.043175
  O      -5.392845     -0.557228     -1.010223
  C      -4.758899     -0.191407     -1.903707
  O      -4.141801      0.173732     -2.809276
14
Coordinates from ORCA-job ./orca E -399.100827098325
  O       1.819086     -0.331610     -0.604608
  N      -1.811845      0.043474      0.071132
  C      -0.549078     -0.049024     -0.663713
  C       0.661433     -0.240400      0.230010
  H      -0.422754      0.860350     -1.253222
  H      -0.611984     -0.886189     -1.361311
  H       0.548132     -1.154949      0.818928
  H       0.758212      0.604199      0.917484
  H      -1.897229     -0.770581      0.671113
  H      -1.759116      0.833638      0.704705
  H       2.589986     -0.435841     -0.039822
  O      -5.381095     -0.555616     -1.002712
  C      -4.756353     -0.191200     -1.903173
  O      -4.134378      0.172435     -2.805492
14
Coordinates from ORCA-job ./orca E -399.100878509977
  O       1.820312     -0.330694     -0.604521
  N      -1.810369      0.042530      0.073398
  C      -0.549863     -0.050297     -0.664621
  C       0.661398     -0.240547      0.228642
  H      -0.424151      0.859008     -1.254560
  H      -0.613626     -0.886861     -1.362741
  H       0.548344     -1.155098      0.817601
  H       0.756655      0.604178      0.916096
  H      -1.902001     -0.772331      0.671101
  H      -1.762783      0.834091      0.705491
  H       2.590720     -0.433708     -0.038884
  O      -5.377252     -0.552413     -0.999988
  C      -4.753780     -0.190797     -1.902703
  O      -4.130587      0.171628     -2.804990
14
Coordinates from ORCA-job ./orca E -399.100867072522
  O       1.821408     -0.329159     -0.605427
  N      -1.808764      0.041080      0.076549
  C      -0.550407     -0.052481     -0.664167
  C       0.662397     -0.240606      0.227565
  H      -0.425931      0.856437     -1.255064
  H      -0.616003     -0.889106     -1.361830
  H       0.550882     -1.155045      0.817026
  H       0.756021      0.604830      0.914338
  H      -1.907727     -0.774954      0.670804
  H      -1.766640      0.833997      0.706807
  H       2.591958     -0.429939     -0.039605
  O      -5.375738     -0.548283     -0.999439
  C      -4.750737     -0.188720     -1.902104
  O      -4.127701      0.170635     -2.806135
14
Coordinates from ORCA-job ./orca E -399.100887467887
  O       1.821502     -0.328000     -0.606691
  N      -1.808364      0.040010      0.078164
  C      -0.550584     -0.053949     -0.662796
  C       0.663481     -0.240459      0.227534
  H      -0.427153      0.854506     -1.254619
  H      -0.617357     -0.891258     -1.359469
  H       0.553733     -1.154727      0.817592
  H       0.756552      0.605646      0.913570
  H      -1.910630     -0.776836      0.670299
  H      -1.768242      0.833222      0.707778
  H       2.592753     -0.427275     -0.041549
  O      -5.376409     -0.545050     -1.000440
  C      -4.749251     -0.187440     -1.902374
  O      -4.127013      0.170296     -2.807678
14
Coordinates from ORCA-job ./orca E -399.100881231636
  O       1.821145     -0.327124     -0.607943
  N      -1.808575      0.039147      0.079007
  C      -0.550747     -0.054981     -0.661368
  C       0.664316     -0.240135      0.227850
  H      -0.428177      0.852930     -1.254198
  H      -0.618123     -0.893161     -1.356965
  H       0.556214     -1.154155      0.818582
  H       0.757359      0.606562      0.913185
  H      -1.912392     -0.778417      0.669678
  H      -1.769015      0.832071      0.708823
  H       2.593222     -0.425419     -0.043736
  O      -5.376862     -0.542612     -1.001444
  C      -4.748639     -0.186043     -1.903012
  O      -4.126708      0.170023     -2.809140
14
Coordinates from ORCA-job ./orca E -399.099083044479
  O       1.825083     -0.327630     -0.609433
  N      -1.842407      0.039159      0.065502
  C      -0.546483     -0.054296     -0.665161
  C       0.667477     -0.240746      0.225296
  H      -0.415278      0.855841     -1.258419
  H      -0.604342     -0.894294     -1.360166
  H       0.558692     -1.155660      0.814519
  H       0.760149      0.605084      0.911753
  H      -1.927573     -0.788692      0.675937
  H      -1.786376      0.846636      0.715335
  H       2.596534     -0.427000     -0.044558
  O      -5.387505     -0.543892     -0.998732
  C      -4.723495     -0.186451     -1.881311
  O      -4.121460      0.170629     -2.811244
14
Coordinates from ORCA-job ./orca E -399.100535441650
  O       1.812524     -0.328411     -0.605376
  N      -1.830156      0.040383      0.056730
  C      -0.552235     -0.050734     -0.666704
  C       0.655733     -0.240516      0.229097
  H      -0.423460      0.858873     -1.255322
  H      -0.610998     -0.889380     -1.362018
  H       0.544185     -1.155944      0.816830
  H       0.749591      0.604437      0.916457
  H      -1.908718     -0.773472      0.657496
  H      -1.771609      0.827223      0.694443
  H       2.583207     -0.430056     -0.039893
  O      -5.360453     -0.545974     -0.985726
  C      -4.719388     -0.186109     -1.877873
  O      -4.115205      0.168369     -2.798821
14
Coordinates from ORCA-job ./orca E -399.100685550720
  O       1.810350     -0.328681     -0.603202
  N      -1.826257      0.040341      0.054365
  C      -0.555245     -0.049684     -0.670123
  C       0.650994     -0.240627      0.228504
  H      -0.426863      0.860416     -1.257679
  H      -0.613452     -0.887186     -1.367395
  H       0.537464     -1.156318      0.815570
  H       0.744038      0.603497      0.917097
  H      -1.907519     -0.774014      0.653984
  H      -1.771216      0.827335      0.690901
  H       2.579823     -0.431262     -0.036156
  O      -5.344551     -0.544406     -0.976109
  C      -4.716919     -0.188093     -1.877872
  O      -4.107629      0.167368     -2.792566
14
Coordinates from ORCA-job ./orca E -399.100746654718
  O       1.811155     -0.328509     -0.601681
  N      -1.823954      0.039797      0.055160
  C      -0.557277     -0.049995     -0.673255
  C       0.648720     -0.240801      0.226685
  H      -0.429074      0.860387     -1.260801
  H      -0.615443     -0.886236     -1.372366
  H       0.533832     -1.156523      0.813483
  H       0.740079      0.602859      0.916049
  H      -1.911638     -0.775600      0.652989
  H      -1.775036      0.828634      0.690701
  H       2.579290     -0.430886     -0.032806
  O      -5.332848     -0.542692     -0.968664
  C      -4.714488     -0.187856     -1.877361
  O      -4.100300      0.166108     -2.788814
14
Coordinates from ORCA-job ./orca E -399.100796884593
  O       1.812361     -0.327566     -0.601616
  N      -1.822561      0.038846      0.057397
  C      -0.558054     -0.051271     -0.674106
  C       0.648722     -0.240956      0.225340
  H      -0.430439      0.859030     -1.262106
  H      -0.617028     -0.886933     -1.373729
  H       0.534124     -1.156692      0.812169
  H       0.738574      0.602819      0.914685
  H      -1.916449     -0.777336      0.652962
  H      -1.778749      0.829047      0.691485
  H       2.580017     -0.428731     -0.031918
  O      -5.328965     -0.539475     -0.965982
  C      -4.711997     -0.187397     -1.876930
  O      -4.096537      0.165301     -2.788332
14
Coordinates from ORCA-job ./orca E -399.100785217592
  O       1.813431     -0.325987     -0.602565
  N      -1.821010      0.037380      0.060563
  C      -0.558604     -0.053445     -0.673591
  C       0.649754     -0.241034      0.224289
  H      -0.432204      0.856462     -1.262569
  H      -0.619352     -0.889170     -1.372781
  H       0.536732     -1.156688      0.811583
  H       0.737998      0.603415      0.912986
  H      -1.922297     -0.779969      0.652637
  H      -1.782731      0.828922      0.692819
  H       2.581251     -0.424935     -0.032724
  O      -5.327370     -0.535228     -0.965426
  C      -4.708955     -0.185321     -1.876400
  O      -4.093625      0.164285     -2.789500
14
Coordinates from ORCA-job ./orca E -399.100806071139
  O       1.813512     -0.324805     -0.603867
  N      -1.820589      0.036293      0.062226
  C      -0.558791     -0.054909     -0.672181
  C       0.650856     -0.240898      0.224274
  H      -0.433441      0.854538     -1.262089
  H      -0.620716     -0.891308     -1.370407
  H       0.539618     -1.156397      0.812151
  H       0.738568      0.604200      0.912256
  H      -1.925307     -0.781896      0.652082
  H      -1.784436      0.828132      0.693820
  H       2.582061     -0.422250     -0.034739
  O      -5.327994     -0.531908     -0.966434
  C      -4.707412     -0.183998     -1.876684
  O      -4.092911      0.163893     -2.791087
14
Coordinates from ORCA-job ./orca E -399.100799621451
  O       1.813156     -0.323928     -0.605120
  N      -1.820789      0.035435      0.063065
  C      -0.558953     -0.055910     -0.670745
  C       0.651691     -0.240584      0.224611
  H      -0.434452      0.853010     -1.261636
  H      -0.621470     -0.893159     -1.367928
  H       0.542080     -1.155856      0.813137
  H       0.739408      0.605072      0.911933
  H      -1.927078     -0.783486      0.651412
  H      -1.785238      0.826977      0.694867
  H       2.582542     -0.420420     -0.036941
  O      -5.328455     -0.529426     -0.967437
  C      -4.706786     -0.182617     -1.877329
  O      -4.092640      0.163577     -2.792568
14
Coordinates from ORCA-job ./orca E -399.098979540413
  O       1.817136     -0.324440     -0.606539
  N      -1.854587      0.035434      0.049617
  C      -0.554628     -0.055200     -0.674654
  C       0.654837     -0.241168      0.222031
  H      -0.421538      0.855957     -1.266019
  H      -0.607673     -0.894303     -1.371288
  H       0.544494     -1.157318      0.809056
  H       0.742134      0.603633      0.910458
  H      -1.942283     -0.793855      0.657688
  H      -1.802674      0.841518      0.701457
  H       2.585850     -0.422004     -0.037632
  O      -5.339123     -0.530659     -0.964597
  C      -4.681574     -0.183004     -1.855642
  O      -4.087354      0.164094     -2.794617
14
Coordinates from ORCA-job ./orca E -399.100434143786
  O       1.804573     -0.325212     -0.602388
  N      -1.842126      0.036607      0.040774
  C      -0.560381     -0.051736     -0.676326
  C       0.642980     -0.240901      0.225785
  H      -0.429785      0.858856     -1.263027
  H      -0.614350     -0.889470     -1.373150
  H       0.529869     -1.157519      0.811369
  H       0.731339      0.603085      0.915057
  H      -1.923117     -0.778676      0.639277
  H      -1.787526      0.822106      0.680468
  H       2.572457     -0.424981     -0.032778
  O      -5.312194     -0.532689     -0.951584
  C      -4.677389     -0.182700     -1.852046
  O      -4.081332      0.161916     -2.782110
14
Coordinates from ORCA-job ./orca E -399.100583188888
  O       1.802446     -0.325466     -0.600152
  N      -1.838195      0.036550      0.038348
  C      -0.563380     -0.050747     -0.679753
  C       0.638249     -0.240993      0.225179
  H      -0.433191      0.860326     -1.265405
  H      -0.616799     -0.887358     -1.378473
  H       0.523172     -1.157850      0.810132
  H       0.725724      0.602197      0.915639
  H      -1.921827     -0.779216      0.635716
  H      -1.787015      0.822195      0.676886
  H       2.569090     -0.426136     -0.028947
  O      -5.296374     -0.531182     -0.942068
  C      -4.675002     -0.184592     -1.851943
  O      -4.073880      0.160958     -2.775839
14
Coordinates from ORCA-job ./orca E -399.100645177032
  O       1.803289     -0.325247     -0.598622
  N      -1.835966      0.036009      0.039087
  C      -0.565394     -0.051093     -0.682823
  C       0.636038     -0.241168      0.223368
  H      -0.435364      0.860244     -1.268493
  H      -0.618746     -0.886476     -1.383337
  H       0.519659     -1.158061      0.808054
  H       0.721797      0.601565      0.914580
  H      -1.925971     -0.780762      0.634693
  H      -1.790836      0.823462      0.676643
  H       2.568589     -0.425720     -0.025600
  O      -5.284781     -0.529465     -0.934738
  C      -4.672682     -0.184355     -1.851433
  O      -4.066613      0.159751     -2.772057
14
Coordinates from ORCA-job ./orca E -399.100693896203
  O       1.804472     -0.324304     -0.598584
  N      -1.834653      0.035096      0.041283
  C      -0.566153     -0.052338     -0.683612
  C       0.636084     -0.241333      0.222052
  H      -0.436669      0.858907     -1.269753
  H      -0.620269     -0.887158     -1.384635
  H       0.520016     -1.158255      0.806750
  H       0.720377      0.601499      0.913252
  H      -1.930831     -0.782437      0.634642
  H      -1.794600      0.823882      0.677407
  H       2.569306     -0.423620     -0.024777
  O      -5.280937     -0.526346     -0.932156
  C      -4.670283     -0.183881     -1.851025
  O      -4.062842      0.158974     -2.771525
14
Coordinates from ORCA-job ./orca E -399.100682042042
  O       1.805509     -0.322732     -0.599583
  N      -1.833162      0.033681      0.044437
  C      -0.566693     -0.054448     -0.683029
  C       0.637158     -0.241431      0.221034
  H      -0.438376      0.856401     -1.270150
  H      -0.622532     -0.889320     -1.383662
  H       0.522671     -1.158301      0.806158
  H       0.719923      0.602030      0.911621
  H      -1.936811     -0.785002      0.634272
  H      -1.798714      0.823795      0.678729
  H       2.570529     -0.419927     -0.025687
  O      -5.279368     -0.522169     -0.931679
  C      -4.667268     -0.181875     -1.850545
  O      -4.059846      0.157984     -2.772597
14
Coordinates from ORCA-job ./orca E -399.100702942543
  O       1.805577     -0.321570     -0.600911
  N      -1.832727      0.032640      0.046106
  C      -0.566874     -0.055858     -0.681592
  C       0.638272     -0.241311      0.221040
  H      -0.439577      0.854542     -1.269627
  H      -0.623887     -0.891380     -1.381300
  H       0.525545     -1.158046      0.806716
  H       0.720558      0.602762      0.910952
  H      -1.939904     -0.786895      0.633658
  H      -1.800497      0.823053      0.679722
  H       2.571343     -0.417331     -0.027757
  O      -5.280030     -0.518931     -0.932745
  C      -4.665707     -0.180571     -1.850824
  O      -4.059072      0.157583     -2.774118
14
Coordinates from ORCA-job ./orca E -399.100696127973
  O       1.805218     -0.320757     -0.602139
  N      -1.832909      0.031851      0.046899
  C      -0.567017     -0.056771     -0.680177
  C       0.639086     -0.241014      0.221398
  H      -0.440517      0.853136     -1.269135
  H      -0.624601     -0.893094     -1.378909
  H       0.527900     -1.157535      0.807689
  H       0.721436      0.603575      0.910693
  H      -1.941636     -0.788415      0.632935
  H      -1.801290      0.821957      0.680731
  H       2.571816     -0.415649     -0.029936
  O      -5.280569     -0.516590     -0.933783
  C      -4.665098     -0.179278     -1.851445
  O      -4.058802      0.157271     -2.775500
14
Coordinates from ORCA-job ./orca E -399.098849249880
  O       1.809239     -0.321273     -0.603485
  N      -1.866673      0.031832      0.033514
  C      -0.562630     -0.056038     -0.684204
  C       0.642214     -0.241570      0.218791
  H      -0.427590      0.856116     -1.273685
  H      -0.610792     -0.894253     -1.382430
  H       0.530251     -1.158951      0.803591
  H       0.724095      0.602179      0.909173
  H      -1.956864     -0.798883      0.639231
  H      -1.818800      0.836471      0.687404
  H       2.575118     -0.417234     -0.030495
  O      -5.291254     -0.517768     -0.930821
  C      -4.639812     -0.179642     -1.829777
  O      -4.053484      0.157700     -2.777486
14
Coordinates from ORCA-job ./orca E -399.100304818587
  O       1.796663     -0.322018     -0.599275
  N      -1.853999      0.032956      0.024643
  C      -0.568390     -0.052690     -0.685984
  C       0.630259     -0.241273      0.222492
  H      -0.435902      0.858862     -1.270780
  H      -0.617513     -0.889521     -1.384278
  H       0.515546     -1.159082      0.805901
  H       0.713077      0.601720      0.913658
  H      -1.937427     -0.783739      0.620886
  H      -1.803287      0.817072      0.666340
  H       2.561665     -0.420098     -0.025505
  O      -5.264505     -0.519733     -0.917853
  C      -4.635514     -0.179379     -1.826022
  O      -4.047655      0.155610     -2.764903
14
Coordinates from ORCA-job ./orca E -399.100452745836
  O       1.794579     -0.322255     -0.597000
  N      -1.850032      0.032898      0.022177
  C      -0.571384     -0.051766     -0.689401
  C       0.625548     -0.241354      0.221873
  H      -0.439313      0.860252     -1.273160
  H      -0.619987     -0.887498     -1.389522
  H       0.508902     -1.159382      0.804685
  H       0.707426      0.600877      0.914183
  H      -1.936072     -0.784262      0.617290
  H      -1.802669      0.817168      0.662722
  H       2.558322     -0.421196     -0.021620
  O      -5.248828     -0.518325     -0.908493
  C      -4.633190     -0.181171     -1.825816
  O      -4.040285      0.154701     -2.758598
14
Coordinates from ORCA-job ./orca E -399.100515987972
  O       1.795441     -0.322014     -0.595480
  N      -1.847862      0.032387      0.022876
  C      -0.573392     -0.052135     -0.692403
  C       0.623396     -0.241535      0.220063
  H      -0.441453      0.860132     -1.276207
  H      -0.621917     -0.886667     -1.394280
  H       0.505502     -1.159603      0.802614
  H       0.703549      0.600244      0.913104
  H      -1.940274     -0.785743      0.616245
  H      -1.806512      0.818445      0.662430
  H       2.557840     -0.420762     -0.018305
  O      -5.237363     -0.516671     -0.901314
  C      -4.630951     -0.180964     -1.825303
  O      -4.032985      0.153574     -2.754719
14
Coordinates from ORCA-job ./orca E -399.100563237578
  O       1.796600     -0.321112     -0.595480
  N      -1.846620      0.031535      0.025041
  C      -0.574135     -0.053329     -0.693127
  C       0.623488     -0.241707      0.218770
  H      -0.442701      0.858838     -1.277412
  H      -0.623401     -0.887309     -1.395514
  H       0.505910     -1.159805      0.801331
  H       0.702241      0.600164      0.911787
  H      -1.945204     -0.787335      0.616164
  H      -1.810337      0.818901      0.663175
  H       2.558547     -0.418771     -0.017559
  O      -5.233601     -0.513749     -0.898878
  C      -4.628635     -0.180497     -1.824909
  O      -4.029133      0.152862     -2.754071
14
Coordinates from ORCA-job ./orca E -399.100551190306
  O       1.797599     -0.319611     -0.596540
  N      -1.845189      0.030219      0.028177
  C      -0.574658     -0.055335     -0.692476
  C       0.624606     -0.241822      0.217783
  H      -0.444328      0.856439     -1.277735
  H      -0.625612     -0.889350     -1.394517
  H       0.508572     -1.159881      0.800744
  H       0.701946      0.600645      0.910212
  H      -1.951309     -0.789784      0.615746
  H      -1.814576      0.818901      0.664480
  H       2.559752     -0.415276     -0.018585
  O      -5.232154     -0.509801     -0.898557
  C      -4.625654     -0.178613     -1.824464
  O      -4.025977      0.151957     -2.754947
14
Coordinates from ORCA-job ./orca E -399.100571924471
  O       1.797645     -0.318516     -0.597899
  N      -1.844745      0.029262      0.029841
  C      -0.574826     -0.056658     -0.691012
  C       0.625733     -0.241716      0.217813
  H      -0.445474      0.854680     -1.277160
  H      -0.626952     -0.891292     -1.392178
  H       0.511402     -1.159651      0.801304
  H       0.702689      0.601327      0.909596
  H      -1.954475     -0.791601      0.615073
  H      -1.816427      0.818242      0.665458
  H       2.560562     -0.412838     -0.020720
  O      -5.232930     -0.506767     -0.899740
  C      -4.624088     -0.177370     -1.824728
  O      -4.025096      0.151586     -2.756329
14
Coordinates from ORCA-job ./orca E -399.100564807670
  O       1.797287     -0.317797     -0.599091
  N      -1.844913      0.028586      0.030568
  C      -0.574944     -0.057452     -0.689637
  C       0.626518     -0.241439      0.218188
  H      -0.446323      0.853431     -1.276639
  H      -0.627620     -0.892834     -1.389903
  H       0.513607     -1.159180      0.802247
  H       0.703622      0.602064      0.909416
  H      -1.956140     -0.792987      0.614310
  H      -1.817187      0.817255      0.666405
  H       2.561021     -0.411370     -0.022855
  O      -5.233602     -0.504687     -0.900841
  C      -4.623518     -0.176213     -1.825310
  O      -4.024793      0.151309     -2.757537
14
Coordinates from ORCA-job ./orca E -399.098682161932
  O       1.801346     -0.318316     -0.600369
  N      -1.878648      0.028543      0.017256
  C      -0.570497     -0.056702     -0.693778
  C       0.629631     -0.241966      0.215554
  H      -0.433385      0.856440     -1.281355
  H      -0.613802     -0.894011     -1.393581
  H       0.515901     -1.160548      0.798134
  H       0.706214      0.600713      0.907848
  H      -1.971397     -0.803556      0.620632
  H      -1.834773      0.831741      0.673165
  H       2.564315     -0.412950     -0.023289
  O      -5.244294     -0.505802     -0.897774
  C      -4.598149     -0.176553     -1.803670
  O      -4.019445      0.151652     -2.759454
14
Coordinates from ORCA-job ./orca E -399.100136945234
  O       1.788735     -0.319031     -0.596148
  N      -1.865765      0.029614      0.008410
  C      -0.576275     -0.053483     -0.695631
  C       0.617591     -0.241637      0.219199
  H      -0.441775      0.859015     -1.278505
  H      -0.620590     -0.889396     -1.395375
  H       0.501157     -1.160604      0.800446
  H       0.695009      0.600353      0.912204
  H      -1.951725     -0.788460      0.602406
  H      -1.818918      0.812357      0.652070
  H       2.550805     -0.415685     -0.018249
  O      -5.217778     -0.507697     -0.884922
  C      -4.593697     -0.176319     -1.799766
  O      -4.013755      0.149658     -2.746820
14
Coordinates from ORCA-job ./orca E -399.100283754029
  O       1.786677     -0.319249     -0.593872
  N      -1.861763      0.029558      0.005940
  C      -0.579281     -0.052636     -0.699012
  C       0.612905     -0.241714      0.218564
  H      -0.445205      0.860309     -1.280869
  H      -0.623116     -0.887479     -1.400506
  H       0.494596     -1.160876      0.799256
  H       0.689336      0.599554      0.912658
  H      -1.950324     -0.788958      0.598807
  H      -1.818202      0.812470      0.648442
  H       2.547488     -0.416703     -0.014368
  O      -5.202287     -0.506399     -0.875768
  C      -4.591402     -0.178003     -1.799470
  O      -4.006403      0.148810     -2.740482
14
Coordinates from ORCA-job ./orca E -399.100348324262
  O       1.787526     -0.319012     -0.592402
  N      -1.859648      0.029080      0.006636
  C      -0.581307     -0.053019     -0.701925
  C       0.610806     -0.241898      0.216754
  H      -0.447346      0.860158     -1.283855
  H      -0.625072     -0.886693     -1.405136
  H       0.491306     -1.161089      0.797211
  H       0.685536      0.598939      0.911536
  H      -1.954597     -0.790376      0.597764
  H      -1.822084      0.813770      0.648127
  H       2.547016     -0.416274     -0.011152
  O      -5.190959     -0.504848     -0.868790
  C      -4.589204     -0.177836     -1.798975
  O      -3.998957      0.147785     -2.736472
14
Coordinates from ORCA-job ./orca E -399.100394500865
  O       1.788638     -0.318170     -0.592473
  N      -1.858481      0.028298      0.008805
  C      -0.582054     -0.054156     -0.702570
  C       0.610942     -0.242071      0.215478
  H      -0.448560      0.858910     -1.284999
  H      -0.626548     -0.887289     -1.406292
  H       0.491766     -1.161286      0.795957
  H       0.684369      0.598861      0.910215
  H      -1.959604     -0.791875      0.597687
  H      -1.825992      0.814281      0.648877
  H       2.547701     -0.414419     -0.010532
  O      -5.187300     -0.502163     -0.866549
  C      -4.586935     -0.177393     -1.798611
  O      -3.994924      0.147159     -2.735673
14
Coordinates from ORCA-job ./orca E -399.100382198090
  O       1.789570     -0.316778     -0.593636
  N      -1.857127      0.027102      0.011959
  C      -0.582578     -0.056037     -0.701830
  C       0.612102     -0.242189      0.214517
  H      -0.450136      0.856636     -1.285231
  H      -0.628740     -0.889192     -1.405244
  H       0.494432     -1.161365      0.795394
  H       0.684284      0.599313      0.908674
  H      -1.965810     -0.794182      0.597273
  H      -1.830354      0.814390      0.650192
  H       2.548877     -0.411187     -0.011740
  O      -5.186036     -0.498536     -0.866476
  C      -4.583966     -0.175661     -1.798222
  O      -3.991500      0.146374     -2.736311
14
Coordinates from ORCA-job ./orca E -399.100402948173
  O       1.789586     -0.315766     -0.595057
  N      -1.856676      0.026241      0.013663
  C      -0.582751     -0.057270     -0.700328
  C       0.613245     -0.242089      0.214559
  H      -0.451260      0.854978     -1.284603
  H      -0.630103     -0.891019     -1.402909
  H       0.497221     -1.161144      0.795954
  H       0.685154      0.599961      0.908090
  H      -1.969060     -0.795908      0.596582
  H      -1.832287      0.813839      0.651185
  H       2.549681     -0.408938     -0.013979
  O      -5.186957     -0.495759     -0.867835
  C      -4.582362     -0.174491     -1.798481
  O      -3.990414      0.146054     -2.737520
14
Coordinates from ORCA-job ./orca E -399.100395559274
  O       1.789213     -0.315144     -0.596238
  N      -1.856828      0.025677      0.014360
  C      -0.582863     -0.057956     -0.698982
  C       0.613998     -0.241830      0.214939
  H      -0.452046      0.853869     -1.284052
  H      -0.630762     -0.892402     -1.400728
  H       0.499287     -1.160703      0.796869
  H       0.686143      0.600636      0.907964
  H      -1.970658     -0.797160      0.595819
  H      -1.833007      0.812967      0.652095
  H       2.550119     -0.407673     -0.016105
  O      -5.187776     -0.493952     -0.869041
  C      -4.581798     -0.173472     -1.799034
  O      -3.990005      0.145827     -2.738546
14
Coordinates from ORCA-job ./orca E -399.098644763213
  O       1.792471     -0.314978     -0.597918
  N      -1.888558      0.025706      0.001587
  C      -0.579334     -0.057748     -0.702656
  C       0.616576     -0.242448      0.212345
  H      -0.446514      0.854123     -1.287210
  H      -0.616679     -0.894379     -1.403979
  H       0.501861     -1.162473      0.792455
  H       0.687972      0.599013      0.906670
  H      -1.984317     -0.806942      0.602548
  H      -1.848763      0.827736      0.658687
  H       2.552865     -0.408355     -0.017248
  O      -5.196259     -0.493733     -0.867054
  C      -4.553316     -0.172732     -1.778644
  O      -3.984988      0.145897     -2.740263
14
Coordinates from ORCA-job ./orca E -399.099930486806
  O       1.780229     -0.316166     -0.594371
  N      -1.877072      0.025985     -0.005771
  C      -0.585118     -0.054871     -0.704330
  C       0.605047     -0.241716      0.215575
  H      -0.453409      0.858256     -1.286377
  H      -0.623881     -0.890497     -1.404931
  H       0.487522     -1.161582      0.795149
  H       0.677690      0.599601      0.909930
  H      -1.966668     -0.793286      0.586094
  H      -1.834448      0.807749      0.639292
  H       2.539876     -0.411351     -0.013046
  O      -5.170110     -0.495849     -0.854308
  C      -4.549305     -0.172438     -1.774762
  O      -3.977335      0.144851     -2.728822
14
Coordinates from ORCA-job ./orca E -399.100074200889
  O       1.777914     -0.316565     -0.592575
  N      -1.873617      0.025478     -0.007707
  C      -0.588248     -0.054082     -0.707388
  C       0.600490     -0.241430      0.214871
  H      -0.455743      0.859569     -1.288836
  H      -0.626936     -0.888728     -1.409447
  H       0.481099     -1.161188      0.794362
  H       0.672564      0.599482      0.909858
  H      -1.965637     -0.794253      0.582743
  H      -1.834154      0.807166      0.636278
  H       2.536480     -0.412486     -0.009881
  O      -5.154760     -0.494535     -0.845650
  C      -4.547198     -0.174161     -1.774523
  O      -3.969236      0.144421     -2.722784
14
Coordinates from ORCA-job ./orca E -399.100125862218
  O       1.778402     -0.316504     -0.591521
  N      -1.871847      0.024739     -0.006715
  C      -0.590516     -0.054471     -0.710049
  C       0.598404     -0.241320      0.213051
  H      -0.456863      0.859145     -1.291599
  H      -0.629606     -0.888021     -1.413679
  H       0.477927     -1.160828      0.792798
  H       0.669157      0.599467      0.908290
  H      -1.969882     -0.796182      0.581725
  H      -1.838283      0.808139      0.636504
  H       2.535827     -0.412142     -0.007316
  O      -5.143447     -0.493181     -0.839251
  C      -4.545066     -0.173872     -1.774195
  O      -3.961188      0.143718     -2.718722
14
Coordinates from ORCA-job ./orca E -399.100174165472
  O       1.779253     -0.315717     -0.591859
  N      -1.870931      0.023968     -0.004514
  C      -0.591338     -0.055590     -0.710459
  C       0.598594     -0.241436      0.211900
  H      -0.457510      0.857769     -1.292392
  H      -0.631387     -0.888687     -1.414502
  H       0.478675     -1.160868      0.791899
  H       0.668241      0.599584      0.906907
  H      -1.974410     -0.797742      0.581727
  H      -1.841995      0.808514      0.637495
  H       2.536434     -0.410280     -0.007195
  O      -5.140517     -0.490613     -0.837692
  C      -4.542874     -0.173490     -1.774052
  O      -3.957216      0.143275     -2.717942
14
Coordinates from ORCA-job ./orca E -399.100193956616
  O       1.780016     -0.314241     -0.593280
  N      -1.869642      0.022870     -0.001106
  C      -0.592064     -0.057594     -0.709612
  C       0.599744     -0.241641      0.210926
  H      -0.458763      0.855286     -1.292419
  H      -0.634101     -0.890734     -1.413325
  H       0.481689     -1.160990      0.791466
  H       0.668088      0.600035      0.905250
  H      -1.980515     -0.800036      0.581474
  H      -1.846472      0.808702      0.639102
  H       2.537584     -0.406807     -0.008819
  O      -5.139633     -0.487050     -0.838134
  C      -4.539684     -0.171657     -1.773834
  O      -3.953231      0.142542     -2.718371
14
Coordinates from ORCA-job ./orca E -399.100185096822
  O       1.779981     -0.313140     -0.594671
  N      -1.869218      0.022215      0.000539
  C      -0.592294     -0.058795     -0.708200
  C       0.600763     -0.241689      0.210960
  H      -0.459836      0.853737     -1.291780
  H      -0.635525     -0.892486     -1.411144
  H       0.484426     -1.161024      0.791856
  H       0.668727      0.600402      0.904833
  H      -1.983429     -0.801413      0.581001
  H      -1.848163      0.808349      0.640028
  H       2.538326     -0.404556     -0.011027
  O      -5.140761     -0.484432     -0.839607
  C      -4.538089     -0.170673     -1.774132
  O      -3.951890      0.142192     -2.719335
14
Coordinates from ORCA-job ./orca E -399.100175805898
  O       1.779641     -0.312518     -0.595712
  N      -1.869337      0.021864      0.001141
  C      -0.592400     -0.059364     -0.707031
  C       0.601384     -0.241535      0.211290
  H      -0.460638      0.852847     -1.291307
  H      -0.636129     -0.893661     -1.409249
  H       0.486223     -1.160803      0.792506
  H       0.669512      0.600813      0.904858
  H      -1.984764     -0.802277      0.580448
  H      -1.848654      0.807746      0.640767
  H       2.538692     -0.403514     -0.012909
  O      -5.141612     -0.483035     -0.840799
  C      -4.537587     -0.169815     -1.774594
  O      -3.951312      0.141937     -2.720089
14
Coordinates from ORCA-job ./orca E -399.098362075045
  O       1.782942     -0.312375     -0.597338
  N      -1.901021      0.021953     -0.011636
  C      -0.588812     -0.059133     -0.710775
  C       0.603967     -0.242147      0.208684
  H      -0.455078      0.853119     -1.294552
  H      -0.622063     -0.895632     -1.412648
  H       0.488758     -1.162554      0.788088
  H       0.671324      0.599202      0.903543
  H      -1.998470     -0.812131      0.587164
  H      -1.864534      0.822581      0.647409
  H       2.541447     -0.404227     -0.013959
  O      -5.150072     -0.482881     -0.838773
  C      -4.509078     -0.169085     -1.754177
  O      -3.946293      0.141996     -2.721712
14
Coordinates from ORCA-job ./orca E -399.099643823024
  O       1.770718     -0.313459     -0.593805
  N      -1.889371      0.022202     -0.018865
  C      -0.594587     -0.056332     -0.712490
  C       0.592417     -0.241413      0.211854
  H      -0.462051      0.857185     -1.293765
  H      -0.629302     -0.891779     -1.413549
  H       0.474430     -1.161711      0.790648
  H       0.660931      0.599763      0.906784
  H      -1.980705     -0.798367      0.570932
  H      -1.849942      0.802667      0.627980
  H       2.528452     -0.407170     -0.009749
  O      -5.124335     -0.484866     -0.826179
  C      -4.504882     -0.168938     -1.750186
  O      -3.938756      0.140905     -2.710290
14
Coordinates from ORCA-job ./orca E -399.099786844516
  O       1.768443     -0.313851     -0.591998
  N      -1.885871      0.021821     -0.020781
  C      -0.597715     -0.055537     -0.715529
  C       0.587877     -0.241159      0.211121
  H      -0.464387      0.858497     -1.296214
  H      -0.632430     -0.889998     -1.418014
  H       0.468010     -1.161383      0.789775
  H       0.655802      0.599580      0.906719
  H      -1.979623     -0.799137      0.567670
  H      -1.849529      0.802283      0.624904
  H       2.525069     -0.408391     -0.006562
  O      -5.109172     -0.483975     -0.817739
  C      -4.502789     -0.170568     -1.749836
  O      -3.930665      0.140504     -2.704197
14
Coordinates from ORCA-job ./orca E -399.099840475196
  O       1.768927     -0.313778     -0.590955
  N      -1.884116      0.021207     -0.019790
  C      -0.600021     -0.055842     -0.718167
  C       0.585781     -0.241084      0.209267
  H      -0.465512      0.858177     -1.298928
  H      -0.635172     -0.889172     -1.422269
  H       0.464797     -1.161116      0.788078
  H       0.652407      0.599461      0.905191
  H      -1.983926     -0.800855      0.566737
  H      -1.853660      0.803461      0.625005
  H       2.524380     -0.408243     -0.004012
  O      -5.097883     -0.482849     -0.811420
  C      -4.500635     -0.170541     -1.749519
  O      -3.922351      0.139862     -2.699901
14
Coordinates from ORCA-job ./orca E -399.099887080753
  O       1.769728     -0.313077     -0.591349
  N      -1.883269      0.020618     -0.017598
  C      -0.600833     -0.056829     -0.718516
  C       0.585991     -0.241226      0.208132
  H      -0.466100      0.856947     -1.299627
  H      -0.636970     -0.889685     -1.423070
  H       0.465507     -1.161210      0.787139
  H       0.651629      0.599509      0.903862
  H      -1.988453     -0.802170      0.566817
  H      -1.857382      0.804047      0.625937
  H       2.524944     -0.406690     -0.003996
  O      -5.095062     -0.480792     -0.810076
  C      -4.498495     -0.170239     -1.749381
  O      -3.918217      0.139485     -2.698955
14
Coordinates from ORCA-job ./orca E -399.099906675496
  O       1.770410     -0.311727     -0.592890
  N      -1.882050      0.019771     -0.014132
  C      -0.601567     -0.058622     -0.717582
  C       0.587162     -0.241471      0.207165
  H      -0.467278      0.854711     -1.299486
  H      -0.639742     -0.891453     -1.421908
  H       0.468452     -1.161416      0.786626
  H       0.651688      0.599839      0.902285
  H      -1.994656     -0.804137      0.566692
  H      -1.861970      0.804563      0.627495
  H       2.526035     -0.403689     -0.005828
  O      -5.094356     -0.477778     -0.810802
  C      -4.495250     -0.168769     -1.749223
  O      -3.913861      0.138863     -2.699092
14
Coordinates from ORCA-job ./orca E -399.099898111443
  O       1.770318     -0.310747     -0.594356
  N      -1.881619      0.019316     -0.012426
  C      -0.601819     -0.059677     -0.716136
  C       0.588173     -0.241544      0.207198
  H      -0.468302      0.853333     -1.298758
  H      -0.641261     -0.893004     -1.419759
  H       0.471100     -1.161491      0.786973
  H       0.652455      0.600132      0.901913
  H      -1.997623     -0.805289      0.566286
  H      -1.863730      0.804460      0.628412
  H       2.526742     -0.401783     -0.008165
  O      -5.095572     -0.475676     -0.812493
  C      -4.493588     -0.167915     -1.749511
  O      -3.912257      0.138569     -2.699859
14
Coordinates from ORCA-job ./orca E -399.099888614957
  O       1.769947     -0.310221     -0.595422
  N      -1.881725      0.019125     -0.011808
  C      -0.601937     -0.060121     -0.714968
  C       0.588766     -0.241418      0.207523
  H      -0.469052      0.852603     -1.298222
  H      -0.641918     -0.894001     -1.417927
  H       0.472781     -1.161319      0.787572
  H       0.653308      0.600460      0.901993
  H      -1.998922     -0.805959      0.565794
  H      -1.864201      0.804048      0.629126
  H       2.527079     -0.400996     -0.010095
  O      -5.096530     -0.474611     -0.813817
  C      -4.493037     -0.167270     -1.749970
  O      -3.911541      0.138366     -2.700458
14
Coordinates from ORCA-job ./orca E -399.097998126811
  O       1.773289     -0.310071     -0.597012
  N      -1.913368      0.019189     -0.024573
  C      -0.598294     -0.059875     -0.718770
  C       0.591364     -0.242008      0.204904
  H      -0.463461      0.852883     -1.301540
  H      -0.627864     -0.895989     -1.421441
  H       0.475316     -1.163039      0.783147
  H       0.655107      0.598878      0.900651
  H      -2.012727     -0.815940      0.572524
  H      -1.880208      0.818900      0.635816
  H       2.529852     -0.401698     -0.011081
  O      -5.105000     -0.474383     -0.811767
  C      -4.464489     -0.166527     -1.729544
  O      -3.906498      0.138366     -2.701994
14
Coordinates from ORCA-job ./orca E -399.099276921992
  O       1.761106     -0.311134     -0.593453
  N      -1.901526      0.019450     -0.031735
  C      -0.604074     -0.057148     -0.720540
  C       0.579790     -0.241295      0.208011
  H      -0.470482      0.856867     -1.300815
  H      -0.635186     -0.892184     -1.422296
  H       0.460981     -1.162203      0.785664
  H       0.644609      0.599434      0.903824
  H      -1.994752     -0.802088      0.556393
  H      -1.865292      0.799020      0.616374
  H       2.516854     -0.404538     -0.006777
  O      -5.079640     -0.476433     -0.799320
  C      -4.460169     -0.166359     -1.725386
  O      -3.899202      0.137298     -2.690624
14
Coordinates from ORCA-job ./orca E -399.099418654265
  O       1.758897     -0.311522     -0.591589
  N      -1.897970      0.019120     -0.033688
  C      -0.607183     -0.056369     -0.723588
  C       0.575271     -0.241075      0.207253
  H      -0.472784      0.858160     -1.303277
  H      -0.638342     -0.890422     -1.426735
  H       0.454573     -1.161912      0.784755
  H       0.639444      0.599212      0.903744
  H      -1.993579     -0.802781      0.553114
  H      -1.864719      0.798704      0.613253
  H       2.513497     -0.405698     -0.003482
  O      -5.064736     -0.475687     -0.790991
  C      -4.458116     -0.167949     -1.724927
  O      -3.891236      0.136906     -2.684522
14
Coordinates from ORCA-job ./orca E -399.099473527733
  O       1.759431     -0.311481     -0.590459
  N      -1.896209      0.018597     -0.032806
  C      -0.609489     -0.056626     -0.726270
  C       0.573160     -0.241048      0.205369
  H      -0.473826      0.857895     -1.306015
  H      -0.641098     -0.889527     -1.431069
  H       0.451282     -1.161715      0.782987
  H       0.635996      0.599011      0.902228
  H      -1.997882     -0.804381      0.552093
  H      -1.868788      0.799970      0.613228
  H       2.512797     -0.405556     -0.000773
  O      -5.053460     -0.474701     -0.784609
  C      -4.456050     -0.168046     -1.724553
  O      -3.882845      0.136294     -2.680030
14
Coordinates from ORCA-job ./orca E -399.099518179602
  O       1.760230     -0.310867     -0.590831
  N      -1.895429      0.018120     -0.030715
  C      -0.610242     -0.057523     -0.726606
  C       0.573395     -0.241221      0.204262
  H      -0.474280      0.856764     -1.306665
  H      -0.642819     -0.889937     -1.431887
  H       0.451955     -1.161850      0.782046
  H       0.635301      0.599009      0.900945
  H      -2.002393     -0.805555      0.552111
  H      -1.872473      0.800630      0.614087
  H       2.513349     -0.404117     -0.000729
  O      -5.050792     -0.472903     -0.783335
  C      -4.454048     -0.167805     -1.724390
  O      -3.878736      0.135941     -2.678974
14
Coordinates from ORCA-job ./orca E -399.099537718079
  O       1.760920     -0.309652     -0.592348
  N      -1.894255      0.017453     -0.027350
  C      -0.610908     -0.059173     -0.725678
  C       0.574590     -0.241515      0.203319
  H      -0.475266      0.854698     -1.306457
  H      -0.645516     -0.891502     -1.430814
  H       0.454808     -1.162131      0.781490
  H       0.635474      0.599237      0.899444
  H      -2.008696     -0.807326      0.551871
  H      -1.877118      0.801311      0.615550
  H       2.514432     -0.401310     -0.002526
  O      -5.050243     -0.470210     -0.784104
  C      -4.450912     -0.166538     -1.724196
  O      -3.874289      0.135345     -2.678882
14
Coordinates from ORCA-job ./orca E -399.099529953748
  O       1.760839     -0.308755     -0.593807
  N      -1.893788      0.017129     -0.025670
  C      -0.611131     -0.060142     -0.724239
  C       0.575609     -0.241623      0.203363
  H      -0.476180      0.853430     -1.305685
  H      -0.647043     -0.892923     -1.428732
  H       0.457383     -1.162261      0.781807
  H       0.636309      0.599453      0.899127
  H      -2.011782     -0.808361      0.551364
  H      -1.878950      0.801352      0.616416
  H       2.515153     -0.399527     -0.004859
  O      -5.051559     -0.468345     -0.785841
  C      -4.449255     -0.165778     -1.724424
  O      -3.872588      0.135037     -2.679499
14
Coordinates from ORCA-job ./orca E -399.099520357394
  O       1.760480     -0.308290     -0.594849
  N      -1.893854      0.017044     -0.025098
  C      -0.611224     -0.060510     -0.723087
  C       0.576194     -0.241524      0.203704
  H      -0.476847      0.852799     -1.305116
  H      -0.647695     -0.893809     -1.426959
  H       0.458986     -1.162137      0.782378
  H       0.637200      0.599711      0.899268
  H      -2.013108     -0.808928      0.550793
  H      -1.879417      0.801052      0.617071
  H       2.515499     -0.398847     -0.006765
  O      -5.052617     -0.467450     -0.787190
  C      -4.448714     -0.165250     -1.724833
  O      -3.871866      0.134826     -2.679999
14
Coordinates from ORCA-job ./orca E -399.097578799676
  O       1.763860     -0.308130     -0.596416
  N      -1.925468      0.017071     -0.037832
  C      -0.607531     -0.060260     -0.726934
  C       0.578815     -0.242092      0.201072
  H      -0.471230      0.853077     -1.308496
  H      -0.633661     -0.895824     -1.430574
  H       0.461539     -1.163826      0.777948
  H       0.638997      0.598160      0.897898
  H      -2.027026     -0.819034      0.557551
  H      -1.895566      0.815922      0.623819
  H       2.518293     -0.399529     -0.007709
  O      -5.061092     -0.467134     -0.785143
  C      -4.420115     -0.164480     -1.704417
  O      -3.866797      0.134767     -2.681444
14
Coordinates from ORCA-job ./orca E -399.098853329475
  O       1.751730     -0.309195     -0.592787
  N      -1.913397      0.017317     -0.044972
  C      -0.613288     -0.057595     -0.728791
  C       0.567211     -0.241385      0.204121
  H      -0.478287      0.856998     -1.307855
  H      -0.641014     -0.892053     -1.431421
  H       0.447161     -1.162966      0.780446
  H       0.628384      0.598740      0.900988
  H      -2.008792     -0.805160      0.541463
  H      -1.880289      0.796016      0.604352
  H       2.505282     -0.402265     -0.003234
  O      -5.036148     -0.469219     -0.772798
  C      -4.415697     -0.164261     -1.700039
  O      -3.859840      0.133715     -2.670155
14
Coordinates from ORCA-job ./orca E -399.098992853480
  O       1.749626     -0.309587     -0.590819
  N      -1.909773      0.017006     -0.047008
  C      -0.616341     -0.056839     -0.731877
  C       0.562724     -0.241189      0.203346
  H      -0.480521      0.858268     -1.310355
  H      -0.644127     -0.890320     -1.435866
  H       0.440757     -1.162690      0.779523
  H       0.623173      0.598501      0.900889
  H      -2.007515     -0.805828      0.538100
  H      -1.879542      0.795714      0.601180
  H       2.501973     -0.403335      0.000241
  O      -5.021570     -0.468548     -0.764527
  C      -4.413728     -0.165791     -1.699436
  O      -3.852117      0.133325     -2.664072
14
Coordinates from ORCA-job ./orca E -399.099048387754
  O       1.750259     -0.309582     -0.589519
  N      -1.907978      0.016523     -0.046331
  C      -0.618590     -0.057063     -0.734651
  C       0.560602     -0.241197      0.201447
  H      -0.481424      0.858044     -1.313161
  H      -0.646788     -0.889374     -1.440321
  H       0.437363     -1.162529      0.777714
  H       0.619636      0.598250      0.899378
  H      -2.011787     -0.807384      0.536856
  H      -1.883514      0.796969      0.600988
  H       2.501283     -0.403139      0.003237
  O      -5.010378     -0.467596     -0.757979
  C      -4.411838     -0.165956     -1.698938
  O      -3.843826      0.132720     -2.659401
14
Coordinates from ORCA-job ./orca E -399.099090807575
  O       1.751117     -0.309035     -0.589782
  N      -1.907243      0.016113     -0.044441
  C      -0.619239     -0.057892     -0.735025
  C       0.560870     -0.241391      0.200377
  H      -0.481698      0.856992     -1.313811
  H      -0.648338     -0.889706     -1.441203
  H       0.437984     -1.162698      0.776778
  H       0.618978      0.598210      0.898151
  H      -2.016269     -0.808479      0.536680
  H      -1.887142      0.797624      0.601717
  H       2.501848     -0.401741      0.003449
  O      -5.007895     -0.465926     -0.756645
  C      -4.410062     -0.165745     -1.698692
  O      -3.839892      0.132362     -2.658232
14
Coordinates from ORCA-job ./orca E -399.099110121527
  O       1.751905     -0.307939     -0.591138
  N      -1.906090      0.015554     -0.041355
  C      -0.619748     -0.059426     -0.734180
  C       0.562104     -0.241720      0.199482
  H      -0.482384      0.855069     -1.313606
  H      -0.650777     -0.891104     -1.440295
  H       0.440721     -1.163032      0.776220
  H       0.619207      0.598370      0.896735
  H      -2.022663     -0.810163      0.536093
  H      -1.891826      0.798340      0.602986
  H       2.502965     -0.399023      0.001899
  O      -5.007567     -0.463376     -0.757251
  C      -4.407209     -0.164605     -1.698361
  O      -3.835618      0.131741     -2.657908
14
Coordinates from ORCA-job ./orca E -399.099103388916
  O       1.751900     -0.307100     -0.592500
  N      -1.905561      0.015307     -0.039824
  C      -0.619874     -0.060337     -0.732797
  C       0.563150     -0.241860      0.199559
  H      -0.483107      0.853882     -1.312833
  H      -0.652184     -0.892423     -1.438323
  H       0.443233     -1.163210      0.776525
  H       0.620065      0.598520      0.896487
  H      -2.025898     -0.811161      0.535304
  H      -1.893739      0.798438      0.603716
  H       2.503734     -0.397264     -0.000289
  O      -5.009028     -0.461588     -0.758880
  C      -4.405673     -0.163889     -1.698455
  O      -3.834001      0.131372     -2.658373
14
Coordinates from ORCA-job ./orca E -399.099093800588
  O       1.751602     -0.306673     -0.593450
  N      -1.905567      0.015288     -0.039392
  C      -0.619889     -0.060652     -0.731692
  C       0.563746     -0.241784      0.199937
  H      -0.483629      0.853328     -1.312267
  H      -0.652738     -0.893230     -1.436635
  H       0.444773     -1.163127      0.777093
  H       0.620966      0.598720      0.896711
  H      -2.027279     -0.811693      0.534507
  H      -1.894212      0.798180      0.604248
  H       2.504123     -0.396615     -0.002071
  O      -5.010228     -0.460744     -0.760141
  C      -4.405230     -0.163425     -1.698751
  O      -3.833421      0.131113     -2.658778
14
Coordinates from ORCA-job ./orca E -399.097456224410
  O       1.749473     -0.305834     -0.594601
  N      -1.928544      0.015200     -0.050087
  C      -0.621615     -0.059886     -0.737767
  C       0.559915     -0.242074      0.196330
  H      -0.480769      0.853973     -1.318014
  H      -0.636396     -0.897109     -1.440786
  H       0.440129     -1.164568      0.771481
  H       0.615453      0.597308      0.894595
  H      -2.033351     -0.821648      0.541461
  H      -1.901676      0.810967      0.611673
  H       2.500721     -0.396665     -0.001737
  O      -5.012986     -0.460264     -0.759321
  C      -4.368473     -0.160732     -1.675809
  O      -3.828862      0.130017     -2.658099
14
Coordinates from ORCA-job ./orca E -399.098455095115
  O       1.740942     -0.307588     -0.591245
  N      -1.922657      0.015639     -0.056909
  C      -0.625924     -0.057366     -0.739448
  C       0.551494     -0.241324      0.198879
  H      -0.486429      0.857564     -1.317167
  H      -0.644890     -0.892058     -1.442460
  H       0.428765     -1.163634      0.773549
  H       0.608427      0.597917      0.897280
  H      -2.021797     -0.808343      0.526775
  H      -1.893396      0.793519      0.593672
  H       2.491311     -0.400628      0.002362
  O      -4.985909     -0.462879     -0.742986
  C      -4.368077     -0.162596     -1.674107
  O      -3.818842      0.130464     -2.648875
14
Coordinates from ORCA-job ./orca E -399.098556652658
  O       1.739531     -0.308095     -0.590384
  N      -1.921526      0.015445     -0.058398
  C      -0.627843     -0.056890     -0.741064
  C       0.548875     -0.241147      0.198469
  H      -0.488396      0.858623     -1.318083
  H      -0.649476     -0.889940     -1.445819
  H       0.424896     -1.163356      0.773131
  H       0.605815      0.597814      0.897197
  H      -2.023184     -0.808703      0.524144
  H      -1.895176      0.793547      0.590822
  H       2.489372     -0.401929      0.003816
  O      -4.972079     -0.462021     -0.735742
  C      -4.367260     -0.164956     -1.674881
  O      -3.810531      0.130293     -2.643889
14
Coordinates from ORCA-job ./orca E -399.098593548189
  O       1.739897     -0.308312     -0.590594
  N      -1.920817      0.015290     -0.057179
  C      -0.628908     -0.057484     -0.741688
  C       0.548351     -0.241070      0.197444
  H      -0.489596      0.857962     -1.319100
  H      -0.653758     -0.889495     -1.447725
  H       0.424174     -1.162870      0.772780
  H       0.604965      0.598140      0.895809
  H      -2.027885     -0.809844      0.523553
  H      -1.899271      0.794882      0.591240
  H       2.489509     -0.401906      0.003925
  O      -4.964291     -0.463341     -0.733318
  C      -4.365875     -0.163045     -1.674912
  O      -3.803476      0.129780     -2.640915
14
Coordinates from ORCA-job ./orca E -399.098611544033
  O       1.740736     -0.307286     -0.591588
  N      -1.919829      0.014804     -0.054656
  C      -0.629560     -0.058444     -0.741308
  C       0.548882     -0.241471      0.196351
  H      -0.490966      0.857102     -1.318907
  H      -0.657580     -0.889234     -1.448740
  H       0.425696     -1.163430      0.771677
  H       0.604703      0.597610      0.894853
  H      -2.033759     -0.811070      0.523774
  H      -1.903993      0.796172      0.592083
  H       2.490449     -0.400367      0.002860
  O      -4.961924     -0.458720     -0.732356
  C      -4.362483     -0.166396     -1.675698
  O      -3.797356      0.129417     -2.639024
14
Coordinates from ORCA-job ./orca E -399.098618354059
  O       1.741056     -0.306720     -0.593001
  N      -1.918714      0.014792     -0.052031
  C      -0.629886     -0.059507     -0.740215
  C       0.549840     -0.241621      0.195798
  H      -0.492015      0.855557     -1.318792
  H      -0.660404     -0.890357     -1.447401
  H       0.428014     -1.163378      0.771734
  H       0.605339      0.597975      0.893698
  H      -2.038100     -0.811852      0.523622
  H      -1.906998      0.796760      0.593516
  H       2.491244     -0.398919      0.000972
  O      -4.962585     -0.459144     -0.734501
  C      -4.360106     -0.163879     -1.675255
  O      -3.793667      0.128978     -2.638826
14
Coordinates from ORCA-job ./orca E -399.098626114929
  O       1.740869     -0.306062     -0.594568
  N      -1.918026      0.014965     -0.050127
  C      -0.630142     -0.060116     -0.738729
  C       0.550829     -0.241720      0.195784
  H      -0.492924      0.854472     -1.318206
  H      -0.661740     -0.891605     -1.445046
  H       0.430489     -1.163487      0.771989
  H       0.606369      0.598195      0.893356
  H      -2.040890     -0.812383      0.523103
  H      -1.908500      0.796999      0.594752
  H       2.491795     -0.397801     -0.001454
  O      -4.965191     -0.458553     -0.737111
  C      -4.358241     -0.163018     -1.675195
  O      -3.791680      0.128800     -2.639230
14
Coordinates from ORCA-job ./orca E -399.098634445583
  O       1.740546     -0.305872     -0.595328
  N      -1.918100      0.015228     -0.049653
  C      -0.630356     -0.060077     -0.738021
  C       0.551154     -0.241633      0.195943
  H      -0.493239      0.854253     -1.317929
  H      -0.661870     -0.892037     -1.443800
  H       0.431331     -1.163431      0.772185
  H       0.607028      0.598315      0.893473
  H      -2.041924     -0.812564      0.522584
  H      -1.908828      0.797033      0.595370
  H       2.491900     -0.397800     -0.002778
  O      -4.966071     -0.458351     -0.738078
  C      -4.357818     -0.163091     -1.675431
  O      -3.790735      0.128715     -2.639217
14
Coordinates from ORCA-job ./orca E -399.096948228426
  O       1.738449     -0.305015     -0.596517
  N      -1.941041      0.015091     -0.060315
  C      -0.632048     -0.059334     -0.744075
  C       0.547378     -0.241915      0.192324
  H      -0.490368      0.854881     -1.323678
  H      -0.645586     -0.895973     -1.448011
  H       0.426780     -1.164859      0.766572
  H       0.601570      0.596919      0.891331
  H      -2.048175     -0.822639      0.529617
  H      -1.916491      0.809878      0.602886
  H       2.488544     -0.397815     -0.002506
  O      -4.968822     -0.457781     -0.737397
  C      -4.321008     -0.160316     -1.652475
  O      -3.786166      0.127565     -2.638436
14
Coordinates from ORCA-job ./orca E -399.097931698852
  O       1.729928     -0.306794     -0.593268
  N      -1.934985      0.015306     -0.066813
  C      -0.636427     -0.056971     -0.745767
  C       0.539019     -0.241187      0.194791
  H      -0.496034      0.858266     -1.322843
  H      -0.653972     -0.891152     -1.449473
  H       0.415534     -1.163805      0.768773
  H       0.594575      0.597706      0.893713
  H      -2.036542     -0.809563      0.515159
  H      -1.907910      0.792205      0.585060
  H       2.479173     -0.401316      0.001520
  O      -4.942601     -0.460328     -0.721525
  C      -4.320437     -0.161696     -1.650565
  O      -3.776303      0.128017     -2.629442
14
Coordinates from ORCA-job ./orca E -399.098031190515
  O       1.728584     -0.307274     -0.592365
  N      -1.933793      0.014978     -0.068271
  C      -0.638396     -0.056555     -0.747443
  C       0.536412     -0.241068      0.194327
  H      -0.497968      0.859301     -1.323728
  H      -0.658379     -0.889119     -1.452855
  H       0.411666     -1.163575      0.768308
  H       0.591869      0.597571      0.893562
  H      -2.037813     -0.810037      0.512538
  H      -1.909467      0.792140      0.582165
  H       2.477273     -0.402249      0.003103
  O      -4.929396     -0.458939     -0.714339
  C      -4.319566     -0.164348     -1.651278
  O      -3.768007      0.127862     -2.624404
14
Coordinates from ORCA-job ./orca E -399.098067524949
  O       1.728956     -0.307691     -0.592468
  N      -1.933047      0.014760     -0.067157
  C      -0.639563     -0.057194     -0.748232
  C       0.535797     -0.240973      0.193240
  H      -0.499124      0.858585     -1.324898
  H      -0.662643     -0.888782     -1.454867
  H       0.410698     -1.162961      0.768046
  H       0.590899      0.598036      0.891976
  H      -2.042443     -0.811321      0.511739
  H      -1.913415      0.793387      0.582526
  H       2.477360     -0.402019      0.003457
  O      -4.921504     -0.460724     -0.711882
  C      -4.318411     -0.161736     -1.651099
  O      -3.760543      0.127319     -2.621061
14
Coordinates from ORCA-job ./orca E -399.098085019680
  O       1.729850     -0.306779     -0.593364
  N      -1.932184      0.014170     -0.064811
  C      -0.640188     -0.058165     -0.747951
  C       0.536338     -0.241400      0.192147
  H      -0.500328      0.857754     -1.324706
  H      -0.666043     -0.888581     -1.455964
  H       0.412122     -1.163525      0.766961
  H       0.590620      0.597507      0.890990
  H      -2.048050     -0.812614      0.511925
  H      -1.917859      0.794533      0.583300
  H       2.478334     -0.400178      0.002582
  O      -4.919835     -0.455809     -0.711017
  C      -4.315290     -0.165216     -1.651823
  O      -3.754469      0.126989     -2.618951
14
Coordinates from ORCA-job ./orca E -399.098092679713
  O       1.730153     -0.306273     -0.594684
  N      -1.931190      0.014047     -0.062437
  C      -0.640421     -0.059197     -0.746914
  C       0.537292     -0.241582      0.191668
  H      -0.501226      0.856307     -1.324514
  H      -0.668357     -0.889697     -1.454673
  H       0.414360     -1.163530      0.767042
  H       0.591266      0.597816      0.889940
  H      -2.051918     -0.813405      0.511766
  H      -1.920461      0.794883      0.584598
  H       2.479121     -0.398468      0.000830
  O      -4.921362     -0.455581     -0.713222
  C      -4.313143     -0.163251     -1.651415
  O      -3.751096      0.126617     -2.618664
14
Coordinates from ORCA-job ./orca E -399.098100652916
  O       1.729956     -0.305623     -0.596581
  N      -1.930284      0.014069     -0.060067
  C      -0.640766     -0.060094     -0.745216
  C       0.538447     -0.241693      0.191570
  H      -0.502423      0.854834     -1.323936
  H      -0.670250     -0.891262     -1.452039
  H       0.417266     -1.163534      0.767458
  H       0.592463      0.598204      0.889291
  H      -2.055592     -0.814295      0.511053
  H      -1.922567      0.795032      0.586144
  H       2.479837     -0.396729     -0.002047
  O      -4.924337     -0.454774     -0.716354
  C      -4.310863     -0.161815     -1.651259
  O      -3.747869      0.126368     -2.618698
14
Coordinates from ORCA-job ./orca E -399.098109036769
  O       1.729661     -0.305515     -0.597276
  N      -1.930385      0.014215     -0.059647
  C      -0.640985     -0.060103     -0.744601
  C       0.538718     -0.241582      0.191707
  H      -0.502771      0.854579     -1.323746
  H      -0.670412     -0.891690     -1.450954
  H       0.417986     -1.163396      0.767717
  H       0.593082      0.598392      0.889328
  H      -2.056576     -0.814584      0.510549
  H      -1.922933      0.794948      0.586754
  H       2.479954     -0.396614     -0.003254
  O      -4.925037     -0.454509     -0.717205
  C      -4.310522     -0.161749     -1.651492
  O      -3.746761      0.126296     -2.618559
14
Coordinates from ORCA-job ./orca E -399.096393108551
  O       1.727512     -0.304668     -0.598440
  N      -1.953134      0.014014     -0.070138
  C      -0.642708     -0.059397     -0.750861
  C       0.534820     -0.241861      0.187996
  H      -0.500008      0.855175     -1.329717
  H      -0.654205     -0.895731     -1.455451
  H       0.413274     -1.164806      0.762023
  H       0.587424      0.597019      0.887071
  H      -2.062825     -0.824708      0.517591
  H      -1.930420      0.808119      0.595340
  H       2.476489     -0.396613     -0.002884
  O      -4.927436     -0.453889     -0.716565
  C      -4.273452     -0.158947     -1.628458
  O      -3.742315      0.124978     -2.618186
14
Coordinates from ORCA-job ./orca E -399.097394431082
  O       1.719242     -0.306385     -0.595023
  N      -1.946884      0.014470     -0.076844
  C      -0.646867     -0.056779     -0.752550
  C       0.526608     -0.241245      0.190464
  H      -0.505456      0.858857     -1.328779
  H      -0.662432     -0.890447     -1.456947
  H       0.402024     -1.164110      0.763809
  H       0.580527      0.597351      0.889855
  H      -2.050837     -0.811086      0.503712
  H      -1.922400      0.790653      0.575132
  H       2.467235     -0.400490      0.001412
  O      -4.902431     -0.456959     -0.700754
  C      -4.273046     -0.161065     -1.626138
  O      -3.732263      0.125922     -2.608027
14
Coordinates from ORCA-job ./orca E -399.097486774504
  O       1.718160     -0.306940     -0.593928
  N      -1.945531      0.014382     -0.078473
  C      -0.648575     -0.056279     -0.754341
  C       0.524149     -0.241186      0.189989
  H      -0.507089      0.859963     -1.329786
  H      -0.666598     -0.888366     -1.460404
  H       0.398134     -1.164032      0.763152
  H       0.577913      0.597021      0.889860
  H      -2.051701     -0.811206      0.501150
  H      -1.924071      0.791493      0.572068
  H       2.465454     -0.401820      0.003313
  O      -4.890237     -0.457049     -0.694082
  C      -4.272482     -0.163060     -1.626364
  O      -3.724507      0.125764     -2.602835
14
Coordinates from ORCA-job ./orca E -399.097522420676
  O       1.718852     -0.307124     -0.593717
  N      -1.944637      0.014341     -0.077697
  C      -0.649468     -0.056684     -0.755284
  C       0.523619     -0.241262      0.188888
  H      -0.507914      0.859673     -1.330795
  H      -0.670521     -0.887559     -1.462866
  H       0.397085     -1.163898      0.762355
  H       0.576822      0.596930      0.888733
  H      -2.055969     -0.812006      0.500394
  H      -1.928076      0.793267      0.571836
  H       2.465653     -0.401899      0.004153
  O      -4.883488     -0.457969     -0.691358
  C      -4.271297     -0.162380     -1.626108
  O      -3.717643      0.125257     -2.599213
14
Coordinates from ORCA-job ./orca E -399.097534956685
  O       1.719774     -0.306410     -0.594297
  N      -1.943569      0.014152     -0.075823
  C      -0.649840     -0.057394     -0.755155
  C       0.524122     -0.241682      0.187918
  H      -0.508678      0.859078     -1.330720
  H      -0.673640     -0.887196     -1.463963
  H       0.398180     -1.164478      0.761291
  H       0.576538      0.596381      0.887913
  H      -2.060862     -0.812716      0.500279
  H      -1.932118      0.794607      0.572122
  H       2.466488     -0.400722      0.003732
  O      -4.882244     -0.454996     -0.690721
  C      -4.268741     -0.164793     -1.626213
  O      -3.712393      0.124855     -2.597045
14
Coordinates from ORCA-job ./orca E -399.097568761080
  O       1.720474     -0.305951     -0.595627
  N      -1.942019      0.014308     -0.072996
  C      -0.650126     -0.058515     -0.754251
  C       0.525197     -0.241958      0.187083
  H      -0.509549      0.857519     -1.330735
  H      -0.677294     -0.888034     -1.463213
  H       0.400469     -1.164521      0.761104
  H       0.577074      0.596652      0.886436
  H      -2.066625     -0.813504      0.499622
  H      -1.936335      0.795714      0.573379
  H       2.467505     -0.399219      0.002153
  O      -4.882650     -0.455824     -0.692677
  C      -4.266095     -0.162133     -1.625313
  O      -3.707009      0.124151     -2.595644
14
Coordinates from ORCA-job ./orca E -399.097550606505
  O       1.720288     -0.305407     -0.596725
  N      -1.941662      0.014471     -0.071925
  C      -0.650158     -0.058830     -0.753119
  C       0.525955     -0.242110      0.187247
  H      -0.509949      0.856940     -1.330093
  H      -0.677708     -0.888832     -1.461447
  H       0.402328     -1.164789      0.761290
  H       0.577898      0.596621      0.886502
  H      -2.068352     -0.813788      0.499115
  H      -1.937074      0.795777      0.574059
  H       2.467927     -0.398321      0.000353
  O      -4.885379     -0.454601     -0.694555
  C      -4.264955     -0.162430     -1.625363
  O      -3.706141      0.123987     -2.596020
14
Coordinates from ORCA-job ./orca E -399.097557668232
  O       1.719886     -0.305213     -0.597503
  N      -1.941808      0.014765     -0.071620
  C      -0.650274     -0.058747     -0.752313
  C       0.526325     -0.242040      0.187563
  H      -0.510131      0.856758     -1.329706
  H      -0.677480     -0.889335     -1.459970
  H       0.403282     -1.164772      0.761615
  H       0.578675      0.596715      0.886796
  H      -2.069167     -0.813959      0.498419
  H      -1.937098      0.795682      0.574625
  H       2.468046     -0.398226     -0.001084
  O      -4.886779     -0.454291     -0.695670
  C      -4.264729     -0.162462     -1.625577
  O      -3.705730      0.123812     -2.596256
14
Coordinates from ORCA-job ./orca E -399.095860359232
  O       1.715170     -0.305671     -0.599335
  N      -1.959124      0.014155     -0.080765
  C      -0.654640     -0.058268     -0.757239
  C       0.520652     -0.241822      0.184222
  H      -0.509720      0.857046     -1.334509
  H      -0.676495     -0.890819     -1.462747
  H       0.396647     -1.164534      0.758099
  H       0.572427      0.596976      0.883446
  H      -2.069730     -0.824194      0.504653
  H      -1.940089      0.807633      0.585154
  H       2.462537     -0.398940     -0.001962
  O      -4.882307     -0.455672     -0.698432
  C      -4.219554     -0.159966     -1.605174
  O      -3.702755      0.122764     -2.596091
14
Coordinates from ORCA-job ./orca E -399.096785809278
  O       1.709224     -0.306130     -0.596364
  N      -1.956847      0.015414     -0.085478
  C      -0.657723     -0.056346     -0.759321
  C       0.514065     -0.241884      0.185538
  H      -0.513192      0.859640     -1.334637
  H      -0.679662     -0.888096     -1.465669
  H       0.387945     -1.165101      0.758089
  H       0.565623      0.596147      0.885717
  H      -2.063428     -0.810581      0.494129
  H      -1.936579      0.791700      0.566644
  H       2.455419     -0.400921      0.002234
  O      -4.859568     -0.458559     -0.681214
  C      -4.222320     -0.160686     -1.602154
  O      -3.689940      0.124089     -2.588194
14
Coordinates from ORCA-job ./orca E -399.096873823762
  O       1.708256     -0.305694     -0.595447
  N      -1.956483      0.015560     -0.086849
  C      -0.659067     -0.056022     -0.761187
  C       0.511820     -0.242433      0.184915
  H      -0.514840      0.860608     -1.335519
  H      -0.680694     -0.886565     -1.469121
  H       0.384988     -1.166304      0.756299
  H       0.562560      0.594613      0.886356
  H      -2.065475     -0.809973      0.492219
  H      -1.938833      0.793092      0.563081
  H       2.453738     -0.401196      0.003964
  O      -4.848632     -0.456450     -0.673986
  C      -4.222644     -0.164156     -1.602071
  O      -3.681675      0.123607     -2.583333
14
Coordinates from ORCA-job ./orca E -399.096889831429
  O       1.708602     -0.305733     -0.595175
  N      -1.955866      0.015762     -0.086584
  C      -0.659787     -0.056350     -0.762287
  C       0.511143     -0.242625      0.184037
  H      -0.516009      0.860347     -1.336713
  H      -0.681922     -0.886303     -1.470965
  H       0.383945     -1.166523      0.755321
  H       0.561337      0.594221      0.885729
  H      -2.069455     -0.810462      0.491156
  H      -1.941996      0.795260      0.562276
  H       2.453610     -0.401279      0.004819
  O      -4.842413     -0.458852     -0.671571
  C      -4.222807     -0.161178     -1.600966
  O      -3.675365      0.122402     -2.579757
14
Coordinates from ORCA-job ./orca E -399.096908091323
  O       1.709431     -0.304957     -0.595495
  N      -1.955072      0.015520     -0.085529
  C      -0.659994     -0.056644     -0.762305
  C       0.511538     -0.243013      0.183351
  H      -0.517003      0.860403     -1.336450
  H      -0.682825     -0.885734     -1.471943
  H       0.384701     -1.167346      0.754018
  H       0.561196      0.593323      0.885654
  H      -2.073467     -0.811044      0.490895
  H      -1.945005      0.796715      0.561800
  H       2.454320     -0.400568      0.004621
  O      -4.842337     -0.455110     -0.670763
  C      -4.221028     -0.164507     -1.601021
  O      -3.671437      0.121649     -2.577511
14
Coordinates from ORCA-job ./orca E -399.096919174562
  O       1.710022     -0.304695     -0.596261
  N      -1.953983      0.015426     -0.084130
  C      -0.659918     -0.056983     -0.761607
  C       0.512454     -0.243041      0.183033
  H      -0.517650      0.860016     -1.336049
  H      -0.683840     -0.885902     -1.471353
  H       0.386146     -1.167355      0.753845
  H       0.562125      0.593453      0.885131
  H      -2.077046     -0.811649      0.490040
  H      -1.947454      0.797150      0.562009
  H       2.455123     -0.400084      0.003607
  O      -4.844655     -0.454287     -0.672106
  C      -4.219441     -0.164263     -1.600407
  O      -3.668864      0.120901     -2.576432
14
Coordinates from ORCA-job ./orca E -399.096924318860
  O       1.710328     -0.304558     -0.597491
  N      -1.952800      0.015484     -0.082727
  C      -0.659815     -0.057234     -0.760373
  C       0.513656     -0.242914      0.182990
  H      -0.518170      0.859496     -1.335438
  H      -0.684970     -0.886353     -1.469832
  H       0.388097     -1.167063      0.754227
  H       0.563697      0.593969      0.884609
  H      -2.081253     -0.812577      0.488048
  H      -1.950305      0.797319      0.562513
  H       2.455987     -0.399695      0.001731
  O      -4.847707     -0.453889     -0.674013
  C      -4.217953     -0.163223     -1.599576
  O      -3.665774      0.119925     -2.575349
14
Coordinates from ORCA-job ./orca E -399.096930785394
  O       1.710212     -0.304622     -0.597837
  N      -1.952826      0.015632     -0.082762
  C      -0.659754     -0.057096     -0.759966
  C       0.513931     -0.242790      0.183183
  H      -0.517972      0.859479     -1.335251
  H      -0.684903     -0.886424     -1.469210
  H       0.388521     -1.166855      0.754578
  H       0.564271      0.594198      0.884668
  H      -2.082032     -0.812910      0.487072
  H      -1.950771      0.797117      0.562834
  H       2.456127     -0.399814      0.001057
  O      -4.848383     -0.453694     -0.674321
  C      -4.218045     -0.163118     -1.599507
  O      -3.665355      0.119585     -2.575217
14
Coordinates from ORCA-job ./orca E -399.095130034055
  O       1.705187     -0.305053     -0.599884
  N      -1.969752      0.014995     -0.091260
  C      -0.664439     -0.056713     -0.765053
  C       0.507982     -0.242466      0.179660
  H      -0.518062      0.859580     -1.340435
  H      -0.684620     -0.887939     -1.472228
  H       0.381663     -1.166413      0.751046
  H       0.557738      0.594688      0.880989
  H      -2.082210     -0.824775      0.496349
  H      -1.953620      0.809244      0.574075
  H       2.450332     -0.400367     -0.000051
  O      -4.842920     -0.454939     -0.677239
  C      -4.171883     -0.160302     -1.579368
  O      -3.662379      0.119146     -2.577281
14
Coordinates from ORCA-job ./orca E -399.096086273185
  O       1.699388     -0.305466     -0.597173
  N      -1.967592      0.015355     -0.095669
  C      -0.667401     -0.055488     -0.766626
  C       0.501826     -0.242634      0.181113
  H      -0.521566      0.861437     -1.340117
  H      -0.687639     -0.886102     -1.474367
  H       0.373923     -1.166722      0.751810
  H       0.551278      0.594285      0.882784
  H      -2.076250     -0.810213      0.483180
  H      -1.950170      0.791875      0.556252
  H       2.443673     -0.400956      0.003700
  O      -4.821938     -0.456789     -0.661099
  C      -4.174903     -0.159696     -1.576111
  O      -3.649611      0.119801     -2.568355
14
Coordinates from ORCA-job ./orca E -399.096171190411
  O       1.698558     -0.304804     -0.596410
  N      -1.967321      0.014662     -0.097032
  C      -0.668610     -0.055651     -0.768275
  C       0.499899     -0.243174      0.180570
  H      -0.523205      0.861895     -1.340825
  H      -0.688400     -0.885184     -1.477454
  H       0.371766     -1.167702      0.750536
  H       0.548352      0.593109      0.883110
  H      -2.078719     -0.810996      0.480898
  H      -1.952394      0.792320      0.552818
  H       2.442354     -0.399716      0.005198
  O      -4.812566     -0.452158     -0.654138
  C      -4.175267     -0.163094     -1.576204
  O      -3.641429      0.119179     -2.563471
14
Coordinates from ORCA-job ./orca E -399.096184550799
  O       1.698964     -0.304646     -0.596045
  N      -1.966748      0.013782     -0.097095
  C      -0.669344     -0.056714     -0.769517
  C       0.499234     -0.243302      0.179723
  H      -0.524583      0.860819     -1.342336
  H      -0.689347     -0.885855     -1.479246
  H       0.371152     -1.167563      0.750156
  H       0.546748      0.593209      0.882048
  H      -2.083153     -0.813185      0.478978
  H      -1.955682      0.793235      0.551925
  H       2.442410     -0.397868      0.006271
  O      -4.806256     -0.452623     -0.651104
  C      -4.176075     -0.158158     -1.574892
  O      -3.634302      0.117555     -2.559548
14
Coordinates from ORCA-job ./orca E -399.096209372703
  O       1.699895     -0.303689     -0.596301
  N      -1.966126      0.012665     -0.096286
  C      -0.669342     -0.057530     -0.769402
  C       0.499860     -0.243576      0.179240
  H      -0.525471      0.860256     -1.342120
  H      -0.689651     -0.886092     -1.479762
  H       0.372510     -1.168085      0.749436
  H       0.546625      0.592729      0.881829
  H      -2.086391     -0.814733      0.478513
  H      -1.958108      0.793243      0.551752
  H       2.443380     -0.395719      0.006135
  O      -4.807756     -0.447011     -0.650585
  C      -4.174760     -0.160543     -1.574971
  O      -3.631647      0.116771     -2.558158
14
Coordinates from ORCA-job ./orca E -399.096217228454
  O       1.700833     -0.302849     -0.596939
  N      -1.964958      0.011144     -0.095032
  C      -0.669126     -0.058753     -0.768739
  C       0.501020     -0.243544      0.178943
  H      -0.526479      0.858965     -1.341933
  H      -0.690072     -0.887232     -1.479109
  H       0.374754     -1.167953      0.749547
  H       0.547223      0.593128      0.881104
  H      -2.090151     -0.816946      0.477075
  H      -1.960907      0.792036      0.552064
  H       2.444624     -0.392942      0.005399
  O      -4.811226     -0.442238     -0.651498
  C      -4.173386     -0.159711     -1.574298
  O      -3.629131      0.115582     -2.557263
14
Coordinates from ORCA-job ./orca E -399.096224475117
  O       1.701615     -0.301887     -0.597813
  N      -1.963654      0.009078     -0.093944
  C      -0.668889     -0.060319     -0.767810
  C       0.502379     -0.243277      0.178866
  H      -0.527639      0.857073     -1.341935
  H      -0.690317     -0.889154     -1.477731
  H       0.377527     -1.167369      0.750307
  H       0.548042      0.594116      0.880201
  H      -2.094523     -0.820328      0.474216
  H      -1.964351      0.789890      0.552615
  H       2.445965     -0.389361      0.004211
  O      -4.814849     -0.436771     -0.652389
  C      -4.172440     -0.156838     -1.573239
  O      -3.625847      0.113832     -2.556235
14
Coordinates from ORCA-job ./orca E -399.096233476797
  O       1.701712     -0.301521     -0.598083
  N      -1.963506      0.008195     -0.094045
  C      -0.668738     -0.060796     -0.767424
  C       0.502835     -0.242993      0.179092
  H      -0.527796      0.856340     -1.342045
  H      -0.689866     -0.890032     -1.476912
  H       0.378493     -1.166885      0.750959
  H       0.548426      0.594743      0.880032
  H      -2.095539     -0.821988      0.472552
  H      -1.965342      0.788484      0.552998
  H       2.446371     -0.388122      0.003696
  O      -4.816027     -0.434361     -0.652391
  C      -4.172736     -0.155403     -1.572934
  O      -3.625271      0.113027     -2.556175
14
Coordinates from ORCA-job ./orca E -399.094430810072
  O       1.697245     -0.301928     -0.599198
  N      -1.983377      0.007460     -0.105917
  C      -0.672696     -0.060012     -0.773105
  C       0.496938     -0.242686      0.175718
  H      -0.525479      0.856980     -1.347529
  H      -0.686840     -0.891511     -1.480162
  H       0.371219     -1.166645      0.747177
  H       0.541586      0.594992      0.876789
  H      -2.096587     -0.834549      0.478923
  H      -1.969442      0.801335      0.561909
  H       2.440721     -0.388943      0.003986
  O      -4.809948     -0.436813     -0.648519
  C      -4.131630     -0.152129     -1.553109
  O      -3.618694      0.113135     -2.557644
14
Coordinates from ORCA-job ./orca E -399.095283273579
  O       1.691866     -0.301828     -0.597237
  N      -1.977588      0.007390     -0.107057
  C      -0.674691     -0.059162     -0.773506
  C       0.492195     -0.242577      0.177778
  H      -0.530093      0.858439     -1.346125
  H      -0.690446     -0.889842     -1.481294
  H       0.365693     -1.166712      0.748687
  H       0.537040      0.594926      0.879074
  H      -2.088218     -0.819756      0.468944
  H      -1.963469      0.782469      0.546345
  H       2.435122     -0.389046      0.006178
  O      -4.798984     -0.435059     -0.643379
  C      -4.129900     -0.152734     -1.548146
  O      -3.615511      0.112179     -2.550941
14
Coordinates from ORCA-job ./orca E -399.095354746694
  O       1.691400     -0.301390     -0.596478
  N      -1.976005      0.006621     -0.107187
  C      -0.675513     -0.059546     -0.775037
  C       0.490716     -0.242749      0.177352
  H      -0.531831      0.858430     -1.347225
  H      -0.691263     -0.889448     -1.483820
  H       0.363930     -1.166997      0.748036
  H       0.534685      0.594475      0.879037
  H      -2.089303     -0.820889      0.467614
  H      -1.964831      0.782709      0.544605
  H       2.434223     -0.388183      0.007579
  O      -4.792984     -0.432663     -0.639915
  C      -4.129223     -0.152770     -1.547004
  O      -3.610983      0.111087     -2.548238
14
Coordinates from ORCA-job ./orca E -399.095478350932
  O       1.692291     -0.299745     -0.594992
  N      -1.973713      0.003766     -0.106869
  C      -0.677363     -0.061396     -0.778150
  C       0.488652     -0.243132      0.175428
  H      -0.535821      0.857260     -1.349951
  H      -0.692998     -0.889521     -1.489062
  H       0.361822     -1.167571      0.745812
  H       0.529758      0.593634      0.877751
  H      -2.096111     -0.825329      0.464189
  H      -1.972047      0.783537      0.541347
  H       2.433887     -0.384656      0.010872
  O      -4.779825     -0.424903     -0.630194
  C      -4.128078     -0.151784     -1.545390
  O      -3.597437      0.108526     -2.541473
14
Coordinates from ORCA-job ./orca E -399.095488009384
  O       1.692886     -0.299006     -0.595452
  N      -1.974006      0.002377     -0.106539
  C      -0.677557     -0.062359     -0.777704
  C       0.489320     -0.243033      0.174992
  H      -0.536634      0.856172     -1.349944
  H      -0.693274     -0.890566     -1.488477
  H       0.363312     -1.167403      0.745684
  H       0.529860      0.594089      0.876913
  H      -2.099558     -0.827298      0.462827
  H      -1.975524      0.782634      0.540980
  H       2.434523     -0.382838      0.010471
  O      -4.778783     -0.421579     -0.628450
  C      -4.128002     -0.150574     -1.545890
  O      -3.593545      0.108072     -2.540091
14
Coordinates from ORCA-job ./orca E -399.095493936572
  O       1.693221     -0.298162     -0.596544
  N      -1.974590      0.000679     -0.106350
  C      -0.677435     -0.063448     -0.776348
  C       0.490622     -0.242719      0.175058
  H      -0.537188      0.854740     -1.349374
  H      -0.693157     -0.892250     -1.486420
  H       0.365972     -1.166898      0.746376
  H       0.531014      0.595071      0.876221
  H      -2.102799     -0.829732      0.461099
  H      -1.978889      0.780822      0.541196
  H       2.435408     -0.380709      0.008858
  O      -4.780089     -0.417539     -0.628282
  C      -4.128173     -0.148818     -1.546681
  O      -3.590899      0.107649     -2.539489
14
Coordinates from ORCA-job ./orca E -399.095495845839
  O       1.693336     -0.297334     -0.597399
  N      -1.974889     -0.000863     -0.106474
  C      -0.677171     -0.064337     -0.775214
  C       0.491663     -0.242358      0.175439
  H      -0.537533      0.853519     -1.348963
  H      -0.692596     -0.893747     -1.484623
  H       0.368220     -1.166349      0.747323
  H       0.532006      0.595948      0.876015
  H      -2.104701     -0.831980      0.459430
  H      -1.981006      0.778818      0.541536
  H       2.436154     -0.378852      0.007367
  O      -4.782078     -0.413574     -0.628682
  C      -4.128554     -0.147185     -1.547009
  O      -3.589833      0.106981     -2.539427
14
Coordinates from ORCA-job ./orca E -399.095499005342
  O       1.693677     -0.295388     -0.598567
  N      -1.975094     -0.004335     -0.107164
  C      -0.676460     -0.066171     -0.773463
  C       0.493466     -0.241515      0.176361
  H      -0.538168      0.851053     -1.348609
  H      -0.690671     -0.896686     -1.481687
  H       0.372337     -1.165126      0.749334
  H       0.533457      0.597668      0.875944
  H      -2.107617     -0.837029      0.455569
  H      -1.984562      0.774096      0.542188
  H       2.437664     -0.374885      0.005047
  O      -4.786496     -0.404221     -0.629102
  C      -4.129702     -0.143629     -1.546984
  O      -3.588813      0.104854     -2.539544
14
Coordinates from ORCA-job ./orca E -399.095506624119
  O       1.694540     -0.292243     -0.598994
  N      -1.974845     -0.009358     -0.108645
  C      -0.675325     -0.068729     -0.772260
  C       0.495276     -0.240416      0.177478
  H      -0.538851      0.847839     -1.348952
  H      -0.687147     -0.900347     -1.479318
  H       0.376919     -1.163702      0.751520
  H       0.534040      0.599543      0.876209
  H      -2.110308     -0.844192      0.450000
  H      -1.988183      0.767211      0.542739
  H       2.439569     -0.369106      0.003687
  O      -4.792180     -0.389895     -0.628301
  C      -4.131705     -0.138650     -1.546024
  O      -3.588781      0.100731     -2.539819
14
Coordinates from ORCA-job ./orca E -399.095512136555
  O       1.695818     -0.289628     -0.597751
  N      -1.974052     -0.013650     -0.110544
  C      -0.674169     -0.070581     -0.772869
  C       0.495939     -0.239463      0.178061
  H      -0.539098      0.845806     -1.350208
  H      -0.683371     -0.902551     -1.479567
  H       0.378940     -1.162556      0.752676
  H       0.532950      0.600867      0.876429
  H      -2.110637     -0.850209      0.445176
  H      -1.989552      0.761231      0.542739
  H       2.440767     -0.364802      0.005251
  O      -4.795990     -0.377442     -0.625767
  C      -4.133850     -0.134713     -1.544223
  O      -3.590675      0.096377     -2.540083
14
Coordinates from ORCA-job ./orca E -399.095522121930
  O       1.699948     -0.282732     -0.592413
  N      -1.971497     -0.024843     -0.116380
  C      -0.670907     -0.075233     -0.776502
  C       0.496645     -0.237161      0.178895
  H      -0.539204      0.841290     -1.354435
  H      -0.673049     -0.907336     -1.483049
  H       0.381929     -1.159962      0.754424
  H       0.527720      0.603854      0.876672
  H      -2.109337     -0.865584      0.432580
  H      -1.991103      0.745761      0.541761
  H       2.443204     -0.353969      0.013157
  O      -4.803580     -0.344770     -0.616214
  C      -4.139915     -0.124786     -1.538632
  O      -3.597836      0.084159     -2.540545
14
Coordinates from ORCA-job ./orca E -399.095529687187
  O       1.703487     -0.277827     -0.587185
  N      -1.969636     -0.032887     -0.121295
  C      -0.668308     -0.078482     -0.780354
  C       0.496628     -0.235670      0.179009
  H      -0.538693      0.838637     -1.357832
  H      -0.665521     -0.910217     -1.487229
  H       0.382682     -1.158366      0.754873
  H       0.522382      0.605846      0.876365
  H      -2.106860     -0.876306      0.423705
  H      -1.990873      0.734765      0.540228
  H       2.444441     -0.346531      0.021488
  O      -4.807086     -0.321529     -0.607351
  C      -4.144720     -0.117885     -1.534309
  O      -3.604905      0.075140     -2.540792
14
Coordinates from ORCA-job ./orca E -399.095537552350
  O       1.708527     -0.271314     -0.579355
  N      -1.967568     -0.043663     -0.128658
  C      -0.664559     -0.082837     -0.786038
  C       0.496478     -0.233903      0.178891
  H      -0.537353      0.835496     -1.362129
  H      -0.655658     -0.913886     -1.493486
  H       0.383081     -1.156537      0.755000
  H       0.514201      0.608462      0.875449
  H      -2.102341     -0.890206      0.412177
  H      -1.989817      0.720259      0.537210
  H       2.445625     -0.336788      0.034331
  O      -4.809670     -0.291014     -0.594049
  C      -4.151658     -0.108788     -1.528777
  O      -3.616270      0.063405     -2.541246
14
Coordinates from ORCA-job ./orca E -399.095548357924
  O       1.711118     -0.267955     -0.575383
  N      -1.967293     -0.049229     -0.133036
  C      -0.662430     -0.085033     -0.788558
  C       0.496740     -0.233223      0.178923
  H      -0.536146      0.834102     -1.363582
  H      -0.650754     -0.915894     -1.496093
  H       0.383745     -1.155935      0.755008
  H       0.509995      0.609726      0.874892
  H      -2.099471     -0.896874      0.406850
  H      -1.989568      0.713058      0.534824
  H       2.446123     -0.331900      0.040977
  O      -4.809762     -0.275910     -0.586801
  C      -4.155802     -0.104157     -1.526677
  O      -3.623478      0.057913     -2.542025
14
Coordinates from ORCA-job ./orca E -399.095547709389
  O       1.712243     -0.265755     -0.573853
  N      -1.967905     -0.052745     -0.136175
  C      -0.661004     -0.086352     -0.788904
  C       0.497515     -0.232986      0.179506
  H      -0.535180      0.833155     -1.363419
  H      -0.647736     -0.917507     -1.496093
  H       0.385495     -1.155879      0.755482
  H       0.508386      0.610326      0.875134
  H      -2.097894     -0.900596      0.404054
  H      -1.990867      0.708899      0.532582
  H       2.446629     -0.328833      0.043348
  O      -4.809514     -0.266942     -0.582837
  C      -4.158803     -0.101217     -1.526297
  O      -3.628347      0.055119     -2.543207
14
Coordinates from ORCA-job ./orca E -399.095542371531
  O       1.712192     -0.264971     -0.573989
  N      -1.968499     -0.053999     -0.137664
  C      -0.660381     -0.086677     -0.788184
  C       0.498128     -0.233006      0.180281
  H      -0.534640      0.832819     -1.362715
  H      -0.646357     -0.918108     -1.495118
  H       0.386940     -1.156069      0.756117
  H       0.508740      0.610268      0.875994
  H      -2.097366     -0.901466      0.403524
  H      -1.992703      0.707842      0.530940
  H       2.447028     -0.327982      0.042694
  O      -4.809472     -0.264294     -0.581888
  C      -4.160195     -0.100247     -1.526605
  O      -3.630396      0.054577     -2.544067
14
Coordinates from ORCA-job ./orca E -399.095559099942
  O       1.712379     -0.263654     -0.573617
  N      -1.968785     -0.056159     -0.140083
  C      -0.659305     -0.087251     -0.787715
  C       0.498746     -0.232925      0.181395
  H      -0.533816      0.832237     -1.362296
  H      -0.643562     -0.918784     -1.494604
  H       0.388566     -1.156247      0.756971
  H       0.508904      0.610074      0.877472
  H      -2.096379     -0.903148      0.402269
  H      -1.995525      0.706069      0.528102
  H       2.447708     -0.326610      0.042490
  O      -4.809910     -0.259509     -0.579954
  C      -4.162322     -0.098646     -1.526233
  O      -3.633681      0.053239     -2.544879
14
Coordinates from ORCA-job ./orca E -399.095559663746
  O       1.712489     -0.263378     -0.573224
  N      -1.968849     -0.057075     -0.141950
  C      -0.658435     -0.087053     -0.787473
  C       0.499028     -0.233045      0.182264
  H      -0.532803      0.832498     -1.361913
  H      -0.641193     -0.918322     -1.494726
  H       0.389058     -1.156671      0.757366
  H       0.509538      0.609381      0.879015
  H      -2.095072     -0.902918      0.402623
  H      -1.998296      0.706475      0.524669
  H       2.448206     -0.327062      0.042349
  O      -4.810125     -0.258873     -0.578707
  C      -4.163904     -0.098437     -1.525730
  O      -3.636624      0.053166     -2.545245
14
Coordinates from ORCA-job ./orca E -399.095565330643
  O       1.713781     -0.262481     -0.570788
  N      -1.968128     -0.059991     -0.146293
  C      -0.656304     -0.087120     -0.788499
  C       0.499273     -0.233071      0.183398
  H      -0.530760      0.832937     -1.362108
  H      -0.635533     -0.917489     -1.496818
  H       0.389009     -1.157180      0.757654
  H       0.509174      0.608468      0.881196
  H      -2.091800     -0.904026      0.401783
  H      -2.002989      0.706019      0.517299
  H       2.449052     -0.327148      0.045210
  O      -4.810769     -0.254858     -0.574140
  C      -4.167461     -0.097231     -1.523381
  O      -3.643529      0.051860     -2.545193
14
Coordinates from ORCA-job ./orca E -399.095566023837
  O       1.715966     -0.262113     -0.567042
  N      -1.966857     -0.063027     -0.151206
  C      -0.653756     -0.086961     -0.790649
  C       0.499347     -0.233240      0.184029
  H      -0.528221      0.834073     -1.362646
  H      -0.629227     -0.915973     -1.500496
  H       0.387674     -1.157847      0.757228
  H       0.507992      0.607452      0.882832
  H      -2.087505     -0.904695      0.401239
  H      -2.007665      0.706461      0.507981
  H       2.449725     -0.327962      0.050624
  O      -4.811153     -0.252081     -0.568155
  C      -4.171402     -0.096409     -1.520034
  O      -3.651900      0.051010     -2.544385
14
Coordinates from ORCA-job ./orca E -399.095558997692
  O       1.718754     -0.262157     -0.562589
  N      -1.965232     -0.066041     -0.155993
  C      -0.651135     -0.086921     -0.793547
  C       0.499416     -0.233519      0.184053
  H      -0.525707      0.835425     -1.363370
  H      -0.623435     -0.914522     -1.504931
  H       0.385603     -1.158476      0.756309
  H       0.505940      0.606759      0.883363
  H      -2.083150     -0.905372      0.400527
  H      -2.011450      0.707189      0.498342
  H       2.450105     -0.328656      0.057854
  O      -4.811250     -0.250119     -0.561526
  C      -4.175147     -0.095678     -1.516222
  O      -3.660293      0.050775     -2.542952
14
Coordinates from ORCA-job ./orca E -399.095565076746
  O       1.721238     -0.261980     -0.558842
  N      -1.963926     -0.068711     -0.159759
  C      -0.649023     -0.087413     -0.796070
  C       0.499652     -0.233787      0.183832
  H      -0.523870      0.836048     -1.364053
  H      -0.619428     -0.914183     -1.508319
  H       0.384203     -1.158886      0.755563
  H       0.503563      0.606599      0.883049
  H      -2.080095     -0.906588      0.399233
  H      -2.013549      0.707054      0.491227
  H       2.450313     -0.328051      0.064334
  O      -4.811120     -0.247685     -0.555966
  C      -4.178069     -0.094559     -1.513171
  O      -3.666872      0.050828     -2.541738
14
Coordinates from ORCA-job ./orca E -399.095574878063
  O       1.721405     -0.262495     -0.558903
  N      -1.963920     -0.068186     -0.159351
  C      -0.649105     -0.087487     -0.796114
  C       0.499836     -0.234032      0.183540
  H      -0.523884      0.836036     -1.363965
  H      -0.620370     -0.914501     -1.508087
  H       0.384093     -1.159017      0.755401
  H       0.503407      0.606675      0.882394
  H      -2.080648     -0.905910      0.399679
  H      -2.012953      0.707907      0.491206
  H       2.450234     -0.327900      0.064641
  O      -4.810856     -0.249822     -0.556347
  C      -4.177735     -0.094889     -1.513283
  O      -3.666487      0.052307     -2.541492
14
Coordinates from ORCA-job ./orca E -399.093831764757
  O       1.711230     -0.261231     -0.557086
  N      -1.976109     -0.070101     -0.169475
  C      -0.657965     -0.088071     -0.808802
  C       0.485144     -0.232995      0.177934
  H      -0.530842      0.834782     -1.377323
  H      -0.612167     -0.921255     -1.513300
  H       0.366580     -1.157580      0.749870
  H       0.483897      0.608301      0.876103
  H      -2.071659     -0.921414      0.405159
  H      -2.004155      0.717596      0.501236
  H       2.436327     -0.325606      0.070927
  O      -4.797199     -0.250632     -0.545637
  C      -4.129617     -0.090537     -1.490996
  O      -3.650446      0.057430     -2.539291
14
Coordinates from ORCA-job ./orca E -399.094604022012
  O       1.709869     -0.260932     -0.558539
  N      -1.976034     -0.071960     -0.166821
  C      -0.659524     -0.089952     -0.805031
  C       0.485968     -0.231872      0.179723
  H      -0.535342      0.832307     -1.374532
  H      -0.620749     -0.921907     -1.510661
  H       0.369121     -1.155627      0.753186
  H       0.486279      0.610556      0.876608
  H      -2.073112     -0.907784      0.399014
  H      -2.004951      0.698626      0.491163
  H       2.436589     -0.324106      0.067716
  O      -4.791424     -0.249424     -0.549930
  C      -4.128614     -0.089293     -1.489897
  O      -3.645058      0.060054     -2.532679
14
Coordinates from ORCA-job ./orca E -399.094667760651
  O       1.709147     -0.259974     -0.560710
  N      -1.976426     -0.073641     -0.164539
  C      -0.660488     -0.092132     -0.803487
  C       0.486590     -0.231490      0.179683
  H      -0.537807      0.829527     -1.374441
  H      -0.625676     -0.923756     -1.509546
  H       0.371697     -1.154722      0.754455
  H       0.487096      0.611723      0.875522
  H      -2.077919     -0.909929      0.399659
  H      -2.008628      0.697827      0.492371
  H       2.437049     -0.321414      0.064348
  O      -4.787501     -0.248152     -0.552217
  C      -4.126841     -0.087848     -1.491168
  O      -3.637275      0.062667     -2.530610
14
Coordinates from ORCA-job ./orca E -399.094750515620
  O       1.707505     -0.257243     -0.565962
  N      -1.977214     -0.077485     -0.158911
  C      -0.663228     -0.097473     -0.799883
  C       0.487638     -0.230934      0.179033
  H      -0.543819      0.822459     -1.374794
  H      -0.636233     -0.929379     -1.505807
  H       0.377879     -1.152905      0.756935
  H       0.487706      0.614158      0.872405
  H      -2.089430     -0.915504      0.401126
  H      -2.017691      0.696423      0.495444
  H       2.438089     -0.314144      0.056396
  O      -4.778970     -0.245287     -0.555581
  C      -4.122003     -0.083853     -1.494678
  O      -3.617211      0.069853     -2.526402
14
Coordinates from ORCA-job ./orca E -399.094755431379
  O       1.707029     -0.256146     -0.567464
  N      -1.977344     -0.078450     -0.157188
  C      -0.664346     -0.099027     -0.798926
  C       0.487737     -0.230995      0.178615
  H      -0.545568      0.820170     -1.375237
  H      -0.638102     -0.931747     -1.504010
  H       0.379867     -1.152683      0.757296
  H       0.487261      0.614592      0.871423
  H      -2.092625     -0.916904      0.401384
  H      -2.020446      0.696055      0.496134
  H       2.438285     -0.311658      0.054213
  O      -4.777070     -0.244528     -0.555814
  C      -4.120355     -0.082407     -1.495815
  O      -3.611307      0.072416     -2.525290
14
Coordinates from ORCA-job ./orca E -399.094755993614
  O       1.706782     -0.255490     -0.568130
  N      -1.977319     -0.078814     -0.156391
  C      -0.665059     -0.099638     -0.798563
  C       0.487713     -0.231091      0.178378
  H      -0.546280      0.819093     -1.375607
  H      -0.637923     -0.933172     -1.502740
  H       0.380897     -1.152749      0.757251
  H       0.486893      0.614645      0.871084
  H      -2.093901     -0.917417      0.401471
  H      -2.021803      0.696020      0.496211
  H       2.438294     -0.310575      0.053272
  O      -4.776608     -0.244289     -0.555780
  C      -4.119542     -0.081655     -1.496282
  O      -3.609125      0.073818     -2.524856
14
Coordinates from ORCA-job ./orca E -399.094758604302
  O       1.706668     -0.255269     -0.568394
  N      -1.977288     -0.078993     -0.156126
  C      -0.665342     -0.099795     -0.798405
  C       0.487755     -0.231052      0.178376
  H      -0.546462      0.818742     -1.375709
  H      -0.637411     -0.933726     -1.502109
  H       0.381300     -1.152717      0.757280
  H       0.486939      0.614731      0.871059
  H      -2.094259     -0.917600      0.401551
  H      -2.022371      0.696054      0.496084
  H       2.438306     -0.310432      0.052850
  O      -4.776666     -0.244361     -0.555965
  C      -4.119290     -0.081389     -1.496370
  O      -3.608861      0.074495     -2.524801
14
Coordinates from ORCA-job ./orca E -399.093020036833
  O       1.693020     -0.254797     -0.575680
  N      -1.990330     -0.079264     -0.157618
  C      -0.679395     -0.099990     -0.801965
  C       0.475296     -0.230555      0.173028
  H      -0.561712      0.818304     -1.379902
  H      -0.652369     -0.934227     -1.505342
  H       0.369987     -1.152000      0.752494
  H       0.475384      0.615522      0.865353
  H      -2.090226     -0.930467      0.417025
  H      -2.019056      0.708040      0.512885
  H       2.425665     -0.309520      0.044417
  O      -4.760841     -0.245697     -0.557546
  C      -4.061560     -0.080619     -1.481782
  O      -3.570845      0.073956     -2.526048
14
Coordinates from ORCA-job ./orca E -399.093787405138
  O       1.691678     -0.254281     -0.576245
  N      -1.990606     -0.079523     -0.154186
  C      -0.679864     -0.099651     -0.800688
  C       0.474963     -0.230538      0.173696
  H      -0.562954      0.818960     -1.378293
  H      -0.653512     -0.933794     -1.504192
  H       0.370024     -1.152388      0.752539
  H       0.475421      0.615152      0.866447
  H      -2.090570     -0.914793      0.411905
  H      -2.020495      0.691956      0.502820
  H       2.424822     -0.309635      0.043198
  O      -4.756460     -0.243903     -0.560992
  C      -4.061508     -0.081084     -1.478861
  O      -3.567921      0.072209     -2.517829
14
Coordinates from ORCA-job ./orca E -399.093827600932
  O       1.690917     -0.253507     -0.577681
  N      -1.990792     -0.079904     -0.151964
  C      -0.680601     -0.099792     -0.800548
  C       0.474815     -0.230736      0.173213
  H      -0.564447      0.818972     -1.377885
  H      -0.654735     -0.933718     -1.504199
  H       0.370662     -1.152992      0.751557
  H       0.475462      0.614492      0.866508
  H      -2.093550     -0.915671      0.413099
  H      -2.023677      0.693465      0.503083
  H       2.424563     -0.309116      0.041161
  O      -4.753602     -0.242244     -0.562396
  C      -4.060133     -0.081305     -1.479077
  O      -3.561864      0.070743     -2.515550
14
Coordinates from ORCA-job ./orca E -399.093870243767
  O       1.689475     -0.251937     -0.581085
  N      -1.991095     -0.080713     -0.147301
  C      -0.682858     -0.100058     -0.799290
  C       0.474669     -0.231117      0.172185
  H      -0.568708      0.819149     -1.376107
  H      -0.658503     -0.933570     -1.503324
  H       0.372430     -1.154155      0.749605
  H       0.475996      0.613184      0.866573
  H      -2.099605     -0.917460      0.415447
  H      -2.030536      0.696336      0.503373
  H       2.424435     -0.308181      0.036155
  O      -4.748487     -0.238818     -0.564165
  C      -4.056519     -0.081670     -1.480502
  O      -3.547677      0.067698     -2.512245
14
Coordinates from ORCA-job ./orca E -399.093877963568
  O       1.688778     -0.251364     -0.583058
  N      -1.991265     -0.081235     -0.145050
  C      -0.684271     -0.100154     -0.797968
  C       0.474827     -0.231186      0.171768
  H      -0.571167      0.819304     -1.374644
  H      -0.660647     -0.933497     -1.502268
  H       0.373682     -1.154459      0.748993
  H       0.476827      0.612880      0.866440
  H      -2.102404     -0.918254      0.416450
  H      -2.034200      0.697101      0.503574
  H       2.424563     -0.307959      0.033147
  O      -4.746651     -0.237108     -0.564857
  C      -4.054389     -0.081707     -1.481807
  O      -3.540665      0.066327     -2.511399
14
Coordinates from ORCA-job ./orca E -399.093880138077
  O       1.688374     -0.251179     -0.584291
  N      -1.991390     -0.081756     -0.143951
  C      -0.685083     -0.100250     -0.796854
  C       0.475117     -0.231084      0.171685
  H      -0.572458      0.819294     -1.373591
  H      -0.661572     -0.933536     -1.501320
  H       0.374682     -1.154327      0.749080
  H       0.477686      0.613094      0.866233
  H      -2.103727     -0.918850      0.416903
  H      -2.036405      0.696863      0.503890
  H       2.424733     -0.307933      0.031197
  O      -4.746193     -0.235911     -0.565401
  C      -4.053171     -0.081499     -1.482779
  O      -3.537575      0.065761     -2.511482
14
Coordinates from ORCA-job ./orca E -399.093881887683
  O       1.688208     -0.251041     -0.584803
  N      -1.991447     -0.082252     -0.143625
  C      -0.685330     -0.100419     -0.796313
  C       0.475341     -0.230953      0.171766
  H      -0.572840      0.819098     -1.373175
  H      -0.661574     -0.933710     -1.500812
  H       0.375297     -1.154102      0.749379
  H       0.478127      0.613389      0.866127
  H      -2.104119     -0.919375      0.417024
  H      -2.037385      0.696297      0.504134
  H       2.424858     -0.307779      0.030336
  O      -4.746308     -0.234923     -0.565769
  C      -4.052770     -0.081161     -1.483158
  O      -3.537040      0.065616     -2.511794
14
Coordinates from ORCA-job ./orca E -399.092159281828
  O       1.674759     -0.250571     -0.591821
  N      -2.004348     -0.082508     -0.145730
  C      -0.699103     -0.100598     -0.800165
  C       0.462915     -0.230462      0.166389
  H      -0.587669      0.818685     -1.377607
  H      -0.676087     -0.934184     -1.504340
  H       0.363876     -1.153400      0.744515
  H       0.466445      0.614163      0.860402
  H      -2.100576     -0.932510      0.432274
  H      -2.034495      0.708570      0.520592
  H       2.412258     -0.306883      0.022339
  O      -4.730539     -0.236124     -0.567423
  C      -3.995390     -0.080611     -1.467653
  O      -3.499029      0.065118     -2.512452
14
Coordinates from ORCA-job ./orca E -399.092946968036
  O       1.672907     -0.250134     -0.593063
  N      -2.004667     -0.083069     -0.141692
  C      -0.699645     -0.100414     -0.798264
  C       0.462721     -0.230370      0.167303
  H      -0.589259      0.819118     -1.375466
  H      -0.677441     -0.933914     -1.502498
  H       0.364453     -1.153528      0.745112
  H       0.467031      0.614136      0.861391
  H      -2.101078     -0.916874      0.426986
  H      -2.036282      0.691721      0.511130
  H       2.411397     -0.306760      0.019854
  O      -4.726453     -0.233820     -0.571855
  C      -3.994793     -0.080806     -1.464993
  O      -3.495873      0.063399     -2.504626
14
Coordinates from ORCA-job ./orca E -399.092988835736
  O       1.671927     -0.249310     -0.594953
  N      -2.004929     -0.083774     -0.139032
  C      -0.700490     -0.100712     -0.797726
  C       0.462706     -0.230478      0.166919
  H      -0.591097      0.818932     -1.374759
  H      -0.678820     -0.934038     -1.502052
  H       0.365561     -1.153929      0.744453
  H       0.467417      0.613720      0.861359
  H      -2.104234     -0.918337      0.428388
  H      -2.039743      0.692840      0.511975
  H       2.411244     -0.305928      0.016987
  O      -4.723982     -0.231386     -0.574092
  C      -3.992981     -0.080720     -1.465444
  O      -3.489561      0.061806     -2.502703
14
Coordinates from ORCA-job ./orca E -399.093021552345
  O       1.670103     -0.247466     -0.599154
  N      -2.005360     -0.085409     -0.133494
  C      -0.702978     -0.101444     -0.795753
  C       0.462794     -0.230658      0.166044
  H      -0.596106      0.818536     -1.372509
  H      -0.682810     -0.934501     -1.500276
  H       0.368307     -1.154666      0.743090
  H       0.468453      0.612902      0.861211
  H      -2.110447     -0.921340      0.431072
  H      -2.046896      0.694525      0.513476
  H       2.411293     -0.304059      0.010535
  O      -4.719845     -0.225898     -0.577541
  C      -3.988489     -0.080275     -1.467250
  O      -3.475003      0.058440     -2.500133
14
Coordinates from ORCA-job ./orca E -399.093030201596
  O       1.669063     -0.246284     -0.601878
  N      -2.005620     -0.086689     -0.130214
  C      -0.704820     -0.102009     -0.793953
  C       0.463032     -0.230654      0.165544
  H      -0.599570      0.818189     -1.370705
  H      -0.685454     -0.934987     -1.498620
  H       0.370409     -1.154916      0.742471
  H       0.469379      0.612677      0.860979
  H      -2.113812     -0.923157      0.432550
  H      -2.051210      0.694587      0.514500
  H       2.411462     -0.302814      0.006330
  O      -4.718171     -0.221930     -0.579398
  C      -3.985419     -0.079673     -1.468900
  O      -3.466253      0.056349     -2.499386
14
Coordinates from ORCA-job ./orca E -399.093033856855
  O       1.668380     -0.245390     -0.603765
  N      -2.005824     -0.087999     -0.128168
  C      -0.706125     -0.102586     -0.792433
  C       0.463359     -0.230485      0.165302
  H      -0.601929      0.817678     -1.369384
  H      -0.686906     -0.935585     -1.497162
  H       0.372193     -1.154787      0.742392
  H       0.470169      0.612916      0.860660
  H      -2.115599     -0.924738      0.433479
  H      -2.054007      0.693602      0.515562
  H       2.411622     -0.301757      0.003408
  O      -4.717766     -0.218313     -0.580793
  C      -3.983308     -0.078824     -1.470257
  O      -3.461240      0.054954     -2.499521
14
Coordinates from ORCA-job ./orca E -399.093036489116
  O       1.667989     -0.244635     -0.604821
  N      -2.005975     -0.089273     -0.127120
  C      -0.706801     -0.103177     -0.791511
  C       0.463639     -0.230251      0.165269
  H      -0.603215      0.817033     -1.368735
  H      -0.687261     -0.936247     -1.496206
  H       0.373504     -1.154491      0.742625
  H       0.470557      0.613340      0.860412
  H      -2.116214     -0.926185      0.433992
  H      -2.055473      0.692171      0.516520
  H       2.411739     -0.300756      0.001746
  O      -4.718030     -0.215027     -0.581831
  C      -3.982210     -0.077869     -1.471030
  O      -3.459231      0.054054     -2.499991
14
Coordinates from ORCA-job ./orca E -399.093038901052
  O       1.667229     -0.242631     -0.606776
  N      -2.006291     -0.092585     -0.125146
  C      -0.707982     -0.104775     -0.789860
  C       0.464192     -0.229649      0.165288
  H      -0.605807      0.815245     -1.367751
  H      -0.687397     -0.938062     -1.494351
  H       0.376385     -1.153712      0.743285
  H       0.470928      0.614395      0.859908
  H      -2.116942     -0.929964      0.434971
  H      -2.058123      0.688355      0.518702
  H       2.411984     -0.298012     -0.001377
  O      -4.718952     -0.206551     -0.584077
  C      -3.980236     -0.075325     -1.472356
  O      -3.455969      0.051955     -2.501143
14
Coordinates from ORCA-job ./orca E -399.093044303887
  O       1.666302     -0.239172     -0.609087
  N      -2.006712     -0.098086     -0.122636
  C      -0.709367     -0.107529     -0.788047
  C       0.464828     -0.228704      0.165337
  H      -0.609546      0.812180     -1.366925
  H      -0.687034     -0.941225     -1.492050
  H       0.380513     -1.152505      0.744259
  H       0.470655      0.615972      0.859222
  H      -2.117285     -0.936279      0.436131
  H      -2.061255      0.682114      0.521753
  H       2.412322     -0.293184     -0.005122
  O      -4.720473     -0.192484     -0.587060
  C      -3.977860     -0.071059     -1.473776
  O      -3.452069      0.048646     -2.502678
14
Coordinates from ORCA-job ./orca E -399.093053215724
  O       1.665118     -0.232787     -0.611953
  N      -2.007335     -0.107824     -0.119176
  C      -0.711169     -0.112551     -0.786034
  C       0.465518     -0.227163      0.165339
  H      -0.615683      0.806673     -1.366448
  H      -0.685877     -0.947022     -1.489009
  H       0.386946     -1.150612      0.745594
  H       0.468878      0.618386      0.858197
  H      -2.116851     -0.947468      0.437546
  H      -2.065217      0.671307      0.526171
  H       2.412794     -0.284165     -0.009801
  O      -4.722852     -0.167414     -0.591124
  C      -3.974711     -0.063477     -1.475345
  O      -3.446542      0.042805     -2.504637
14
Coordinates from ORCA-job ./orca E -399.093058215534
  O       1.664504     -0.226336     -0.613377
  N      -2.007822     -0.117563     -0.116936
  C      -0.712287     -0.117661     -0.785383
  C       0.465696     -0.225691      0.165187
  H      -0.621364      0.801160     -1.367104
  H      -0.684196     -0.952983     -1.487155
  H       0.392227     -1.148805      0.746593
  H       0.465707      0.620592      0.857154
  H      -2.115014     -0.958662      0.438118
  H      -2.067447      0.660616      0.529491
  H       2.413083     -0.274859     -0.012095
  O      -4.724830     -0.142374     -0.593623
  C      -3.972781     -0.055860     -1.475928
  O      -3.442459      0.037113     -2.505623
14
Coordinates from ORCA-job ./orca E -399.093064186360
  O       1.664397     -0.218526     -0.613497
  N      -2.008317     -0.129441     -0.115692
  C      -0.712969     -0.123940     -0.786079
  C       0.465310     -0.223953      0.164765
  H      -0.627874      0.794482     -1.369157
  H      -0.681640     -0.960378     -1.486219
  H       0.397249     -1.146648      0.747431
  H       0.460299      0.623138      0.855709
  H      -2.111020     -0.972254      0.437836
  H      -2.068346      0.647601      0.532270
  H       2.413151     -0.263272     -0.012128
  O      -4.726645     -0.111926     -0.594698
  C      -3.971815     -0.046501     -1.475666
  O      -3.438763      0.030306     -2.505554
14
Coordinates from ORCA-job ./orca E -399.093072971778
  O       1.664856     -0.214085     -0.612280
  N      -2.008614     -0.136625     -0.116282
  C      -0.712907     -0.127690     -0.787657
  C       0.464588     -0.222907      0.164277
  H      -0.631499      0.790568     -1.371410
  H      -0.679697     -0.964852     -1.486737
  H       0.398998     -1.145281      0.747703
  H       0.455900      0.624734      0.854503
  H      -2.106905     -0.980311      0.436916
  H      -2.067562      0.639559      0.532966
  H       2.412905     -0.256247     -0.009848
  O      -4.727359     -0.093763     -0.593566
  C      -3.972465     -0.040759     -1.474896
  O      -3.437222      0.026345     -2.504369
14
Coordinates from ORCA-job ./orca E -399.093080794252
  O       1.665239     -0.211566     -0.611193
  N      -2.008986     -0.141426     -0.117309
  C      -0.712904     -0.130034     -0.788887
  C       0.463953     -0.222180      0.163843
  H      -0.633856      0.788144     -1.373077
  H      -0.678298     -0.967606     -1.487391
  H       0.399582     -1.144246      0.747886
  H       0.452840      0.625992      0.853388
  H      -2.103380     -0.985420      0.436228
  H      -2.066942      0.633938      0.533102
  H       2.412530     -0.251771     -0.007694
  O      -4.727531     -0.082056     -0.592008
  C      -3.973366     -0.036916     -1.474520
  O      -3.435861      0.023834     -2.503047
14
Coordinates from ORCA-job ./orca E -399.093075967911
  O       1.665152     -0.211367     -0.611175
  N      -2.009321     -0.142739     -0.117764
  C      -0.713153     -0.130495     -0.788903
  C       0.463821     -0.221941      0.163746
  H      -0.634489      0.787655     -1.373261
  H      -0.677875     -0.968058     -1.487457
  H       0.399610     -1.143809      0.748133
  H       0.452434      0.626566      0.852890
  H      -2.102210     -0.986502      0.436390
  H      -2.067293      0.632187      0.533161
  H       2.412303     -0.250870     -0.007458
  O      -4.727361     -0.079448     -0.591497
  C      -3.973660     -0.035905     -1.474853
  O      -3.434940      0.023411     -2.502633
14
Coordinates from ORCA-job ./orca E -399.093076486479
  O       1.664815     -0.211695     -0.611684
  N      -2.009590     -0.143086     -0.117725
  C      -0.713498     -0.130496     -0.788407
  C       0.463913     -0.221854      0.163832
  H      -0.634644      0.787614     -1.372867
  H      -0.677730     -0.967948     -1.487141
  H       0.399777     -1.143570      0.748476
  H       0.452950      0.626873      0.852721
  H      -2.102090     -0.986531      0.436974
  H      -2.068113      0.631680      0.533332
  H       2.412208     -0.250898     -0.008243
  O      -4.727149     -0.079393     -0.591753
  C      -3.973506     -0.035686     -1.475382
  O      -3.434324      0.023676     -2.502813
14
Coordinates from ORCA-job ./orca E -399.091374084665
  O       1.655371     -0.211214     -0.609695
  N      -2.021172     -0.143416     -0.129156
  C      -0.721817     -0.130173     -0.801638
  C       0.449530     -0.220688      0.158181
  H      -0.640084      0.787134     -1.386970
  H      -0.669296     -0.973694     -1.492833
  H       0.381670     -1.141888      0.743232
  H       0.434179      0.628647      0.846250
  H      -2.094695     -1.002517      0.442219
  H      -2.060276      0.642692      0.543012
  H       2.398920     -0.249883     -0.001459
  O      -4.714167     -0.079364     -0.580749
  C      -3.926541     -0.035447     -1.451024
  O      -3.418606      0.028498     -2.500051
14
Coordinates from ORCA-job ./orca E -399.092219570288
  O       1.653298     -0.212605     -0.611031
  N      -2.020258     -0.143733     -0.126238
  C      -0.722797     -0.129852     -0.797838
  C       0.450075     -0.219866      0.160354
  H      -0.643616      0.787566     -1.382552
  H      -0.677466     -0.971051     -1.491279
  H       0.382389     -1.140641      0.745861
  H       0.437628      0.630040      0.847799
  H      -2.094303     -0.984717      0.434777
  H      -2.061387      0.625606      0.532146
  H       2.398431     -0.252178     -0.004843
  O      -4.708539     -0.081493     -0.585007
  C      -3.925081     -0.036559     -1.448957
  O      -3.415357      0.028170     -2.493873
14
Coordinates from ORCA-job ./orca E -399.092265589444
  O       1.652691     -0.213101     -0.612996
  N      -2.020308     -0.143659     -0.123936
  C      -0.723327     -0.129624     -0.796373
  C       0.450741     -0.219716      0.160311
  H      -0.645094      0.788013     -1.380948
  H      -0.681998     -0.969457     -1.491543
  H       0.383470     -1.140421      0.746056
  H       0.439701      0.630215      0.847634
  H      -2.098044     -0.985334      0.436079
  H      -2.065802      0.627466      0.532716
  H       2.398805     -0.253174     -0.008017
  O      -4.705388     -0.082923     -0.587574
  C      -3.923062     -0.037303     -1.449696
  O      -3.409368      0.027705     -2.492393
14
Coordinates from ORCA-job ./orca E -399.092321603512
  O       1.651473     -0.213603     -0.617578
  N      -2.020321     -0.142780     -0.118516
  C      -0.724980     -0.128925     -0.792788
  C       0.452001     -0.220105      0.159734
  H      -0.648554      0.789323     -1.376916
  H      -0.691542     -0.966190     -1.491359
  H       0.386135     -1.141066      0.745348
  H       0.443485      0.629340      0.847502
  H      -2.106528     -0.985450      0.439233
  H      -2.075999      0.632301      0.533191
  H       2.399692     -0.254844     -0.015254
  O      -4.699432     -0.086128     -0.591630
  C      -3.917943     -0.039174     -1.451826
  O      -3.394470      0.025987     -2.489822
14
Coordinates from ORCA-job ./orca E -399.092330337333
  O       1.650903     -0.213397     -0.619596
  N      -2.020177     -0.141652     -0.116071
  C      -0.726010     -0.128208     -0.791182
  C       0.452374     -0.220899      0.159237
  H      -0.649881      0.790479     -1.374745
  H      -0.694861     -0.964614     -1.490982
  H       0.387438     -1.142481      0.743971
  H       0.444678      0.627759      0.848002
  H      -2.110059     -0.984177      0.440932
  H      -2.080505      0.635274      0.532675
  H       2.399908     -0.255467     -0.018326
  O      -4.697452     -0.087635     -0.592652
  C      -3.915415     -0.040458     -1.452954
  O      -3.387923      0.024164     -2.488989
14
Coordinates from ORCA-job ./orca E -399.092332256706
  O       1.650436     -0.213152     -0.620980
  N      -2.020010     -0.140079     -0.114439
  C      -0.726897     -0.127020     -0.790079
  C       0.452554     -0.221901      0.158853
  H      -0.650342      0.792245     -1.372672
  H      -0.696172     -0.962867     -1.490695
  H       0.388252     -1.144429      0.742126
  H       0.445531      0.625643      0.849079
  H      -2.112132     -0.982029      0.442542
  H      -2.083582      0.638327      0.531705
  H       2.399924     -0.256435     -0.020417
  O      -4.696628     -0.089091     -0.593201
  C      -3.913683     -0.042100     -1.453775
  O      -3.384234      0.021575     -2.488729
14
Coordinates from ORCA-job ./orca E -399.092338257005
  O       1.650244     -0.213240     -0.621399
  N      -2.019934     -0.138939     -0.114011
  C      -0.727192     -0.125934     -0.789727
  C       0.452620     -0.222447      0.158808
  H      -0.650017      0.793814     -1.371432
  H      -0.696043     -0.961397     -1.490827
  H       0.388238     -1.145646      0.740992
  H       0.446150      0.624320      0.850035
  H      -2.112451     -0.980427      0.443434
  H      -2.084574      0.640188      0.530985
  H       2.399885     -0.257604     -0.021112
  O      -4.696683     -0.090153     -0.593470
  C      -3.913274     -0.043413     -1.453996
  O      -3.383952      0.019565     -2.488960
14
Coordinates from ORCA-job ./orca E -399.090869360370
  O       1.637261     -0.212633     -0.627891
  N      -2.032498     -0.138627     -0.117407
  C      -0.740324     -0.125540     -0.794210
  C       0.440300     -0.221893      0.153331
  H      -0.663744      0.794166     -1.376060
  H      -0.709690     -0.961050     -1.495277
  H       0.376490     -1.145061      0.735627
  H       0.434343      0.624917      0.844511
  H      -2.110396     -0.994568      0.458001
  H      -2.082305      0.652673      0.546895
  H       2.387415     -0.256895     -0.028236
  O      -4.681045     -0.090385     -0.595317
  C      -3.856777     -0.045423     -1.436418
  O      -3.346012      0.019008     -2.488229
14
Coordinates from ORCA-job ./orca E -399.091716177627
  O       1.635608     -0.213546     -0.627571
  N      -2.031487     -0.138460     -0.114653
  C      -0.739920     -0.124771     -0.793640
  C       0.439702     -0.221765      0.154524
  H      -0.664033      0.795321     -1.374686
  H      -0.710087     -0.960214     -1.494591
  H       0.375178     -1.144814      0.736782
  H       0.434504      0.625289      0.845313
  H      -2.109105     -0.976739      0.449582
  H      -2.082338      0.636348      0.536384
  H       2.385982     -0.258387     -0.028245
  O      -4.676953     -0.091623     -0.598028
  C      -3.857080     -0.046299     -1.431918
  O      -3.346952      0.018346     -2.479933
14
Coordinates from ORCA-job ./orca E -399.091745548582
  O       1.635472     -0.213951     -0.628129
  N      -2.031067     -0.138185     -0.113197
  C      -0.739904     -0.124199     -0.794108
  C       0.439712     -0.221776      0.154166
  H      -0.664431      0.796152     -1.374560
  H      -0.710650     -0.959400     -1.495193
  H       0.374860     -1.144876      0.736313
  H       0.434982      0.625139      0.845103
  H      -2.111470     -0.977696      0.449627
  H      -2.085091      0.638470      0.536194
  H       2.385951     -0.259251     -0.028926
  O      -4.674951     -0.092388     -0.599106
  C      -3.856254     -0.046915     -1.431086
  O      -3.344141      0.017563     -2.477778
14
Coordinates from ORCA-job ./orca E -399.091775587313
  O       1.635490     -0.214488     -0.629353
  N      -2.030261     -0.137425     -0.110711
  C      -0.740350     -0.123127     -0.793991
  C       0.439965     -0.221999      0.153531
  H      -0.665814      0.797852     -1.373300
  H      -0.712596     -0.957796     -1.495579
  H       0.374771     -1.145390      0.735156
  H       0.436194      0.624391      0.845076
  H      -2.115786     -0.978405      0.449468
  H      -2.090121      0.642086      0.535031
  H       2.386312     -0.260699     -0.030625
  O      -4.672344     -0.093785     -0.599817
  C      -3.854306     -0.048186     -1.430320
  O      -3.338135      0.015660     -2.475245
14
Coordinates from ORCA-job ./orca E -399.091785839472
  O       1.635526     -0.214839     -0.630491
  N      -2.029637     -0.136572     -0.109000
  C      -0.740848     -0.122184     -0.793175
  C       0.440412     -0.222349      0.153161
  H      -0.666861      0.799389     -1.371568
  H      -0.714329     -0.956290     -1.495461
  H       0.375147     -1.146159      0.734105
  H       0.437587      0.623472      0.845391
  H      -2.119295     -0.978106      0.449282
  H      -2.094243      0.644795      0.533673
  H       2.386741     -0.261843     -0.032332
  O      -4.670839     -0.094982     -0.599865
  C      -3.852576     -0.049374     -1.430272
  O      -3.333767      0.013729     -2.474128
14
Coordinates from ORCA-job ./orca E -399.091785525501
  O       1.635568     -0.215129     -0.631398
  N      -2.029190     -0.135622     -0.108110
  C      -0.741139     -0.121272     -0.792069
  C       0.441005     -0.222775      0.153099
  H      -0.667129      0.800817     -1.369714
  H      -0.715357     -0.954748     -1.495211
  H       0.375758     -1.147086      0.733261
  H       0.439099      0.622471      0.846041
  H      -2.122097     -0.977122      0.449096
  H      -2.097583      0.646856      0.532282
  H       2.387177     -0.262858     -0.033808
  O      -4.669993     -0.096087     -0.599557
  C      -3.851378     -0.050535     -1.430555
  O      -3.331724      0.011777     -2.474038
14
Coordinates from ORCA-job ./orca E -399.091787940251
  O       1.635689     -0.215341     -0.631544
  N      -2.028969     -0.134963     -0.108319
  C      -0.740981     -0.120696     -0.791531
  C       0.441398     -0.223063      0.153293
  H      -0.666459      0.801642     -1.368793
  H      -0.715185     -0.953757     -1.495240
  H       0.376044     -1.147687      0.732956
  H       0.439921      0.621842      0.846658
  H      -2.123200     -0.976205      0.448806
  H      -2.098945      0.647776      0.531354
  H       2.387434     -0.263464     -0.034164
  O      -4.669772     -0.096788     -0.598939
  C      -3.851304     -0.051239     -1.430648
  O      -3.332653      0.010629     -2.474571
14
Coordinates from ORCA-job ./orca E -399.091790440129
  O       1.636074     -0.215692     -0.631189
  N      -2.028615     -0.133955     -0.109314
  C      -0.740356     -0.119828     -0.791215
  C       0.441891     -0.223472      0.153710
  H      -0.664764      0.802834     -1.367896
  H      -0.714222     -0.952301     -1.495686
  H       0.376112     -1.148533      0.732645
  H       0.440781      0.620932      0.847695
  H      -2.124180     -0.974807      0.448025
  H      -2.100213      0.648975      0.529812
  H       2.387814     -0.264372     -0.033849
  O      -4.669586     -0.097830     -0.597484
  C      -3.851935     -0.052259     -1.430411
  O      -3.335783      0.008994     -2.475524
14
Coordinates from ORCA-job ./orca E -399.091795978526
  O       1.636794     -0.216200     -0.630156
  N      -2.028103     -0.132759     -0.111052
  C      -0.739261     -0.118768     -0.791457
  C       0.442317     -0.223905      0.154227
  H      -0.662323      0.804282     -1.367367
  H      -0.712597     -0.950610     -1.496695
  H       0.375679     -1.149410      0.732362
  H       0.441361      0.619937      0.848898
  H      -2.124732     -0.973289      0.446585
  H      -2.101022      0.650335      0.527718
  H       2.388258     -0.265513     -0.032516
  O      -4.669427     -0.099097     -0.595122
  C      -3.853343     -0.053446     -1.429642
  O      -3.340583      0.007131     -2.476464
14
Coordinates from ORCA-job ./orca E -399.091796917903
  O       1.637979     -0.216880     -0.628256
  N      -2.027360     -0.131359     -0.113650
  C      -0.737632     -0.117501     -0.792431
  C       0.442622     -0.224357      0.154773
  H      -0.659164      0.806042     -1.367322
  H      -0.710338     -0.948693     -1.498409
  H       0.374560     -1.150317      0.732018
  H       0.441492      0.618852      0.850203
  H      -2.124786     -0.971708      0.444219
  H      -2.101252      0.651914      0.524872
  H       2.388770     -0.266890     -0.029826
  O      -4.669278     -0.100580     -0.591531
  C      -3.855633     -0.054811     -1.428194
  O      -3.346961      0.004975     -2.477146
14
Coordinates from ORCA-job ./orca E -399.091798444502
  O       1.639332     -0.217568     -0.626013
  N      -2.026601     -0.130161     -0.116378
  C      -0.735953     -0.116387     -0.793854
  C       0.442720     -0.224687      0.155141
  H      -0.656302      0.807633     -1.367761
  H      -0.708180     -0.947096     -1.500348
  H       0.373041     -1.150972      0.731672
  H       0.441132      0.618028      0.851155
  H      -2.124369     -0.970551      0.441477
  H      -2.100844      0.653236      0.522051
  H       2.389202     -0.268110     -0.026474
  O      -4.669191     -0.101818     -0.587631
  C      -3.858146     -0.055957     -1.426496
  O      -3.352824      0.003100     -2.477221
14
Coordinates from ORCA-job ./orca E -399.091799252892
  O       1.640691     -0.218216     -0.623731
  N      -2.025909     -0.129201     -0.119006
  C      -0.734399     -0.115478     -0.795420
  C       0.442685     -0.224908      0.155338
  H      -0.653921      0.808966     -1.368477
  H      -0.706315     -0.945847     -1.502267
  H       0.371387     -1.151403      0.731335
  H       0.440482      0.617471      0.851743
  H      -2.123738     -0.969786      0.438612
  H      -2.100042      0.654196      0.519492
  H       2.389523     -0.269065     -0.022925
  O      -4.669135     -0.102707     -0.583749
  C      -3.860599     -0.056843     -1.424819
  O      -3.357693      0.001508     -2.476807
14
Coordinates from ORCA-job ./orca E -399.091791825418
  O       1.641519     -0.218595     -0.622347
  N      -2.025545     -0.128711     -0.120613
  C      -0.733525     -0.115021     -0.796376
  C       0.442631     -0.225006      0.155380
  H      -0.652690      0.809649     -1.369009
  H      -0.705321     -0.945222     -1.503404
  H       0.370355     -1.151588      0.731123
  H       0.439986      0.617252      0.851927
  H      -2.123384     -0.969493      0.436699
  H      -2.099410      0.654538      0.518089
  H       2.389663     -0.269443     -0.020688
  O      -4.669070     -0.102966     -0.581294
  C      -3.862087     -0.057252     -1.423871
  O      -3.360104      0.000545     -2.476297
14
Coordinates from ORCA-job ./orca E -399.090624509757
  O       1.628641     -0.218054     -0.628708
  N      -2.038046     -0.128509     -0.124143
  C      -0.746548     -0.114749     -0.800904
  C       0.430358     -0.224503      0.149950
  H      -0.666273      0.809856     -1.373722
  H      -0.718800     -0.945031     -1.507855
  H       0.358626     -1.151027      0.725855
  H       0.428165      0.617834      0.846404
  H      -2.121477     -0.983668      0.451153
  H      -2.097447      0.667303      0.533771
  H       2.377258     -0.268756     -0.027624
  O      -4.653499     -0.103261     -0.583313
  C      -3.805732     -0.058704     -1.406054
  O      -3.322209     -0.000046     -2.475488
14
Coordinates from ORCA-job ./orca E -399.091485342903
  O       1.626739     -0.218763     -0.628402
  N      -2.036826     -0.128968     -0.121398
  C      -0.746007     -0.114612     -0.800483
  C       0.429660     -0.224185      0.151188
  H      -0.666790      0.810048     -1.373029
  H      -0.719170     -0.945176     -1.506850
  H       0.357530     -1.150265      0.727577
  H       0.427897      0.618834      0.846707
  H      -2.120242     -0.966812      0.442287
  H      -2.096985      0.649770      0.523756
  H       2.375576     -0.269261     -0.027598
  O      -4.649549     -0.103620     -0.586042
  C      -3.805827     -0.058747     -1.401470
  O      -3.322988      0.000443     -2.466923
14
Coordinates from ORCA-job ./orca E -399.091514291047
  O       1.626687     -0.218926     -0.628914
  N      -2.036362     -0.129340     -0.119977
  C      -0.745929     -0.114745     -0.801018
  C       0.429724     -0.224015      0.150829
  H      -0.667476      0.809852     -1.373532
  H      -0.719672     -0.945451     -1.507055
  H       0.357597     -1.149850      0.727624
  H       0.428041      0.619248      0.846034
  H      -2.122862     -0.968668      0.441879
  H      -2.099514      0.650872      0.523990
  H       2.375630     -0.269104     -0.028165
  O      -4.647716     -0.103420     -0.587226
  C      -3.804984     -0.058533     -1.400541
  O      -3.320144      0.000767     -2.464609
14
Coordinates from ORCA-job ./orca E -399.091543864076
  O       1.626868     -0.218943     -0.629994
  N      -2.035509     -0.129942     -0.117622
  C      -0.746285     -0.115154     -0.801034
  C       0.430058     -0.223834      0.150211
  H      -0.669412      0.809401     -1.373579
  H      -0.721357     -0.946135     -1.506592
  H       0.358288     -1.149348      0.727540
  H       0.428531      0.619685      0.845073
  H      -2.127560     -0.971213      0.440770
  H      -2.103921      0.652316      0.523659
  H       2.376131     -0.268470     -0.029564
  O      -4.645460     -0.102808     -0.588020
  C      -3.803081     -0.058062     -1.399575
  O      -3.314273      0.001195     -2.461954
14
Coordinates from ORCA-job ./orca E -399.091548906720
  O       1.627013     -0.218789     -0.630979
  N      -2.034866     -0.130410     -0.116032
  C      -0.746731     -0.115612     -0.800367
  C       0.430543     -0.223767      0.149873
  H      -0.670953      0.808903     -1.373094
  H      -0.722702     -0.946812     -1.505667
  H       0.359362     -1.149129      0.727506
  H       0.429234      0.619914      0.844524
  H      -2.131377     -0.972690      0.439677
  H      -2.107413      0.652998      0.523051
  H       2.376644     -0.267704     -0.030971
  O      -4.644181     -0.102128     -0.588052
  C      -3.801416     -0.057590     -1.399340
  O      -3.310139      0.001503     -2.460809
14
Coordinates from ORCA-job ./orca E -399.091551745820
  O       1.627122     -0.218551     -0.631753
  N      -2.034417     -0.130810     -0.115222
  C      -0.747016     -0.116101     -0.799411
  C       0.431145     -0.223752      0.149846
  H      -0.671732      0.808301     -1.372478
  H      -0.723274     -0.947469     -1.504581
  H       0.360649     -1.149050      0.727672
  H       0.430055      0.620076      0.844324
  H      -2.134487     -0.973529      0.438602
  H      -2.110161      0.653100      0.522356
  H       2.377130     -0.266875     -0.032186
  O      -4.643421     -0.101409     -0.587667
  C      -3.800247     -0.057084     -1.399469
  O      -3.308331      0.001840     -2.460714
14
Coordinates from ORCA-job ./orca E -399.091554477625
  O       1.627240     -0.218373     -0.631920
  N      -2.034227     -0.131048     -0.115384
  C      -0.746915     -0.116431     -0.798880
  C       0.431566     -0.223749      0.150072
  H      -0.671472      0.807816     -1.372257
  H      -0.722845     -0.947893     -1.503991
  H       0.361457     -1.149023      0.727995
  H       0.430510      0.620182      0.844432
  H      -2.135929     -0.973816      0.437807
  H      -2.111339      0.652837      0.521836
  H       2.377433     -0.266325     -0.032560
  O      -4.643156     -0.100930     -0.587052
  C      -3.800089     -0.056714     -1.399552
  O      -3.309217      0.002154     -2.461225
14
Coordinates from ORCA-job ./orca E -399.091556685524
  O       1.627542     -0.218161     -0.631640
  N      -2.033981     -0.131337     -0.116215
  C      -0.746446     -0.116833     -0.798623
  C       0.432013     -0.223728      0.150486
  H      -0.670513      0.807182     -1.372379
  H      -0.721649     -0.948429     -1.503604
  H       0.362178     -1.148947      0.728538
  H       0.430773      0.620334      0.844693
  H      -2.137109     -0.974118      0.436563
  H      -2.112171      0.652351      0.521010
  H       2.377795     -0.265682     -0.032321
  O      -4.642934     -0.100353     -0.585804
  C      -3.800548     -0.056231     -1.399367
  O      -3.311932      0.002639     -2.462018
14
Coordinates from ORCA-job ./orca E -399.090798238329
  O       1.614928     -0.217620     -0.637604
  N      -2.046356     -0.131077     -0.120431
  C      -0.759149     -0.116518     -0.803455
  C       0.419776     -0.223220      0.145097
  H      -0.683583      0.807446     -1.377344
  H      -0.734614     -0.948180     -1.508368
  H       0.350301     -1.148391      0.723268
  H       0.418795      0.620907      0.839225
  H      -2.136595     -0.988242      0.450196
  H      -2.111469      0.665090      0.535942
  H       2.365474     -0.265019     -0.038641
  O      -4.625218     -0.100740     -0.586274
  C      -3.744592     -0.057765     -1.381094
  O      -3.274681      0.002017     -2.461197
14
Coordinates from ORCA-job ./orca E -399.091660717990
  O       1.613356     -0.218385     -0.636431
  N      -2.044672     -0.131289     -0.118666
  C      -0.757753     -0.116100     -0.803749
  C       0.419083     -0.222935      0.146640
  H      -0.682998      0.807981     -1.377065
  H      -0.733786     -0.947990     -1.507972
  H       0.348747     -1.147797      0.725012
  H       0.418262      0.621680      0.840032
  H      -2.134803     -0.971156      0.440438
  H      -2.110836      0.648062      0.524758
  H       2.363851     -0.266041     -0.037451
  O      -4.621255     -0.101451     -0.587663
  C      -3.745572     -0.058103     -1.375740
  O      -3.278606      0.002210     -2.452823
14
Coordinates from ORCA-job ./orca E -399.091691499870
  O       1.613767     -0.218624     -0.636225
  N      -2.043899     -0.131393     -0.118092
  C      -0.757043     -0.115943     -0.804744
  C       0.419236     -0.222801      0.146466
  H      -0.682837      0.808189     -1.377763
  H      -0.733479     -0.947932     -1.508646
  H       0.348475     -1.147531      0.725000
  H       0.418303      0.621885      0.839740
  H      -2.136763     -0.972780      0.439321
  H      -2.113001      0.649666      0.524023
  H       2.364123     -0.266419     -0.037025
  O      -4.620292     -0.101650     -0.588225
  C      -3.745601     -0.058215     -1.374080
  O      -3.277971      0.002233     -2.450430
14
Coordinates from ORCA-job ./orca E -399.091717488407
  O       1.614753     -0.218803     -0.635955
  N      -2.042553     -0.131462     -0.117353
  C      -0.756280     -0.115773     -0.805553
  C       0.419699     -0.222709      0.146176
  H      -0.683106      0.808553     -1.378118
  H      -0.733638     -0.947905     -1.509106
  H       0.348469     -1.147341      0.724774
  H       0.418589      0.621929      0.839464
  H      -2.140091     -0.974583      0.437059
  H      -2.116581      0.651797      0.521929
  H       2.364927     -0.266829     -0.036520
  O      -4.619555     -0.101854     -0.587645
  C      -3.745309     -0.058394     -1.371918
  O      -3.276307      0.002059     -2.447914
14
Coordinates from ORCA-job ./orca E -399.091721383288
  O       1.615650     -0.218865     -0.635825
  N      -2.041361     -0.131472     -0.116961
  C      -0.755745     -0.115682     -0.805615
  C       0.420335     -0.222719      0.146037
  H      -0.683291      0.808845     -1.377868
  H      -0.733784     -0.947865     -1.509069
  H       0.348911     -1.147365      0.724565
  H       0.419187      0.621845      0.839389
  H      -2.143323     -0.975572      0.434847
  H      -2.119986      0.653312      0.519645
  H       2.365730     -0.267050     -0.036300
  O      -4.619118     -0.101972     -0.586293
  C      -3.744845     -0.058545     -1.370546
  O      -3.275343      0.001793     -2.446686
14
Coordinates from ORCA-job ./orca E -399.091727370458
  O       1.616430     -0.218824     -0.635714
  N      -2.040374     -0.131418     -0.117090
  C      -0.755239     -0.115654     -0.805175
  C       0.421128     -0.222833      0.146148
  H      -0.682946      0.809014     -1.377280
  H      -0.733463     -0.947767     -1.508768
  H       0.349723     -1.147602      0.724487
  H       0.420017      0.621638      0.839613
  H      -2.146453     -0.975879      0.432742
  H      -2.123191      0.654290      0.517273
  H       2.366497     -0.267077     -0.036195
  O      -4.618585     -0.101997     -0.584347
  C      -3.744506     -0.058661     -1.369803
  O      -3.276018      0.001457     -2.446572
14
Coordinates from ORCA-job ./orca E -399.091730287022
  O       1.616844     -0.218770     -0.635498
  N      -2.039962     -0.131334     -0.117770
  C      -0.754793     -0.115654     -0.804763
  C       0.421677     -0.222961      0.146465
  H      -0.682046      0.809024     -1.376891
  H      -0.732618     -0.947627     -1.508587
  H       0.350335     -1.147851      0.724628
  H       0.420573      0.621443      0.840022
  H      -2.148091     -0.975668      0.431519
  H      -2.124804      0.654536      0.515829
  H       2.366923     -0.266996     -0.036002
  O      -4.618077     -0.101982     -0.582682
  C      -3.744695     -0.058714     -1.369674
  O      -3.278248      0.001240     -2.447276
14
Coordinates from ORCA-job ./orca E -399.091733134339
  O       1.617264     -0.218732     -0.634958
  N      -2.039711     -0.131198     -0.119000
  C      -0.754154     -0.115629     -0.804618
  C       0.422109     -0.223102      0.146917
  H      -0.680590      0.809013     -1.376784
  H      -0.731249     -0.947436     -1.508684
  H       0.350702     -1.148116      0.724888
  H       0.420873      0.621211      0.840592
  H      -2.149023     -0.975269      0.430350
  H      -2.125684      0.654571      0.514479
  H       2.367273     -0.266903     -0.035369
  O      -4.617541     -0.101981     -0.580722
  C      -3.745457     -0.058771     -1.369534
  O      -3.281792      0.001029     -2.448235
14
Coordinates from ORCA-job ./orca E -399.091522504426
  O       1.604792     -0.218200     -0.640770
  N      -2.051995     -0.130936     -0.123426
  C      -0.766700     -0.115316     -0.809534
  C       0.409936     -0.222600      0.141562
  H      -0.693441      0.809276     -1.381821
  H      -0.743990     -0.947188     -1.513529
  H       0.338829     -1.147566      0.719646
  H       0.408893      0.621777      0.835159
  H      -2.148845     -0.989552      0.443753
  H      -2.125321      0.667499      0.529182
  H       2.355035     -0.266251     -0.041463
  O      -4.599799     -0.102364     -0.581319
  C      -3.689720     -0.060291     -1.350882
  O      -3.244655      0.000400     -2.447237
14
Coordinates from ORCA-job ./orca E -399.092365303339
  O       1.602949     -0.218844     -0.639560
  N      -2.050262     -0.131101     -0.121889
  C      -0.765088     -0.114834     -0.810002
  C       0.409126     -0.222396      0.143253
  H      -0.692516      0.809928     -1.381529
  H      -0.742775     -0.946872     -1.513293
  H       0.337165     -1.147187      0.721318
  H       0.408194      0.622353      0.836243
  H      -2.146780     -0.972309      0.433956
  H      -2.124397      0.650487      0.517838
  H       2.353191     -0.267178     -0.040311
  O      -4.595799     -0.102784     -0.582537
  C      -3.690872     -0.060711     -1.345500
  O      -3.249117      0.000133     -2.438668
14
Coordinates from ORCA-job ./orca E -399.092394630124
  O       1.603371     -0.218976     -0.639290
  N      -2.049535     -0.131150     -0.121510
  C      -0.764265     -0.114630     -0.811045
  C       0.409288     -0.222342      0.143154
  H      -0.692176      0.810249     -1.382137
  H      -0.742310     -0.946731     -1.514035
  H       0.336912     -1.147106      0.721207
  H       0.408192      0.622353      0.836172
  H      -2.148644     -0.973807      0.432814
  H      -2.126472      0.652141      0.516971
  H       2.353507     -0.267454     -0.039858
  O      -4.594875     -0.102711     -0.582986
  C      -3.691106     -0.060892     -1.343839
  O      -3.248869     -0.000254     -2.436299
14
Coordinates from ORCA-job ./orca E -399.092418114799
  O       1.604353     -0.219051     -0.638883
  N      -2.048314     -0.131115     -0.121122
  C      -0.763381     -0.114332     -0.811896
  C       0.409724     -0.222362      0.142975
  H      -0.692159      0.810863     -1.382316
  H      -0.742239     -0.946490     -1.514638
  H       0.336851     -1.147187      0.720829
  H       0.408412      0.622104      0.836223
  H      -2.151544     -0.975294      0.430595
  H      -2.129697      0.654193      0.514755
  H       2.354323     -0.267782     -0.039237
  O      -4.594226     -0.102502     -0.582142
  C      -3.691157     -0.061217     -1.341762
  O      -3.247929     -0.001141     -2.434060
14
Coordinates from ORCA-job ./orca E -399.092421195015
  O       1.605271     -0.219027     -0.638583
  N      -2.047190     -0.131002     -0.121006
  C      -0.762725     -0.114052     -0.812066
  C       0.410306     -0.222487      0.142895
  H      -0.692079      0.811491     -1.381912
  H      -0.742203     -0.946130     -1.514862
  H       0.337155     -1.147498      0.720391
  H       0.408915      0.621697      0.836456
  H      -2.154354     -0.976026      0.428414
  H      -2.132826      0.655745      0.512330
  H       2.355110     -0.267992     -0.038805
  O      -4.593793     -0.102175     -0.580499
  C      -3.690982     -0.061570     -1.340394
  O      -3.247589     -0.002289     -2.433038
14
Coordinates from ORCA-job ./orca E -399.092430080836
  O       1.606077     -0.218983     -0.638322
  N      -2.046229     -0.130818     -0.121297
  C      -0.762128     -0.113745     -0.811745
  C       0.411031     -0.222691      0.143016
  H      -0.691554      0.812114     -1.381137
  H      -0.741795     -0.945563     -1.514898
  H       0.337737     -1.147982      0.720051
  H       0.409691      0.621204      0.836926
  H      -2.157062     -0.976149      0.426335
  H      -2.135877      0.656818      0.509855
  H       2.355836     -0.268148     -0.038479
  O      -4.593219     -0.101751     -0.578296
  C      -3.690820     -0.061954     -1.339640
  O      -3.248673     -0.003664     -2.433050
14
Coordinates from ORCA-job ./orca E -399.092430698988
  O       1.606504     -0.218915     -0.638062
  N      -2.045815     -0.130635     -0.121959
  C      -0.761679     -0.113518     -0.811375
  C       0.411538     -0.222893      0.143291
  H      -0.690631      0.812488     -1.380561
  H      -0.741002     -0.945016     -1.514974
  H       0.338199     -1.148437      0.719932
  H       0.410236      0.620767      0.837492
  H      -2.158471     -0.975828      0.425190
  H      -2.137504      0.657182      0.508383
  H       2.356225     -0.268170     -0.038190
  O      -4.592668     -0.101333     -0.576532
  C      -3.690993     -0.062225     -1.339533
  O      -3.250919     -0.004781     -2.433783
14
Coordinates from ORCA-job ./orca E -399.092433091812
  O       1.606804     -0.218916     -0.637657
  N      -2.045642     -0.130447     -0.122914
  C      -0.761192     -0.113269     -0.811221
  C       0.411865     -0.223065      0.143640
  H      -0.689443      0.812830     -1.380238
  H      -0.739938     -0.944435     -1.515261
  H       0.338386     -1.148806      0.719958
  H       0.410548      0.620400      0.838087
  H      -2.159027     -0.975406      0.424372
  H      -2.138276      0.657261      0.507366
  H       2.356464     -0.268229     -0.037710
  O      -4.592196     -0.100950     -0.574952
  C      -3.691548     -0.062473     -1.339528
  O      -3.253788     -0.005808     -2.434624
14
Coordinates from ORCA-job ./orca E -399.092789081903
  O       1.594486     -0.218402     -0.643301
  N      -2.057828     -0.130190     -0.127569
  C      -0.773567     -0.112968     -0.816226
  C       0.399761     -0.222576      0.138324
  H      -0.702057      0.813079     -1.385359
  H      -0.752434     -0.944201     -1.520190
  H       0.326516     -1.148267      0.714751
  H       0.398564      0.620956      0.832691
  H      -2.159146     -0.989842      0.437536
  H      -2.138254      0.670382      0.521821
  H       2.344314     -0.267597     -0.043554
  O      -4.574440     -0.101305     -0.575652
  C      -3.636055     -0.063956     -1.320498
  O      -3.216841     -0.006427     -2.433455
14
Coordinates from ORCA-job ./orca E -399.093639384704
  O       1.592703     -0.218913     -0.641690
  N      -2.055980     -0.130571     -0.126486
  C      -0.771661     -0.112639     -0.817173
  C       0.398820     -0.222376      0.140045
  H      -0.700755      0.813575     -1.385467
  H      -0.750692     -0.944082     -1.520297
  H       0.324626     -1.147871      0.716471
  H       0.397396      0.621576      0.833752
  H      -2.156827     -0.972802      0.427246
  H      -2.136884      0.652991      0.510205
  H       2.342333     -0.268150     -0.041738
  O      -4.570159     -0.101133     -0.576012
  C      -3.637575     -0.064149     -1.314935
  O      -3.222328     -0.006769     -2.424602
14
Coordinates from ORCA-job ./orca E -399.093669146128
  O       1.593295     -0.218926     -0.641122
  N      -2.055237     -0.130861     -0.126494
  C      -0.770649     -0.112632     -0.818463
  C       0.398977     -0.222313      0.139979
  H      -0.700247      0.813694     -1.386313
  H      -0.749893     -0.944217     -1.521173
  H       0.324349     -1.147733      0.716469
  H       0.397112      0.621654      0.833630
  H      -2.158611     -0.974583      0.425669
  H      -2.138717      0.654252      0.509166
  H       2.342701     -0.268012     -0.040812
  O      -4.569090     -0.100402     -0.575869
  C      -3.638154     -0.064064     -1.313162
  O      -3.222818     -0.007170     -2.422186
14
Coordinates from ORCA-job ./orca E -399.093683338381
  O       1.594495     -0.218796     -0.640273
  N      -2.054023     -0.131226     -0.126720
  C      -0.769519     -0.112658     -0.819624
  C       0.399383     -0.222309      0.139859
  H      -0.699996      0.813963     -1.386836
  H      -0.749323     -0.944418     -1.521943
  H       0.324273     -1.147723      0.716256
  H       0.396877      0.621528      0.833618
  H      -2.161253     -0.976505      0.422837
  H      -2.141444      0.655585      0.506785
  H       2.343562     -0.267642     -0.039497
  O      -4.568278     -0.099036     -0.574091
  C      -3.638721     -0.063942     -1.310981
  O      -3.223016     -0.008135     -2.420073
14
Coordinates from ORCA-job ./orca E -399.093691900056
  O       1.595584     -0.218682     -0.639573
  N      -2.052899     -0.131532     -0.127162
  C      -0.768636     -0.112650     -0.820072
  C       0.399930     -0.222353      0.139850
  H      -0.699723      0.814282     -1.386780
  H      -0.748785     -0.944432     -1.522320
  H       0.324515     -1.147838      0.716073
  H       0.397017      0.621363      0.833726
  H      -2.163766     -0.977753      0.420010
  H      -2.144152      0.656367      0.504289
  H       2.344372     -0.267289     -0.038440
  O      -4.567706     -0.097606     -0.571608
  C      -3.639014     -0.063864     -1.309502
  O      -3.223719     -0.009327     -2.419172
14
Coordinates from ORCA-job ./orca E -399.093701444687
  O       1.596607     -0.218386     -0.638917
  N      -2.051876     -0.131766     -0.127936
  C      -0.767800     -0.112608     -0.820021
  C       0.400643     -0.222537      0.140008
  H      -0.699036      0.814623     -1.386313
  H      -0.747910     -0.944177     -1.522565
  H       0.325115     -1.148291      0.715788
  H       0.397382      0.620910      0.834195
  H      -2.166326     -0.978450      0.417266
  H      -2.146971      0.656794      0.501667
  H       2.345153     -0.266726     -0.037485
  O      -4.566999     -0.095665     -0.568548
  C      -3.639245     -0.063838     -1.308577
  O      -3.225720     -0.011196     -2.419242
14
Coordinates from ORCA-job ./orca E -399.093703224154
  O       1.597056     -0.218151     -0.638563
  N      -2.051474     -0.131821     -0.128716
  C      -0.767311     -0.112481     -0.819720
  C       0.401117     -0.222729      0.140289
  H      -0.698152      0.814894     -1.385822
  H      -0.746980     -0.943705     -1.522735
  H       0.325606     -1.148763      0.715640
  H       0.397743      0.620462      0.834796
  H      -2.167560     -0.978451      0.415925
  H      -2.148468      0.656753      0.500312
  H       2.345534     -0.266359     -0.037038
  O      -4.566437     -0.094200     -0.566592
  C      -3.639500     -0.063912     -1.308474
  O      -3.228156     -0.012850     -2.419981
14
Coordinates from ORCA-job ./orca E -399.093706086951
  O       1.597314     -0.217954     -0.638210
  N      -2.051341     -0.131785     -0.129588
  C      -0.766887     -0.112251     -0.819532
  C       0.401417     -0.222923      0.140611
  H      -0.697113      0.815241     -1.385444
  H      -0.745955     -0.943069     -1.523076
  H       0.325871     -1.149243      0.715513
  H       0.397965      0.619971      0.835488
  H      -2.167988     -0.978234      0.415145
  H      -2.149212      0.656568      0.499518
  H       2.345746     -0.266119     -0.036624
  O      -4.566003     -0.092823     -0.565118
  C      -3.639967     -0.064072     -1.308550
  O      -3.230828     -0.014623     -2.420814
14
Coordinates from ORCA-job ./orca E -399.094402474457
  O       1.578877     -0.217061     -0.651307
  N      -2.067938     -0.131665     -0.129346
  C      -0.786013     -0.111947     -0.823992
  C       0.385833     -0.222173      0.131893
  H      -0.718536      0.815457     -1.390332
  H      -0.767457     -0.942887     -1.527463
  H       0.312609     -1.148408      0.707237
  H       0.384726      0.620844      0.826632
  H      -2.168866     -0.991251      0.432799
  H      -2.150004      0.668037      0.518119
  H       2.329523     -0.264942     -0.052451
  O      -4.554965     -0.092486     -0.579300
  C      -3.583548     -0.065628     -1.291534
  O      -3.141223     -0.017202     -2.391636
14
Coordinates from ORCA-job ./orca E -399.095365449904
  O       1.580067     -0.218009     -0.645424
  N      -2.064952     -0.131751     -0.131347
  C      -0.781428     -0.111297     -0.825595
  C       0.385843     -0.222001      0.135105
  H      -0.712814      0.816286     -1.390785
  H      -0.761426     -0.942221     -1.528328
  H       0.310292     -1.148017      0.710343
  H       0.383385      0.621371      0.829314
  H      -2.164398     -0.975432      0.421225
  H      -2.146817      0.652021      0.505644
  H       2.329138     -0.266376     -0.044678
  O      -4.543725     -0.093155     -0.570259
  C      -3.586161     -0.065996     -1.286213
  O      -3.173987     -0.016737     -2.399683
14
Coordinates from ORCA-job ./orca E -399.095490775999
  O       1.582671     -0.218347     -0.641858
  N      -2.062893     -0.131789     -0.133490
  C      -0.777838     -0.110833     -0.827631
  C       0.386899     -0.221974      0.136200
  H      -0.708868      0.817087     -1.391892
  H      -0.757163     -0.941736     -1.530129
  H       0.309735     -1.147978      0.711245
  H       0.383208      0.621319      0.830446
  H      -2.165112     -0.976536      0.416753
  H      -2.147970      0.652828      0.502032
  H       2.330524     -0.267029     -0.039566
  O      -4.540156     -0.092480     -0.565104
  C      -3.588030     -0.066205     -1.283173
  O      -3.191987     -0.017639     -2.404514
14
Coordinates from ORCA-job ./orca E -399.095535895701
  O       1.585721     -0.218376     -0.638540
  N      -2.060361     -0.131645     -0.136075
  C      -0.774307     -0.110158     -0.829439
  C       0.388254     -0.222144      0.136976
  H      -0.705461      0.818424     -1.392451
  H      -0.753561     -0.940847     -1.532085
  H       0.309464     -1.148429      0.711310
  H       0.383229      0.620681      0.831724
  H      -2.166755     -0.978387      0.411735
  H      -2.150098      0.654867      0.497713
  H       2.332352     -0.267508     -0.034757
  O      -4.539751     -0.090736     -0.559558
  C      -3.589910     -0.066639     -1.279916
  O      -3.205800     -0.020417     -2.407318
14
Coordinates from ORCA-job ./orca E -399.095518996571
  O       1.587653     -0.218176     -0.636633
  N      -2.058432     -0.131382     -0.137940
  C      -0.772149     -0.109404     -0.830367
  C       0.389199     -0.222449      0.137329
  H      -0.703460      0.819859     -1.392242
  H      -0.751571     -0.939612     -1.533575
  H       0.309348     -1.149243      0.710675
  H       0.383364      0.619734      0.832812
  H      -2.168444     -0.979063      0.407954
  H      -2.152314      0.656141      0.494212
  H       2.333524     -0.267733     -0.031953
  O      -4.540522     -0.088524     -0.555603
  C      -3.591031     -0.067221     -1.277739
  O      -3.212149     -0.024241     -2.407611
14
Coordinates from ORCA-job ./orca E -399.095557899924
  O       1.588940     -0.217718     -0.635482
  N      -2.056980     -0.130964     -0.139381
  C      -0.770785     -0.108415     -0.830817
  C       0.389895     -0.222933      0.137463
  H      -0.702004      0.821614     -1.391442
  H      -0.750314     -0.937777     -1.535055
  H       0.309297     -1.150541      0.709388
  H       0.383544      0.618288      0.834085
  H      -2.170279     -0.978997      0.405082
  H      -2.154841      0.657058      0.491349
  H       2.334307     -0.267771     -0.030226
  O      -4.540916     -0.085405     -0.552326
  C      -3.591743     -0.068042     -1.276334
  O      -3.215102     -0.029709     -2.406985
14
Coordinates from ORCA-job ./orca E -399.095557380429
  O       1.589244     -0.217496     -0.635338
  N      -2.056578     -0.130665     -0.139925
  C      -0.770496     -0.107563     -0.830691
  C       0.390173     -0.223266      0.137492
  H      -0.701435      0.823005     -1.390438
  H      -0.749910     -0.936127     -1.535904
  H       0.309272     -1.151465      0.708432
  H       0.383907      0.617275      0.834934
  H      -2.171392     -0.978663      0.404000
  H      -2.156684      0.657285      0.490292
  H       2.334552     -0.267877     -0.030040
  O      -4.540477     -0.082920     -0.550856
  C      -3.591937     -0.068733     -1.276127
  O      -3.215219     -0.034101     -2.406511
14
Coordinates from ORCA-job ./orca E -399.095556517755
  O       1.589314     -0.217288     -0.635396
  N      -2.056519     -0.130345     -0.140320
  C      -0.770449     -0.106496     -0.830402
  C       0.390339     -0.223632      0.137536
  H      -0.700953      0.824706     -1.389084
  H      -0.749579     -0.934054     -1.536825
  H       0.309186     -1.152506      0.707363
  H       0.384375      0.616099      0.835957
  H      -2.172159     -0.978287      0.403336
  H      -2.158456      0.657348      0.489744
  H       2.334678     -0.268031     -0.030199
  O      -4.539492     -0.079767     -0.549623
  C      -3.592089     -0.069571     -1.276300
  O      -3.215177     -0.039488     -2.406468
14
Coordinates from ORCA-job ./orca E -399.095561888457
  O       1.589300     -0.217189     -0.635426
  N      -2.056632     -0.130130     -0.140617
  C      -0.770432     -0.105506     -0.830190
  C       0.390394     -0.223905      0.137608
  H      -0.700582      0.826297     -1.387857
  H      -0.749247     -0.932177     -1.537667
  H       0.308992     -1.153319      0.706535
  H       0.384774      0.615142      0.836853
  H      -2.172222     -0.978138      0.402931
  H      -2.159537      0.657280      0.489611
  H       2.334724     -0.268231     -0.030329
  O      -4.538676     -0.076777     -0.548809
  C      -3.592291     -0.070305     -1.276527
  O      -3.215547     -0.044358     -2.406798
14
Coordinates from ORCA-job ./orca E -399.095564620773
  O       1.589320     -0.217024     -0.635323
  N      -2.056780     -0.129859     -0.141126
  C      -0.770290     -0.103862     -0.830005
  C       0.390414     -0.224325      0.137725
  H      -0.700008      0.828989     -1.385887
  H      -0.748648     -0.929094     -1.539172
  H       0.308528     -1.154600      0.705193
  H       0.385284      0.613597      0.838311
  H      -2.171696     -0.978131      0.402223
  H      -2.160749      0.657089      0.489526
  H       2.334768     -0.268542     -0.030294
  O      -4.537796     -0.071500     -0.547703
  C      -3.592713     -0.071476     -1.276739
  O      -3.216617     -0.052575     -2.407410
14
Coordinates from ORCA-job ./orca E -399.095563085246
  O       1.589478     -0.216461     -0.634935
  N      -2.056937     -0.129384     -0.142142
  C      -0.769873     -0.100482     -0.829837
  C       0.390409     -0.225233      0.137890
  H      -0.698950      0.834622     -1.381870
  H      -0.747469     -0.922728     -1.542474
  H       0.307508     -1.157373      0.702178
  H       0.386053      0.610238      0.841383
  H      -2.170070     -0.978343      0.400681
  H      -2.162703      0.656642      0.489423
  H       2.334846     -0.268974     -0.029893
  O      -4.536652     -0.059793     -0.545849
  C      -3.593605     -0.073842     -1.276905
  O      -3.219017     -0.070201     -2.408330
14
Coordinates from ORCA-job ./orca E -399.095564941400
  O       1.589602     -0.215929     -0.634589
  N      -2.056998     -0.129214     -0.142768
  C      -0.769529     -0.097661     -0.829835
  C       0.390319     -0.225925      0.137925
  H      -0.698413      0.839399     -1.378520
  H      -0.746674     -0.917416     -1.545337
  H       0.306534     -1.159591      0.699577
  H       0.386522      0.607524      0.843797
  H      -2.168052     -0.978934      0.399428
  H      -2.163796      0.655932      0.489760
  H       2.334835     -0.269235     -0.029449
  O      -4.536362     -0.049126     -0.545083
  C      -3.594222     -0.075706     -1.276874
  O      -3.220748     -0.085431     -2.408711
14
Coordinates from ORCA-job ./orca E -399.095566821658
  O       1.589871     -0.214393     -0.633931
  N      -2.056964     -0.129316     -0.143597
  C      -0.768888     -0.091586     -0.829938
  C       0.390052     -0.227389      0.137765
  H      -0.697997      0.849854     -1.371082
  H      -0.745404     -0.905826     -1.551697
  H       0.304458     -1.164430      0.693537
  H       0.387211      0.601572      0.848861
  H      -2.163051     -0.981018      0.396739
  H      -2.165720      0.653717      0.491270
  H       2.334738     -0.269334     -0.028489
  O      -4.536427     -0.023606     -0.545025
  C      -3.595133     -0.079501     -1.276589
  O      -3.223727     -0.120058     -2.408505
14
Coordinates from ORCA-job ./orca E -399.095570358013
  O       1.589967     -0.212666     -0.633866
  N      -2.056875     -0.129954     -0.143429
  C      -0.768749     -0.087561     -0.829805
  C       0.389916     -0.228421      0.137430
  H      -0.698595      0.857001     -1.365548
  H      -0.745118     -0.897843     -1.556002
  H       0.303499     -1.167962      0.688862
  H       0.387489      0.597252      0.852315
  H      -2.159855     -0.983315      0.394943
  H      -2.167286      0.651333      0.493228
  H       2.334678     -0.268570     -0.028322
  O      -4.536490     -0.002910     -0.546611
  C      -3.595090     -0.081752     -1.276429
  O      -3.224475     -0.145944     -2.407445
14
Coordinates from ORCA-job ./orca E -399.095575429952
  O       1.589683     -0.211301     -0.634596
  N      -2.056918     -0.131013     -0.142131
  C      -0.769298     -0.087045     -0.829368
  C       0.389923     -0.228619      0.137086
  H      -0.700157      0.858315     -1.363822
  H      -0.745995     -0.896376     -1.556617
  H       0.304110     -1.168915      0.687317
  H       0.387333      0.596171      0.852983
  H      -2.159532     -0.985218      0.394838
  H      -2.167903      0.649398      0.495352
  H       2.334622     -0.267129     -0.029329
  O      -4.536627      0.006099     -0.549113
  C      -3.593990     -0.081576     -1.276629
  O      -3.222232     -0.154104     -2.406651
14
Coordinates from ORCA-job ./orca E -399.095575524031
  O       1.589041     -0.207564     -0.636191
  N      -2.057153     -0.133330     -0.139773
  C      -0.770425     -0.084812     -0.828041
  C       0.390042     -0.229423      0.136506
  H      -0.703143      0.863035     -1.358314
  H      -0.747273     -0.890834     -1.558912
  H       0.305600     -1.172219      0.682679
  H       0.387275      0.592302      0.855899
  H      -2.159041     -0.989761      0.393666
  H      -2.170579      0.644756      0.499935
  H       2.334618     -0.263662     -0.031740
  O      -4.535262      0.031514     -0.554084
  C      -3.591865     -0.081911     -1.277373
  O      -3.218818     -0.179406     -2.404939
14
Coordinates from ORCA-job ./orca E -399.095577987265
  O       1.588668     -0.207043     -0.636838
  N      -2.057420     -0.133916     -0.139053
  C      -0.770908     -0.085980     -0.827564
  C       0.390123     -0.229120      0.136562
  H      -0.703892      0.861219     -1.359052
  H      -0.747700     -0.892812     -1.557538
  H       0.306660     -1.171559      0.683493
  H       0.387185      0.593165      0.855323
  H      -2.160268     -0.990430      0.394008
  H      -2.170678      0.644020      0.500814
  H       2.334630     -0.262893     -0.032837
  O      -4.534862      0.030779     -0.554849
  C      -3.591223     -0.080867     -1.277803
  O      -3.217297     -0.175878     -2.405347
14
Coordinates from ORCA-job ./orca E -399.097472964449
  O       1.577422     -0.206729     -0.638359
  N      -2.070015     -0.133478     -0.150478
  C      -0.781632     -0.085578     -0.835493
  C       0.376775     -0.228775      0.131785
  H      -0.713138      0.861627     -1.366785
  H      -0.756470     -0.892400     -1.565416
  H       0.291793     -1.171218      0.678475
  H       0.371914      0.593500      0.850549
  H      -2.174342     -0.989996      0.382291
  H      -2.184983      0.644452      0.489094
  H       2.321741     -0.262614     -0.032334
  O      -4.491411      0.029413     -0.532232
  C      -3.545812     -0.082256     -1.252624
  O      -3.168826     -0.177264     -2.379155
14
Coordinates from ORCA-job ./orca E -399.097771332221
  O       1.579196     -0.207109     -0.634519
  N      -2.067278     -0.134290     -0.154012
  C      -0.777396     -0.086024     -0.837955
  C       0.377481     -0.228151      0.133265
  H      -0.708695      0.860823     -1.369326
  H      -0.750688     -0.893551     -1.566386
  H       0.291106     -1.169987      0.680740
  H       0.371166      0.594997      0.850937
  H      -2.169225     -0.991154      0.379838
  H      -2.179856      0.642496      0.488098
  H       2.322141     -0.262694     -0.026807
  O      -4.498350      0.029545     -0.529659
  C      -3.548003     -0.081755     -1.249466
  O      -3.188581     -0.174461     -2.385429
14
Coordinates from ORCA-job ./orca E -399.097902681855
  O       1.581303     -0.208095     -0.630871
  N      -2.063686     -0.134505     -0.155742
  C      -0.772930     -0.086117     -0.840801
  C       0.378357     -0.227407      0.134524
  H      -0.704747      0.860509     -1.372196
  H      -0.746057     -0.894898     -1.567671
  H       0.289924     -1.168366      0.683076
  H       0.370691      0.596769      0.850901
  H      -2.163674     -0.991875      0.378298
  H      -2.173936      0.640995      0.488967
  H       2.322920     -0.263814     -0.021488
  O      -4.507368      0.026275     -0.531456
  C      -3.548477     -0.079288     -1.245546
  O      -3.209302     -0.171496     -2.390674
14
Coordinates from ORCA-job ./orca E -399.097543573523
  O       1.581261     -0.206284     -0.631081
  N      -2.063095     -0.143392     -0.153925
  C      -0.773193     -0.093469     -0.841496
  C       0.378531     -0.225573      0.134615
  H      -0.709640      0.850800     -1.377450
  H      -0.744581     -0.906082     -1.563917
  H       0.293211     -1.163819      0.688233
  H       0.367981      0.602408      0.846512
  H      -2.159736     -0.998982      0.383618
  H      -2.175264      0.634915      0.487156
  H       2.323172     -0.256607     -0.021570
  O      -4.507967      0.041370     -0.535242
  C      -3.548263     -0.097382     -1.243643
  O      -3.209400     -0.139217     -2.392491
14
Coordinates from ORCA-job ./orca E -399.097906574380
  O       1.581187     -0.208125     -0.631620
  N      -2.063504     -0.135410     -0.153911
  C      -0.773482     -0.086961     -0.840618
  C       0.378447     -0.227120      0.134206
  H      -0.706544      0.859359     -1.372629
  H      -0.747417     -0.896336     -1.566789
  H       0.290403     -1.167606      0.683603
  H       0.370704      0.597651      0.849884
  H      -2.163645     -0.992721      0.380064
  H      -2.174398      0.640645      0.489924
  H       2.323065     -0.263412     -0.022518
  O      -4.507865      0.026563     -0.534304
  C      -3.547089     -0.080854     -1.245389
  O      -3.206844     -0.166988     -2.390582
14
Coordinates from ORCA-job ./orca E -399.097910131376
  O       1.580996     -0.208234     -0.632163
  N      -2.063544     -0.135349     -0.152924
  C      -0.773911     -0.087014     -0.840347
  C       0.378459     -0.227077      0.134002
  H      -0.707405      0.859263     -1.372460
  H      -0.748451     -0.896489     -1.566397
  H       0.290531     -1.167475      0.683561
  H       0.370920      0.597808      0.849550
  H      -2.164062     -0.992718      0.380793
  H      -2.174690      0.640928      0.490531
  H       2.323056     -0.263654     -0.023298
  O      -4.507847      0.025625     -0.535558
  C      -3.546252     -0.080594     -1.245584
  O      -3.204782     -0.166335     -2.390386
14
Coordinates from ORCA-job ./orca E -399.097910322796
  O       1.580745     -0.208380     -0.632882
  N      -2.063591     -0.135493     -0.151602
  C      -0.774455     -0.087384     -0.839980
  C       0.378514     -0.226923      0.133767
  H      -0.708632      0.858702     -1.372477
  H      -0.749741     -0.897202     -1.565628
  H       0.290849     -1.167053      0.683818
  H       0.371174      0.598339      0.848889
  H      -2.164636     -0.992912      0.381830
  H      -2.175014      0.641147      0.491296
  H       2.323064     -0.263845     -0.024342
  O      -4.507939      0.024142     -0.537228
  C      -3.545132     -0.080319     -1.245823
  O      -3.202188     -0.164131     -2.390319
14
Coordinates from ORCA-job ./orca E -399.100100933757
  O       1.569469     -0.208068     -0.634363
  N      -2.076177     -0.135009     -0.163025
  C      -0.785160     -0.086954     -0.847885
  C       0.365145     -0.226562      0.129006
  H      -0.717838      0.859135     -1.380191
  H      -0.758506     -0.896764     -1.573476
  H       0.275933     -1.166695      0.678806
  H       0.355894      0.598691      0.844119
  H      -2.178719     -0.992430      0.370120
  H      -2.189316      0.641628      0.479578
  H       2.310124     -0.263576     -0.023798
  O      -4.464455      0.022701     -0.514691
  C      -3.499719     -0.081798     -1.220660
  O      -3.153657     -0.165612     -2.364221
14
Coordinates from ORCA-job ./orca E -399.100415564707
  O       1.571703     -0.208867     -0.629686
  N      -2.073314     -0.135135     -0.167461
  C      -0.780339     -0.086877     -0.851107
  C       0.365751     -0.226036      0.130350
  H      -0.712374      0.859072     -1.382987
  H      -0.752136     -0.897134     -1.575413
  H       0.274330     -1.165609      0.680718
  H       0.354823      0.599991      0.844480
  H      -2.172931     -0.992894      0.366955
  H      -2.182683      0.639756      0.478663
  H       2.310449     -0.264190     -0.016813
  O      -4.472117      0.021344     -0.511109
  C      -3.502564     -0.080011     -1.217271
  O      -3.175580     -0.164723     -2.370001
14
Coordinates from ORCA-job ./orca E -399.099696097975
  O       1.573912     -0.206594     -0.624504
  N      -2.069884     -0.149031     -0.170726
  C      -0.775600     -0.098266     -0.856098
  C       0.366194     -0.222894      0.131867
  H      -0.713473      0.844068     -1.394458
  H      -0.742225     -0.914915     -1.572539
  H       0.277120     -1.157891      0.690276
  H       0.348524      0.609493      0.838312
  H      -2.160779     -1.004208      0.370584
  H      -2.177128      0.627937      0.474357
  H       2.310791     -0.252880     -0.008591
  O      -4.479327      0.044220     -0.511219
  C      -3.506261     -0.105432     -1.211309
  O      -3.198847     -0.114920     -2.376633
14
Coordinates from ORCA-job ./orca E -399.100453803696
  O       1.575654     -0.210673     -0.622410
  N      -2.067342     -0.136160     -0.171179
  C      -0.772434     -0.088118     -0.857452
  C       0.366724     -0.224769      0.131973
  H      -0.705794      0.857325     -1.389716
  H      -0.743687     -0.901180     -1.578415
  H       0.271361     -1.162436      0.684769
  H       0.352166      0.603542      0.843213
  H      -2.161955     -0.994431      0.364587
  H      -2.169692      0.635999      0.480727
  H       2.311295     -0.264655     -0.005577
  O      -4.487429      0.017153     -0.513467
  C      -3.504229     -0.076943     -1.210286
  O      -3.211621     -0.155967     -2.377448
14
Coordinates from ORCA-job ./orca E -399.100502214852
  O       1.572539     -0.209517     -0.628856
  N      -2.071701     -0.135508     -0.165927
  C      -0.779155     -0.087634     -0.852501
  C       0.366043     -0.225658      0.130224
  H      -0.712843      0.858021     -1.384810
  H      -0.752476     -0.899019     -1.575446
  H       0.273872     -1.164461      0.681709
  H       0.354229      0.601258      0.843255
  H      -2.170638     -0.993573      0.368291
  H      -2.179281      0.638980      0.481200
  H       2.310795     -0.264293     -0.015315
  O      -4.476634      0.019304     -0.515484
  C      -3.501026     -0.078852     -1.215553
  O      -3.180705     -0.160362     -2.371468
14
Coordinates from ORCA-job ./orca E -399.100543274503
  O       1.573612     -0.209767     -0.626731
  N      -2.070060     -0.136786     -0.167163
  C      -0.776916     -0.088816     -0.854303
  C       0.366322     -0.225092      0.130764
  H      -0.711289      0.856426     -1.387240
  H      -0.749644     -0.901373     -1.575838
  H       0.273434     -1.163083      0.683472
  H       0.353175      0.602902      0.842473
  H      -2.167241     -0.994822      0.367809
  H      -2.175719      0.637196      0.481302
  H       2.311006     -0.263519     -0.012033
  O      -4.480805      0.019713     -0.515734
  C      -3.501788     -0.079773     -1.213490
  O      -3.191070     -0.154518     -2.373968
14
Coordinates from ORCA-job ./orca E -399.100539324847
  O       1.573536     -0.209827     -0.626926
  N      -2.070062     -0.136806     -0.166727
  C      -0.777070     -0.088962     -0.854237
  C       0.366319     -0.225044      0.130675
  H      -0.711698      0.856208     -1.387316
  H      -0.750132     -0.901658     -1.575612
  H       0.273493     -1.162933      0.683562
  H       0.353189      0.603096      0.842216
  H      -2.167398     -0.994906      0.368091
  H      -2.175602      0.637221      0.481698
  H       2.310990     -0.263510     -0.012296
  O      -4.480887      0.019133     -0.516331
  C      -3.501419     -0.079495     -1.213546
  O      -3.190241     -0.153829     -2.373931
14
Coordinates from ORCA-job ./orca E -399.102779470675
  O       1.562203     -0.209518     -0.628368
  N      -2.082647     -0.136272     -0.178114
  C      -0.787775     -0.088503     -0.862094
  C       0.352917     -0.224666      0.125938
  H      -0.720888      0.856668     -1.394985
  H      -0.758919     -0.901193     -1.583403
  H       0.258523     -1.162555      0.678563
  H       0.337897      0.603467      0.837452
  H      -2.181496     -0.994371      0.356431
  H      -2.189908      0.637755      0.470032
  H       2.297976     -0.263253     -0.011725
  O      -4.437313      0.017611     -0.493929
  C      -3.455947     -0.081071     -1.188472
  O      -3.141607     -0.155413     -2.348008
14
Coordinates from ORCA-job ./orca E -399.103091173916
  O       1.564561     -0.210328     -0.623591
  N      -2.079954     -0.136663     -0.182486
  C      -0.782947     -0.088701     -0.865537
  C       0.353495     -0.224043      0.127098
  H      -0.715578      0.856326     -1.397966
  H      -0.752729     -0.901849     -1.585526
  H       0.256880     -1.161142      0.680664
  H       0.336602      0.605160      0.837290
  H      -2.175915     -0.995507      0.352676
  H      -2.182271      0.634757      0.470358
  H       2.298283     -0.263312     -0.004459
  O      -4.445110      0.016729     -0.490580
  C      -3.458617     -0.077131     -1.185266
  O      -3.163682     -0.155609     -2.353356
14
Coordinates from ORCA-job ./orca E -399.100869738225
  O       1.567752     -0.204920     -0.615107
  N      -2.075889     -0.162720     -0.189026
  C      -0.775844     -0.109852     -0.873768
  C       0.353699     -0.218524      0.129212
  H      -0.718650      0.828764     -1.417473
  H      -0.735690     -0.933424     -1.580185
  H       0.262464     -1.147498      0.697124
  H       0.324423      0.621892      0.825560
  H      -2.157624     -1.018303      0.356011
  H      -2.172508      0.610343      0.464585
  H       2.298213     -0.240343      0.009138
  O      -4.453212      0.062358     -0.488020
  C      -3.465407     -0.116335     -1.177414
  O      -3.198711     -0.072751     -2.361318
14
Coordinates from ORCA-job ./orca E -399.103190716117
  O       1.567056     -0.210030     -0.618931
  N      -2.076673     -0.142169     -0.184792
  C      -0.778165     -0.093856     -0.870001
  C       0.354083     -0.222212      0.128043
  H      -0.713746      0.849673     -1.405038
  H      -0.746100     -0.910707     -1.585569
  H       0.257003     -1.156536      0.686101
  H       0.332859      0.610669      0.833703
  H      -2.168960     -1.001915      0.350470
  H      -2.172787      0.626101      0.473676
  H       2.298837     -0.258050      0.002965
  O      -4.454292      0.023620     -0.492323
  C      -3.459984     -0.076944     -1.180794
  O      -3.186113     -0.138956     -2.358190
14
Coordinates from ORCA-job ./orca E -399.103198320632
  O       1.566072     -0.209620     -0.621035
  N      -2.077658     -0.141333     -0.182364
  C      -0.780199     -0.093256     -0.868570
  C       0.353875     -0.222549      0.127429
  H      -0.716237      0.850451     -1.403370
  H      -0.749689     -0.909549     -1.584796
  H       0.257612     -1.157410      0.684733
  H       0.333444      0.609646      0.833940
  H      -2.171803     -1.001625      0.351431
  H      -2.174646      0.627263      0.475292
  H       2.298701     -0.258258     -0.000207
  O      -4.451864      0.023161     -0.494603
  C      -3.458148     -0.075093     -1.182206
  O      -3.176443     -0.143141     -2.356353
14
Coordinates from ORCA-job ./orca E -399.103194312581
  O       1.566205     -0.209300     -0.620820
  N      -2.077471     -0.142089     -0.182162
  C      -0.780031     -0.094019     -0.868846
  C       0.353896     -0.222325      0.127411
  H      -0.716649      0.849453     -1.404088
  H      -0.749566     -0.910785     -1.584498
  H       0.257890     -1.156901      0.685226
  H       0.332902      0.610284      0.833416
  H      -2.171655     -1.002780      0.350989
  H      -2.173554      0.626047      0.476200
  H       2.298742     -0.257255      0.000174
  O      -4.452445      0.024453     -0.495154
  C      -3.457941     -0.074334     -1.181928
  O      -3.177306     -0.141762     -2.356601
14
Coordinates from ORCA-job ./orca E -399.103201149392
  O       1.566215     -0.208763     -0.620839
  N      -2.077452     -0.142998     -0.181724
  C      -0.780158     -0.094937     -0.868948
  C       0.353874     -0.222083      0.127310
  H      -0.717478      0.848242     -1.404756
  H      -0.749814     -0.912192     -1.584012
  H       0.258371     -1.156394      0.685648
  H       0.332273      0.610942      0.832812
  H      -2.171974     -1.004260      0.350414
  H      -2.172718      0.624609      0.477360
  H       2.298757     -0.255945      0.000207
  O      -4.452495      0.026407     -0.495755
  C      -3.457574     -0.073365     -1.181842
  O      -3.176808     -0.140575     -2.356555
14
Coordinates from ORCA-job ./orca E -399.105112533448
  O       1.554829     -0.208472     -0.622239
  N      -2.090030     -0.142283     -0.193078
  C      -0.790853     -0.094370     -0.876758
  C       0.340442     -0.221655      0.122597
  H      -0.726598      0.848805     -1.412389
  H      -0.758652     -0.911624     -1.591744
  H       0.243304     -1.155957      0.680669
  H       0.317011      0.611368      0.828045
  H      -2.186107     -1.003537      0.338796
  H      -2.187007      0.625331      0.465750
  H       2.285668     -0.255744      0.000808
  O      -4.408841      0.024609     -0.473484
  C      -3.412058     -0.075275     -1.156854
  O      -3.128090     -0.142511     -2.330801
14
Coordinates from ORCA-job ./orca E -399.105415595344
  O       1.557605     -0.209282     -0.616648
  N      -2.087351     -0.143787     -0.198317
  C      -0.785711     -0.095701     -0.880966
  C       0.340903     -0.220519      0.123655
  H      -0.721148      0.846942     -1.416768
  H      -0.751544     -0.914020     -1.593926
  H       0.241528     -1.153221      0.684001
  H       0.314868      0.614605      0.826541
  H      -2.180806     -1.006840      0.332466
  H      -2.177501      0.619378      0.467535
  H       2.285912     -0.254343      0.009518
  O      -4.416481      0.025541     -0.468663
  C      -3.415184     -0.068222     -1.153442
  O      -3.152072     -0.141843     -2.335666
14
Coordinates from ORCA-job ./orca E -399.102159593660
  O       1.562704     -0.201396     -0.602835
  N      -2.082200     -0.180991     -0.210253
  C      -0.775330     -0.126191     -0.893904
  C       0.340370     -0.212158      0.125983
  H      -0.723941      0.807105     -1.445544
  H      -0.726138     -0.958787     -1.587611
  H       0.247782     -1.132241      0.707899
  H       0.295637      0.639556      0.807689
  H      -2.157805     -1.043341      0.328040
  H      -2.158995      0.578594      0.463988
  H       2.284867     -0.219654      0.031781
  O      -4.425394      0.091203     -0.459157
  C      -3.425915     -0.108308     -1.143131
  O      -3.202623     -0.034703     -2.343623
14
Coordinates from ORCA-job ./orca E -399.105505905495
  O       1.560112     -0.207589     -0.611644
  N      -2.084679     -0.154309     -0.201289
  C      -0.781475     -0.105309     -0.885962
  C       0.341182     -0.217280      0.124364
  H      -0.721624      0.834398     -1.427128
  H      -0.743622     -0.929191     -1.592238
  H       0.243174     -1.145229      0.692718
  H       0.308664      0.624067      0.819470
  H      -2.175328     -1.020170      0.326324
  H      -2.166774      0.602569      0.473624
  H       2.286188     -0.243164      0.017775
  O      -4.423197      0.042419     -0.468213
  C      -3.417031     -0.066673     -1.149060
  O      -3.172572     -0.115850     -2.339421
14
Coordinates from ORCA-job ./orca E -399.105530860854
  O       1.559418     -0.206552     -0.613033
  N      -2.085219     -0.153383     -0.199307
  C      -0.782839     -0.104797     -0.885081
  C       0.340965     -0.217709      0.123878
  H      -0.723406      0.835069     -1.426008
  H      -0.746422     -0.928285     -1.591856
  H       0.243745     -1.146458      0.691060
  H       0.308368      0.622696      0.820121
  H      -2.177869     -1.020322      0.326082
  H      -2.166947      0.603107      0.475900
  H       2.286056     -0.242617      0.015699
  O      -4.421568      0.042783     -0.470245
  C      -3.415318     -0.062449     -1.149928
  O      -3.165947     -0.122398     -2.337961
14
Coordinates from ORCA-job ./orca E -399.105529926073
  O       1.559527     -0.205452     -0.612841
  N      -2.085155     -0.154677     -0.198964
  C      -0.782879     -0.106094     -0.885330
  C       0.340927     -0.217508      0.123768
  H      -0.724269      0.833380     -1.426991
  H      -0.746486     -0.930173     -1.591384
  H       0.244494     -1.146080      0.691369
  H       0.307171      0.623222      0.819577
  H      -2.178167     -1.022378      0.325056
  H      -2.165634      0.601017      0.477266
  H       2.286068     -0.240426      0.016067
  O      -4.421606      0.046395     -0.470694
  C      -3.415000     -0.061099     -1.149683
  O      -3.165973     -0.121441     -2.337895
14
Coordinates from ORCA-job ./orca E -399.106483405214
  O       1.548066     -0.205201     -0.614202
  N      -2.097731     -0.153612     -0.210247
  C      -0.793576     -0.105320     -0.893067
  C       0.327458     -0.216985      0.119090
  H      -0.733281      0.834142     -1.434568
  H      -0.755445     -0.929406     -1.599022
  H       0.229273     -1.145536      0.686427
  H       0.291996      0.623751      0.814808
  H      -2.192363     -1.021292      0.313520
  H      -2.179882      0.602099      0.465765
  H       2.272888     -0.240338      0.016684
  O      -4.377831      0.044072     -0.448613
  C      -3.369402     -0.063646     -1.124861
  O      -3.117153     -0.124043     -2.312395
14
Coordinates from ORCA-job ./orca E -399.106791754367
  O       1.551022     -0.205546     -0.608366
  N      -2.095475     -0.156048     -0.215778
  C      -0.788351     -0.107718     -0.897426
  C       0.327951     -0.215541      0.120105
  H      -0.728098      0.830771     -1.439803
  H      -0.747720     -0.933407     -1.600621
  H       0.227924     -1.142076      0.690421
  H       0.289254      0.627831      0.812506
  H      -2.187218     -1.026141      0.306031
  H      -2.169135      0.593893      0.468802
  H       2.273199     -0.237531      0.025705
  O      -4.385502      0.047950     -0.443640
  C      -3.372736     -0.056116     -1.121526
  O      -3.142096     -0.121635     -2.317092
14
Coordinates from ORCA-job ./orca E -399.104165604322
  O       1.554514     -0.196406     -0.598093
  N      -2.092977     -0.190308     -0.224335
  C      -0.781123     -0.135913     -0.907366
  C       0.327174     -0.208257      0.121486
  H      -0.733646      0.793864     -1.464486
  H      -0.727340     -0.974236     -1.593431
  H       0.235018     -1.123899      0.710434
  H       0.271279      0.649064      0.795379
  H      -2.168801     -1.060786      0.302432
  H      -2.153599      0.555145      0.468840
  H       2.271897     -0.204158      0.042177
  O      -4.390230      0.113010     -0.437561
  C      -3.381626     -0.091771     -1.113962
  O      -3.177521     -0.026664     -2.322193
14
Coordinates from ORCA-job ./orca E -399.106873781868
  O       1.553037     -0.202922     -0.604359
  N      -2.093806     -0.165214     -0.217724
  C      -0.784856     -0.116089     -0.901402
  C       0.328286     -0.212912      0.120596
  H      -0.729153      0.819833     -1.448466
  H      -0.741546     -0.946419     -1.599010
  H       0.230046     -1.135783      0.697094
  H       0.283477      0.635191      0.806800
  H      -2.182407     -1.038396      0.300458
  H      -2.159312      0.577876      0.475889
  H       2.273353     -0.226938      0.032229
  O      -4.391334      0.066465     -0.444724
  C      -3.373952     -0.054116     -1.118081
  O      -3.158814     -0.101888     -2.319980
14
Coordinates from ORCA-job ./orca E -399.106886442206
  O       1.552506     -0.201812     -0.605704
  N      -2.094365     -0.163982     -0.215900
  C      -0.785980     -0.114944     -0.900386
  C       0.328290     -0.213570      0.120238
  H      -0.730569      0.821412     -1.446708
  H      -0.744198     -0.944453     -1.598984
  H       0.230729     -1.137669      0.694880
  H       0.283621      0.633079      0.808244
  H      -2.184159     -1.037689      0.301057
  H      -2.160573      0.579376      0.477162
  H       2.273414     -0.227112      0.030156
  O      -4.389970      0.067383     -0.446860
  C      -3.372532     -0.051799     -1.118931
  O      -3.153195     -0.109535     -2.318943
14
Coordinates from ORCA-job ./orca E -399.106894304224
  O       1.552516     -0.200578     -0.605718
  N      -2.094405     -0.164732     -0.215431
  C      -0.786047     -0.115380     -0.900381
  C       0.328300     -0.213625      0.120150
  H      -0.731341      0.820980     -1.446738
  H      -0.744554     -0.944913     -1.598938
  H       0.231413     -1.138058      0.694360
  H       0.282802      0.632703      0.808505
  H      -2.184111     -1.039011      0.300544
  H      -2.160016      0.578061      0.478253
  H       2.273433     -0.225701      0.030138
  O      -4.389851      0.071666     -0.447706
  C      -3.372161     -0.051121     -1.118865
  O      -3.152961     -0.111604     -2.318852
