14
Coordinates from ORCA-job ./orca E -399.101090164492
  O           1.86679988498518     -0.34201168771862     -0.62691030335188
  N          -1.73533210170137      0.05893518555234      0.17817092801547
  C          -0.50355902654418     -0.05278665021538     -0.60248679868443
  C           0.73986537188173     -0.23713341475994      0.24665897549135
  H          -0.39485288743503      0.84731219771166     -1.20981966495382
  H          -0.59986956985212     -0.89846590487116     -1.28549464283249
  H           0.64569842638737     -1.14386967976975      0.85076002846515
  H           0.86266486803405      0.61601213639660      0.91924771974640
  H          -1.82579884538964     -0.75214625612347      0.77981409247609
  H          -1.66832683559220      0.85746019837578      0.79861137739011
  H           2.65583637265200     -0.44720667905333     -0.08790497137169
  O          -5.65854643495682     -0.60865994567295     -1.20514196343934
  C          -4.99591539488722     -0.20241717039223     -2.05979830745414
  O          -4.33564587788160      0.20366434304046     -2.91638681039669
