14
Coordinates from ORCA-job ./orca E -399.099520357394
  O           1.76047959589438     -0.30829049778413     -0.59484906367095
  N          -1.89385446980488      0.01704430596871     -0.02509842902140
  C          -0.61122390561403     -0.06050972921389     -0.72308729682133
  C           0.57619417847261     -0.24152395077471      0.20370447333406
  H          -0.47684696099274      0.85279879062081     -1.30511606395124
  H          -0.64769454164905     -0.89380886140687     -1.42695854326551
  H           0.45898616197183     -1.16213715859424      0.78237789138763
  H           0.63720040938508      0.59971130216965      0.89926836042649
  H          -2.01310773994127     -0.80892821244270      0.55079274214412
  H          -1.87941703266081      0.80105189621061      0.61707145661995
  H           2.51549863557356     -0.39884722010818     -0.00676463845707
  O          -5.05261678284601     -0.46744991045494     -0.78718956992181
  C          -4.44871367890896     -0.16525046202249     -1.72483265243741
  O          -3.87186591917949      0.13482638033239     -2.67999900726541
