14
Coordinates from ORCA-job ./orca E -399.101096906919
  O           1.88564896576205     -0.34875352842781     -0.65251312948502
  N          -1.68814522848519      0.07236628325816      0.26308519528849
  C          -0.48210732835288     -0.04991055400970     -0.55497801640226
  C           0.78657086430954     -0.23433085038232      0.25506477383192
  H          -0.38969457404591      0.84527007951357     -1.17224085574348
  H          -0.60384169629711     -0.89992930845807     -1.22853660696264
  H           0.70870779372790     -1.13735140666446      0.86679446619327
  H           0.93413903363554      0.62196635031499      0.91869374714245
  H          -1.76776348357089     -0.73843867354711      0.86648469679844
  H          -1.59522212606015      0.86984244791943      0.88162797226222
  H           2.68897839901192     -0.46174909332682     -0.13648254755041
  O          -5.81837638027069     -0.63173228557300     -1.33857234015271
  C          -5.14112704634735     -0.21341546937491     -2.17564695417743
  O          -4.46474924331667      0.20485268125801     -3.01346074194278
