14
Coordinates from ORCA-job ./orca E -399.091733134339
  O           1.61726394388751     -0.21873181659140     -0.63495847829637
  N          -2.03971140463893     -0.13119847811170     -0.11899972146176
  C          -0.75415434147760     -0.11562897868840     -0.80461837679518
  C           0.42210878625197     -0.22310246273372      0.14691681335576
  H          -0.68058998990327      0.80901335728183     -1.37678420069725
  H          -0.73124941414246     -0.94743577422297     -1.50868446933909
  H           0.35070195626994     -1.14811599758212      0.72488764253334
  H           0.42087274003913      0.62121055998737      0.84059168836761
  H          -2.14902295611714     -0.97526895837510      0.43034979148611
  H          -2.12568443308950      0.65457081531696      0.51447912789391
  H           2.36727345100544     -0.26690265782863     -0.03536936820023
  O          -4.61754148883982     -0.10198083649235     -0.58072214069982
  C          -3.74545704398529     -0.05877071601522     -1.36953398078785
  O          -3.28179185555968      0.00102861655546     -2.44823466825903
