14
Coordinates from ORCA-job ./orca E -399.096233476797
  O           1.70171224838354     -0.30152139910436     -0.59808327424339
  N          -1.96350591773208      0.00819478347634     -0.09404500603101
  C          -0.66873781657935     -0.06079629245801     -0.76742394216322
  C           0.50283515146686     -0.24299268568792      0.17909158126518
  H          -0.52779569184995      0.85634004313877     -1.34204463426884
  H          -0.68986616701175     -0.89003231920018     -1.47691218459520
  H           0.37849253547366     -1.16688497119677      0.75095938182991
  H           0.54842572578640      0.59474270498112      0.88003197689209
  H          -2.09553870516032     -0.82198751069698      0.47255173833568
  H          -1.96534172496854      0.78848358612748      0.55299830649634
  H           2.44637148908797     -0.38812217774774      0.00369605161085
  O          -4.81602704476992     -0.43436113200928     -0.65239050078315
  C          -4.17273560113822     -0.15540325279942     -1.57293438714556
  O          -3.62527053128805      0.11302729567696     -2.55617544809956
