14
Coordinates from ORCA-job ./orca E -399.100994726192
  O           1.83731217739919     -0.33290151753783     -0.61317063428636
  N          -1.78399462697569      0.04584142901208      0.11054288162605
  C          -0.53416627452528     -0.05373419059417     -0.64269641671631
  C           0.68962064847479     -0.23907550708862      0.23436943916035
  H          -0.41572024054970      0.85196063820379     -1.23973505335711
  H          -0.61086725565218     -0.89404323968614     -1.33473524584004
  H           0.58498707641460     -1.15050489906900      0.82968337145568
  H           0.79264351770180      0.60987371929441      0.91547949671387
  H          -1.88277887395369     -0.76913878028356      0.70563252035065
  H          -1.73623422973912      0.84125080918620      0.73666216739414
  H           2.61460939414380     -0.43420852959520     -0.05670910866137
  O          -5.47368162357076     -0.56718983401671     -1.06935008235519
  C          -4.83263486794717     -0.19209418600825     -1.95420846916244
  O          -4.19607687152044      0.18265076068301     -2.84244520722183
