14
Coordinates from ORCA-job ./orca E -399.101096823879
  O           1.87244608725259     -0.34471007091665     -0.63200125280262
  N          -1.72317218457530      0.06375030512234      0.19807904772051
  C          -0.49745235748047     -0.05087686650442     -0.59179375952473
  C           0.75140223635604     -0.23727517489490      0.24876848911088
  H          -0.39147033903850      0.84869247477507     -1.20038508428922
  H          -0.60049869920866     -0.89664649467561     -1.27370414508000
  H           0.65945610178913     -1.14355103158002      0.85388707961059
  H           0.88022496259082      0.61588683771001      0.92023151380698
  H          -1.81017013151591     -0.74659265771254      0.80122352075741
  H          -1.64983415673412      0.86268762650356      0.81730177018528
  H           2.66454543076792     -0.45244417271732     -0.09799108905753
  O          -5.70102325280208     -0.61796855465655     -1.23913927516045
  C          -5.03347194678278     -0.20668522033874     -2.08751575080625
  O          -4.36796380091854      0.20441967238576     -2.93764140537076
