14
Coordinates from ORCA-job ./orca E -399.100395559274
  O           1.78921297607239     -0.31514365818021     -0.59623835179789
  N          -1.85682759686951      0.02567712230445      0.01436042473974
  C          -0.58286314592867     -0.05795551798180     -0.69898232832713
  C           0.61399832216258     -0.24182971516691      0.21493902984806
  H          -0.45204597566541      0.85386940401835     -1.28405222616760
  H          -0.63076223455889     -0.89240172546003     -1.40072774127061
  H           0.49928718296526     -1.16070278001580      0.79686907117559
  H           0.68614340282027      0.60063609464803      0.90796354158388
  H          -1.97065844143386     -0.79715998436855      0.59581943125125
  H          -1.83300667290112      0.81296717158256      0.65209544760775
  H           2.55011911188793     -0.40767285164572     -0.01610491947492
  O          -5.18777636475241     -0.49395220988747     -0.86904142761931
  C          -4.58179771132663     -0.17347165163050     -1.79903432849345
  O          -3.99000490277175      0.14582697428360     -2.73854596395526
