14
Coordinates from ORCA-job ./orca E -399.101032536985
  O           1.84551552495077     -0.33532236693864     -0.61557365358557
  N          -1.77165153760538      0.04865354495419      0.12614925209296
  C          -0.52581381088740     -0.05357496807664     -0.63340247542673
  C           0.70230759853308     -0.23844890808984      0.23765361156719
  H          -0.40961591235163      0.85087144110566     -1.23277762044343
  H          -0.60693556006048     -0.89513842686991     -1.32340423958777
  H           0.59976629697706     -1.14853578214642      0.83536511221892
  H           0.80985721874645      0.61175369844419      0.91650255735941
  H          -1.86795168885031     -0.76516183695062      0.72324054772914
  H          -1.71964927798180      0.84509599876187      0.75064035890180
  H           2.62537880551910     -0.43758208278779     -0.06288058433828
  O          -5.52206814185094     -0.57800041206767     -1.10305715700092
  C          -4.87480018380331     -0.19454080184711     -1.97975980607937
  O          -4.23132138163506      0.18861757500874     -2.85937624430727
