14
Coordinates from ORCA-job ./orca E -399.100696127973
  O           1.80521810461405     -0.32075700415486     -0.60213923060807
  N          -1.83290855862869      0.03185055683594      0.04689871572286
  C          -0.56701676622353     -0.05677087538328     -0.68017697112594
  C           0.63908553227055     -0.24101428961718      0.22139769554169
  H          -0.44051708569193      0.85313567914938     -1.26913521535467
  H          -0.62460091791401     -0.89309428775410     -1.37890924927954
  H           0.52790039533533     -1.15753505845739      0.80768922293406
  H           0.72143612755111      0.60357544213848      0.91069274971584
  H          -1.94163561465131     -0.78841484542181      0.63293454897980
  H          -1.80129016644531      0.82195689189293      0.68073112110260
  H           2.57181635751289     -0.41564924423967     -0.02993589334984
  O          -5.28056941255743     -0.51659015512638     -0.93378267623050
  C          -4.66509804058193     -0.17927753121105     -1.85144518185113
  O          -4.05880200488961      0.15727139384897     -2.77549997709705
