14
Coordinates from ORCA-job ./orca E -399.101077187871
  O           1.86112298746790     -0.33932575462940     -0.62157707965174
  N          -1.74733706263413      0.05379393481346      0.15835929115518
  C          -0.50975481578277     -0.05475683165392     -0.61346001600465
  C           0.72806572875101     -0.23690829578730      0.24436812832800
  H          -0.39862701764081      0.84589179029671     -1.21953821564702
  H          -0.59930548315459     -0.90025420093988     -1.29761806767013
  H           0.63150698229009     -1.14399397423769      0.84757982410974
  H           0.84458590174874      0.61632961860106      0.91793961587102
  H          -1.84060751973341     -0.75806210910623      0.75855358836345
  H          -1.68635326791752      0.85177674918552      0.78010786996468
  H           2.64690550038351     -0.44171287421412     -0.07732433712838
  O          -5.61596129600455     -0.59865850474891     -1.17097770081485
  C          -4.95819231195463     -0.19797661339537     -2.03199365617862
  O          -4.30303037611870      0.20254373831608     -2.89509958559659
