18
Coordinates from ORCA-job ./orca E -1967.143577663162
  C          -2.98860007603479      1.81931719567696      1.60536360972389
  C          -1.90012174695678      2.66632777407192      1.50437186436426
  C          -0.72772176149744      2.40011302572097      2.23561972861671
  C          -0.66712016229622      1.26631653333797      3.06796724269946
  C          -1.76002790487075      0.42927176707008      3.16398745994647
  C          -2.91923788295139      0.70184841103836      2.43297047496749
  H          -3.88912957624057      2.02562899084560      1.04326929297967
  H          -3.76974498330297      0.03732360313816      2.51226932778539
  H          -1.93975618255428      3.53688438979798      0.86228578954032
  H           0.22539487847641      1.03629932083266      3.63471375920597
  H          -1.71759929610010     -0.44058147867168      3.80524193517069
  C           0.35226567594050      3.32767120237803      2.08304324828483
  N           1.52872454392328      3.28737233197132      2.74893646176667
  H           1.67950660978504      2.61611607743147      3.49473214071097
  H           2.06504065941272      4.14508175538294      2.83306958258061
  H           0.16965389206927      4.24087592505604      1.52893696515529
  H           1.76773308841408      2.03941590168852     -0.53777558751555
  Cu          1.91320022478401      2.49917727323264      0.89403670401681
