18
Coordinates from ORCA-job ./orca E -1967.140584329667
  C          -2.94592372309293      1.80197228816298      1.56897450769348
  C          -1.83739332747783      2.62044336419099      1.43869403719849
  C          -0.67622235380667      2.36033672244318      2.18264102594545
  C          -0.64269733349493      1.25989576627814      3.05315273649076
  C          -1.75519663068056      0.44767509086096      3.17937695049968
  C          -2.90628945317675      0.71490028835741      2.43815333400952
  H          -3.83966420831268      2.00815273212325      0.99563455993041
  H          -3.77170570130906      0.07308782319145      2.53976231770066
  H          -1.85711391860209      3.46444826844504      0.76090975747191
  H           0.24400334885120      1.02760630364335      3.62858722217686
  H          -1.72929699708655     -0.39772274741196      3.85370702133980
  C           0.43664236993681      3.26802815517620      2.00810920398871
  N           1.55695365514865      3.27063344123229      2.79387623247902
  H           1.63775473073072      2.62600282965656      3.57086759911138
  H           2.05855932344908      4.14328386591196      2.91209049496581
  H           0.25046224196603      4.19130915732087      1.47319268271614
  H           1.27965073450930      2.26860736096649     -0.40550215671385
  Cu          1.91993724244838      2.48579928945051      0.92081247299546
