18
Coordinates from ORCA-job ./orca E -1967.140324270290
  C          -2.94523113428682      1.80179641612402      1.56871244541728
  C          -1.83592973026677      2.61902192709439      1.43665742770125
  C          -0.67458995710006      2.35879525829244      2.17993221900502
  C          -0.64148681516154      1.25938267725467      3.05139604924780
  C          -1.75469348213653      0.44812228101038      3.17937650617970
  C          -2.90610338500512      0.71553005547052      2.43894501169327
  H          -3.83921676146520      2.00835044998232      0.99586016660148
  H          -3.77202181283016      0.07460292124578      2.54184148195662
  H          -1.85535997483906      3.46222944354271      0.75784543251115
  H           0.24556107887149      1.02677712492569      3.62620917758336
  H          -1.72889207379507     -0.39666241350451      3.85449576063092
  C           0.43975741199413      3.26575947445779      2.00416553941006
  N           1.55667187481885      3.27021716211942      2.79510561346292
  H           1.63390634428507      2.62684908037755      3.57338971462942
  H           2.05702182096937      4.14337646414826      2.91423751566067
  H           0.25406527685408      4.18943919874658      1.46987163138098
  H           1.26623746045892      2.27737169131078     -0.39701024824254
  Cu          1.92276385863454      2.48350078740087      0.92200855517031
