18
Coordinates from ORCA-job ./orca E -1967.123642555273
  C          -2.96219292233015      1.84917146863122      1.62557947188151
  C          -1.82519120535075      2.61177907451573      1.40078985111570
  C          -0.62583313074895      2.29236674953654      2.04248152938370
  C          -0.57431045988474      1.18848940661558      2.89816550311535
  C          -1.71273067545356      0.42754836477159      3.11936936444858
  C          -2.90852040853015      0.75649436434906      2.48565992977706
  H          -3.88957963081980      2.10811788033858      1.13181489607722
  H          -3.79471856010658      0.16039991771716      2.66045611945166
  H          -1.86343376773418      3.46171379904474      0.73059244836983
  H           0.35157601778812      0.90503043718134      3.38395658373020
  H          -1.66730551773030     -0.42543555070814      3.78359419497722
  C           0.53718487929133      3.16305843814676      1.80852932364851
  N           1.50330405174381      3.31298163122450      2.80920652295531
  H           1.40413742897077      2.77254908112191      3.65693278195186
  H           1.89320144499385      4.23592673736597      2.94177920747768
  H           0.33519477982441      4.07147130491649      1.25916350530749
  H           1.03164527100055      2.40477238433079      0.10966613440362
  Cu          2.19003240507657      2.33802451089948      1.06530263192674
