18
Coordinates from ORCA-job ./orca E -1967.137821027434
  C          -3.07628870282417      2.07348727181640      1.85393291046565
  C          -1.88878367311000      2.68910964001640      1.47205241747754
  C          -0.65776964513719      2.15546175935610      1.85628036532924
  C          -0.63499607072326      0.99121598714687      2.62939526051488
  C          -1.81923911444683      0.37989667693024      3.01567648447620
  C          -3.04393951058190      0.91969490229829      2.62835419827184
  H          -4.02436366612305      2.49701629094404      1.54802058468992
  H          -3.96677072606013      0.43866432715003      2.92614933939117
  H          -1.91579413905125      3.59079988968666      0.87200135453736
  H           0.31155653696668      0.54771510424142      2.91598856372527
  H          -1.78906797653626     -0.52362700830115      3.61114746260389
  C           0.59604451654629      2.84195171833350      1.44536580598092
  N           1.51905972659259      3.19953477476888      2.53888694322645
  H           1.73663144639992      2.37373453992939      3.09180901217033
  H           1.03633887252656      3.83511590533820      3.17554669285850
  H           0.41990488545789      3.70607690531730      0.81566857091919
  H           1.41289763737045      1.90456740903245      0.52825803209855
  Cu          3.20703960273402      4.01404390599388      1.98850600126199
