18
Coordinates from ORCA-job ./orca E -1967.140021219267
  C          -2.94405775872639      1.80126139638813      1.56733969267504
  C          -1.83446567810264      2.61805134465928      1.43487202627989
  C          -0.67331448414477      2.35798441897022      2.17842935924444
  C          -0.64084587901781      1.25940617589036      3.05090002221238
  C          -1.75434714434741      0.44854061208333      3.17930189887530
  C          -2.90548508661299      0.71566008527267      2.43841807037924
  H          -3.83786763570854      2.00766787388688      0.99415226108488
  H          -3.77164115701659      0.07510783833064      2.54166619220755
  H          -1.85350900297781      3.46072672039281      0.75538903210500
  H           0.24596109892543      1.02710610172660      3.62619509194582
  H          -1.72897235262341     -0.39564896685310      3.85518925089104
  C           0.44155939802424      3.26444794780385      2.00214380673115
  N           1.55806492054472      3.26965144464860      2.79528297336991
  H           1.63456078355749      2.62713070973123      3.57426933214193
  H           2.05828687291585      4.14284813763222      2.91425007026713
  H           0.25647520497081      4.18801009164601      1.46752269582518
  H           1.25069572093397      2.28409894328549     -0.38558298965271
  Cu          1.92136217940600      2.48240912450444      0.92330121341651
