18
Coordinates from ORCA-job ./orca E -1967.143541924331
  C          -2.98187676376319      1.81613915377005      1.59921188189986
  C          -1.89013507641334      2.65863595717711      1.49391120010889
  C          -0.72012638602528      2.39377890162703      2.22855924422073
  C          -0.66419311472556      1.26494341453633      3.06705796530286
  C          -1.76035963223112      0.43202258276002      3.16756113738412
  C          -2.91797126500847      0.70389322597402      2.43429506854650
  H          -3.88100567172930      2.02243085206273      1.03482840312502
  H          -3.77111494564758      0.04320138463885      2.51723121648838
  H          -1.92625404568027      3.52516960714772      0.84616187362444
  H           0.22678079591880      1.03485030474883      3.63626172028441
  H          -1.72109197943723     -0.43376094321025      3.81453030461529
  C           0.36363231359211      3.31946901348961      2.07455192084464
  N           1.53373398691589      3.28474061055345      2.75628424819884
  H           1.67650219607978      2.61547190793182      3.50512377376299
  H           2.06449429031930      4.14498302051627      2.84719142708145
  H           0.17980382109010      4.23465766949706      1.52414025212616
  H           1.70134661468384      2.07008185872001     -0.53193554981349
  Cu          1.91029486206159      2.50375147805923      0.89807391219884
