18
Coordinates from ORCA-job ./orca E -1967.186317352265
  C          -2.99611821042744      2.19182973219577      2.02908299156024
  C          -1.78553107521994      2.72415399346298      1.59916108333681
  C          -0.59306789894995      2.02894597423095      1.80437920565317
  C          -0.63218624836769      0.78910982750426      2.44436227614688
  C          -1.84058712979565      0.25575922423507      2.87633630626388
  C          -3.02503167679961      0.95725991564490      2.66988305584698
  H          -3.91576059311122      2.73720280545363      1.85927466188172
  H          -3.96729375785639      0.53960300737803      3.00093141714872
  H          -1.76568511100412      3.68358300812821      1.09513038399583
  H           0.28799333933491      0.23640906210690      2.59590989303426
  H          -1.85983731692031     -0.70935747747604      3.36646834224702
  C           0.71514486466530      2.63026454951522      1.38022524444635
  N           1.37881125893296      3.39177750486658      2.48171310396036
  H           1.50870074275805      2.77310566223479      3.28002880194143
  H           0.74482871523883      4.12171157421884      2.80413743262099
  H           0.58809729758945      3.30736410363024      0.53887836637544
  H           1.48466954238509      1.76906008456259      1.03644677192051
  Cu          3.09531325754815      4.20667744810585      2.05069066161813
