18
Coordinates from ORCA-job ./orca E -1967.137464152849
  C          -2.94246838446168      1.80664546074646      1.57181444356129
  C          -1.82609913711855      2.61214010709257      1.42273918831715
  C          -0.66006009647755      2.34464768063625      2.15333327704577
  C          -0.62733791479847      1.24892269175546      3.02705985893860
  C          -1.74683815445653      0.44736059883994      3.17147785512417
  C          -2.90446957356353      0.72289872471647      2.44520313663125
  H          -3.84112789896482      2.02073572661226      1.00896355474801
  H          -3.77534214564413      0.09085095577571      2.56045618086434
  H          -1.84585055499895      3.45249319715858      0.74027618042426
  H           0.26544296772144      1.00822505140051      3.58982007254392
  H          -1.71952465669662     -0.39607109199405      3.84833719298348
  C           0.46526437576034      3.24467026077359      1.96697535052761
  N           1.55180690239488      3.27645019078984      2.80674072730150
  H           1.59756934256380      2.65177558657911      3.60170189308829
  H           2.03735982365570      4.15678255127265      2.92888911151810
  H           0.27948940634872      4.16509196150042      1.42813817748760
  H           1.16005012637283      2.32525692041332     -0.30216032261003
  Cu          1.95459557236328      2.45558342593053      0.94327412150429
