18
Coordinates from ORCA-job ./orca E -1967.171075043065
  C          -3.01017560620644      2.18135754623080      2.01183537164390
  C          -1.80332142970724      2.72353470685890      1.58275225905704
  C          -0.60384062979961      2.04571842877330      1.80509103795579
  C          -0.63154943768987      0.81380618514143      2.46132123439488
  C          -1.83568678852109      0.27184711929851      2.89278256472411
  C          -3.02775089965210      0.95571170569731      2.66911289291485
  H          -3.93526645248418      2.71306858824860      1.82892176794752
  H          -3.96681137779410      0.53053064724093      2.99962981450166
  H          -1.79190622511390      3.67684824735457      1.06728280724860
  H           0.29440018108014      0.27399436167665      2.62327517311037
  H          -1.84635165301716     -0.68709267655809      3.39509744361068
  C           0.69321744311963      2.66454982948293      1.38477308658694
  N           1.38922272328611      3.37311288585802      2.49461576807701
  H           1.53139348770726      2.72344249417740      3.26561732007109
  H           0.76859011640204      4.09555733177077      2.85928795591029
  H           0.56759678074370      3.35953991995168      0.55968952215600
  H           1.52798503171689      1.72816536141995      0.95819108441159
  Cu          3.10271473593033      4.19076731737513      2.05376289567647
