18
Coordinates from ORCA-job ./orca E -1967.134634433838
  C          -2.94858899547650      1.82059529437766      1.58808539318838
  C          -1.82538983847467      2.61364783987365      1.41826452385864
  C          -0.64907372016783      2.33041889210269      2.12379969489675
  C          -0.61014427304872      1.22964631138965      2.98947512529983
  C          -1.73543883470760      0.43914759341555      3.15354639330526
  C          -2.90549528859949      0.73230093873729      2.45512196976177
  H          -3.85656502115144      2.04902959175708      1.04607974938393
  H          -3.78134551881552      0.11029692875656      2.58624378258392
  H          -1.85074200895412      3.45820088430851      0.74111583781039
  H           0.29350403528522      0.97348379935032      3.52808180546017
  H          -1.70216742575643     -0.40954624900374      3.82361864356784
  C           0.48351246015809      3.22573521846286      1.92875470162802
  N           1.53418607191309      3.29544240135343      2.81753451072713
  H           1.54439730508722      2.69914076610807      3.63460849856986
  H           2.00546209668491      4.18385021649445      2.93285430277470
  H           0.29961027121582      4.13485539329260      1.37145462947529
  H           1.12493325485024      2.33031522278387     -0.20919463758238
  Cu          2.00180542995792      2.41789895643906      0.98359507529005
