18
Coordinates from ORCA-job ./orca E -1967.122420398921
  C          -2.98423143326946      1.87888522242374      1.66994589770608
  C          -1.84530397336214      2.63262475651334      1.41789202274052
  C          -0.62722930393024      2.28228921021517      2.00331047563939
  C          -0.55963443661748      1.16008352392438      2.83316416872615
  C          -1.69861437333607      0.40864140577331      3.08213802971021
  C          -2.91336132363945      0.76662912243546      2.50210006024339
  H          -3.92617529808852      2.16121730555223      1.21815833959301
  H          -3.79999830727158      0.17724166502641      2.69650219363659
  H          -1.89923197911546      3.49924609005521      0.77051906873313
  H           0.38281110398723      0.85565121206661      3.27284077278693
  H          -1.63861826525086     -0.46076064106055      3.72370014827144
  C           0.55120542064555      3.13170526467606      1.73704041488952
  N           1.49137507083706      3.33278463953234      2.78062774988505
  H           1.30373538699419      2.85466419083089      3.65108915697335
  H           1.80100472330354      4.28646373211957      2.90853317939917
  H           0.34135554352445      4.03132671403637      1.17549859269392
  H           1.08966697613939      2.36448218524209      0.28891991988049
  Cu          2.35370446845015      2.27128440063655      1.18105980849080
