18
Coordinates from ORCA-job ./orca E -1967.124313993469
  C          -2.95994502073374      1.84607883721680      1.62126462986814
  C          -1.82352826599245      2.61036333464354      1.40044492655933
  C          -0.62642873361909      2.29442943720370      2.04855006671661
  C          -0.57655098518504      1.19176225864711      2.90620917079691
  C          -1.71445405925737      0.42902663492250      3.12313184663273
  C          -2.90794291976549      0.75483629878323      2.48338449446748
  H          -3.88559086839763      2.10237285294208      1.12291537918787
  H          -3.79380689678948      0.15737313507549      2.65515916873199
  H          -1.86006370137196      3.45898578129793      0.72851607718774
  H           0.34736340771795      0.91081596665062      3.39714156965118
  H          -1.67060468191727     -0.42281761495428      3.78889231802281
  C           0.53368861363658      3.16829207375132      1.81961198093452
  N           1.50402518940748      3.31189064278324      2.81305179083934
  H           1.41564107144094      2.76526101538532      3.65803532082905
  H           1.90532957901508      4.23030651255116      2.94363454626759
  H           0.33443202755651      4.07619385845061      1.26836876424538
  H           1.03244939865018      2.40364930003039      0.07955910362755
  Cu          2.16844684560507      2.34563967461857      1.05516884543307
