18
Coordinates from ORCA-job ./orca E -1967.129951948588
  C          -2.95066691485709      1.82889097558223      1.59879512003763
  C          -1.82051751423841      2.60777655960042      1.40537612752115
  C          -0.63630199336111      2.31276267557576      2.08951223880976
  C          -0.59426417898897      1.21425795235381      2.95537270302833
  C          -1.72620035746588      0.43684505927288      3.14347568552509
  C          -2.90574693401257      0.74250037683715      2.46800354507831
  H          -3.86580257136630      2.06817546625060      1.07356375367489
  H          -3.78700246413111      0.13250602880681      2.61799831851105
  H          -1.84910016652026      3.45127518760343      0.72685860070098
  H           0.31760506083273      0.94853335747040      3.47580174301083
  H          -1.68963059737537     -0.41075860632902      3.81488954531038
  C           0.50816894045610      3.20040594923875      1.88257003867185
  N           1.51971680118671      3.30066964460719      2.82169378757311
  H           1.48777680942233      2.72379669688650      3.65111018416891
  H           1.96920851546303      4.19857855189470      2.94345800334967
  H           0.32051537122891      4.10892232363729      1.32715416182328
  H           1.06171470767851      2.38458990761436     -0.08975250300617
  Cu          2.06298748604896      2.38473189309622      1.00715894621039
