18
Coordinates from ORCA-job ./orca E -1967.153083638628
  C          -3.04772494974195      2.13409202585891      1.93815062465327
  C          -1.85003194414826      2.70981049180275      1.52548444142308
  C          -0.63151279856809      2.09820402215298      1.82151089649013
  C          -0.63013935504035      0.89771017742804      2.53624259589255
  C          -1.82384638584172      0.32464813807703      2.95240876482050
  C          -3.03637608229212      0.94246463490065      2.65371270648305
  H          -3.98713335309418      2.61579156712033      1.69863085746014
  H          -3.96733949079536      0.49145682931120      2.97258740072125
  H          -1.86064934416108      3.63869192623815      0.96764211225370
  H           0.31013916081625      0.40349607905977      2.75306453206111
  H          -1.81147343195102     -0.60885732402948      3.50044383706590
  C           0.64512397606201      2.74884153361948      1.40233863403097
  N           1.45068632124377      3.29013942435062      2.52284028388836
  H           1.64105438200640      2.54733275432317      3.19235374850909
  H           0.88517709967654      3.97341260110426      3.02723334154354
  H           0.49325347949015      3.52823079671049      0.66323814960373
  H           1.49342676308593      1.77991092967303      0.74691445009662
  Cu          3.14982595325347      4.11908339229747      2.03824262300184
