18
Coordinates from ORCA-job ./orca E -1967.154447655988
  C          -2.96619780179317      2.20708017768925      2.05745198990865
  C          -1.74885944627226      2.72099456724895      1.62620900649645
  C          -0.57041979911007      1.99549267362854      1.80428727565460
  C          -0.63072531963380      0.74293331862638      2.41642744320810
  C          -1.84741205933117      0.22550229200228      2.84738159308254
  C          -3.01688288180087      0.95812649064642      2.66995325450897
  H          -3.87513456749990      2.77648761063445      1.91022094822354
  H          -3.96513474213791      0.55491960725558      3.00187212797087
  H          -1.71290896115479      3.68991826382094      1.14115907379202
  H           0.27832201697733      0.16777292298125      2.55204826235797
  H          -1.88354360404466     -0.74947700103618      3.31663056631153
  C           0.75810357982975      2.56315873137719      1.37792756020447
  N           1.36480839501280      3.41938373905750      2.45507685289653
  H           1.45880856154729      2.86178294005410      3.30235484851886
  H           0.71434049902796      4.16522728084289      2.69177520610579
  H           0.63298277691141      3.20234695278635      0.50412373469372
  H           1.33739673692930      1.92058271132049      1.19153952954886
  Cu          3.09491661654322      4.21222672106227      2.04660072651512
