18
Coordinates from ORCA-job ./orca E -1967.132361709438
  C          -2.95024288720431      1.82535745611773      1.59466230539979
  C          -1.82320369774174      2.61070912202498      1.41187125984199
  C          -0.64229877849383      2.32091353193541      2.10535482160054
  C          -0.60149233946811      1.22099733817304      2.97068898427628
  C          -1.73037580016081      0.43745125011981      3.14772868031675
  C          -2.90589349614748      0.73771460151837      2.46234659961839
  H          -3.86242172857764      2.06001832398438      1.06233761905847
  H          -3.78469649234732      0.12216484990041      2.60376348235474
  H          -1.85053984346211      3.45506869374137      0.73447027694273
  H           0.30680606399047      0.95942758681436      3.49909514322922
  H          -1.69510094267340     -0.41100088079449      3.81808113486107
  C           0.49651274567182      3.21236130939742      1.90404272451168
  N           1.52546003902173      3.29889846367675      2.82054656858275
  H           1.51312063463067      2.71364910310363      3.64500530868234
  H           1.98626488034830      4.19199811261710      2.93825742701041
  H           0.31218730112236      4.12053101321250      1.34620502272178
  H           1.09703810438985      2.35702694559316     -0.15041519434182
  Cu          2.03133623710173      2.40117317886357      0.99899783533239
