18
Coordinates from ORCA-job ./orca E -1967.191640153141
  C          -2.97757179729794      2.20367366159913      2.04913953496481
  C          -1.76250095866733      2.72345547175165      1.61778815980916
  C          -0.57922384326867      2.00757419778981      1.80390077512596
  C          -0.63255369197266      0.75905884743351      2.42510634208558
  C          -1.84636597554073      0.23659680315834      2.85705330788009
  C          -3.02090373828193      0.95932125933131      2.67085149060491
  H          -3.89005881308766      2.76552344559465      1.89502468475590
  H          -3.96711445446741      0.55145639527980      3.00288592981903
  H          -1.73200474939788      3.68950350653404      1.12679489398695
  H           0.28026660415309      0.19110274431957      2.56480405383669
  H          -1.87682653553190     -0.73538703073673      3.33286317488250
  C           0.74119375500043      2.58926038144347      1.37832433280150
  N           1.36664869115037      3.41232215828765      2.46564344484996
  H           1.47853468133363      2.83135735033937      3.29464750861748
  H           0.71788957327391      4.14909950182215      2.73604868548638
  H           0.61572914469094      3.24163022839032      0.51548978093914
  H           1.42064708979942      1.83539331198252      1.12922072489764
  Cu          3.08667501811277      4.22351776567812      2.04745317465499
