18
Coordinates from ORCA-job ./orca E -1967.137819310848
  C          -2.94201574758039      1.80532745536128      1.57038657522483
  C          -1.82655207567666      2.61241785925803      1.42387303766692
  C          -0.66158016853141      2.34647743068460      2.15707373004116
  C          -0.62939621698036      1.25089675338801      3.03129109914645
  C          -1.74812769529776      0.44799257034415      3.17324128850683
  C          -2.90438862721201      0.72177559703644      2.44402308988432
  H          -3.83966937576555      2.01795777882829      1.00538637471400
  H          -3.77460503203373      0.08846355000828      2.55732187313418
  H          -1.84584679796465      3.45267394725095      0.74129640354587
  H           0.26217621087292      1.01186946085672      3.59662250022023
  H          -1.72145209486178     -0.39508091951910      3.85056312609391
  C           0.46258288900307      3.24719230804785      1.97191504389719
  N           1.55340172841347      3.27469163011624      2.80521903242047
  H           1.60334596670077      2.64700458422337      3.59764585411988
  H           2.04085216644784      4.15402281244833      2.92761973054266
  H           0.27657451292396      4.16858759778443      1.43469072759291
  H           1.16781015535129      2.32230487180598     -0.31423073423010
  Cu          1.94935020219112      2.45988471207575      0.93910124747792
