18
Coordinates from ORCA-job ./orca E -1967.143912262961
  C          -3.06994458577735      2.08960562492916      1.87604840222926
  C          -1.87990786660247      2.69425863461315      1.48356206827386
  C          -0.65095824192885      2.14038284105257      1.84361117329397
  C          -0.63218574407509      0.96716987144580      2.60304192904214
  C          -1.81846996632938      0.36658339059920      2.99997177256535
  C          -3.04147937577486      0.92679208781770      2.63677808944393
  H          -4.01676659984533      2.52834819011029      1.58815577277575
  H          -3.96614782846939      0.45415977032371      2.94227237135314
  H          -1.90404602643627      3.60270675379485      0.89360744213156
  H           0.31384760979048      0.51022132035373      2.87016808316913
  H          -1.79160666808006     -0.54424972296993      3.58439310782347
  C           0.61039184979724      2.81565229813476      1.42780193480930
  N           1.50083732499357      3.22157099410599      2.53546769691450
  H           1.71147985496853      2.41514807224572      3.11912705936428
  H           0.99354312123030      3.87002599328882      3.13872041008378
  H           0.43818633011639      3.66125653932342      0.77157644892152
  H           1.43069588064284      1.87407889534906      0.58782227929748
  Cu          3.19499093178008      4.04074844548088      2.01091395850645
