18
Coordinates from ORCA-job ./orca E -1967.136699891283
  C          -2.94334253001147      1.80935809703866      1.57480226051383
  C          -1.82517065545992      2.61168359401952      1.42070237897773
  C          -0.65695398041262      2.34098071179824      2.14600034650647
  C          -0.62323839470906      1.24478968951095      3.01862981947118
  C          -1.74430008521620      0.44594270821304      3.16783054081677
  C          -2.90459754638995      0.72510846708524      2.44746708330785
  H          -3.84401339918278      2.02652510081491      1.01631972979062
  H          -3.77676040779510      0.09554313742438      2.56650278477950
  H          -1.84589876113273      3.45243093668084      0.73872868256615
  H           0.27185611808931      1.00077168909297      3.57635700056480
  H          -1.71582434546896     -0.39820817213070      3.84377101052816
  C           0.47066458734482      3.23957433274657      1.95705168882358
  N           1.54852933949345      3.28007750693074      2.80943111911525
  H           1.58573281831322      2.66170160784477      3.60955345668453
  H           2.03018085984773      4.16249118718675      2.93079756536224
  H           0.28507316303703      4.15805140191842      1.41513267478028
  H           1.14517203465886      2.33092343511249     -0.27776778802034
  Cu          1.96535118499451      2.44671456871182      0.95172964543099
