18
Coordinates from ORCA-job ./orca E -1967.126472485109
  C          -2.95443206583508      1.83708241301551      1.60925539676770
  C          -1.82032095631708      2.60713607724492      1.40021511566063
  C          -0.62950916899935      2.30158710228751      2.06606840859418
  C          -0.58402549685435      1.20238625563364      2.92928332331397
  C          -1.71984557963575      0.43369155644341      3.13383974813219
  C          -2.90663641469282      0.74959495650484      2.47667980569931
  H          -3.87502637070514      2.08516253031831      1.09766442925839
  H          -3.79092176482320      0.14723521553163      2.63922942226743
  H          -1.85252671872930      3.45214902342045      0.72360647565894
  H           0.33408873606864      0.92900070063231      3.43494849118201
  H          -1.67997392955685     -0.41490860447958      3.80390450073690
  C           0.52382477797439      3.18218862956864      1.84774092805414
  N           1.51072467268321      3.30560417206065      2.81880774929818
  H           1.44887356625801      2.74297251951710      3.65576766457498
  H           1.93622099263075      4.21374224269365      2.94664737574381
  H           0.32973526646868      4.09128715488191      1.29631373335589
  H           1.03501582900701      2.40372737028040      0.00467101608720
  Cu          2.11719462505848      2.36482068444410      1.02839641561348
