18
Coordinates from ORCA-job ./orca E -1967.181864091670
  C          -3.00068265027558      2.18862285459099      2.02392841357755
  C          -1.79124001679109      2.72415948765739      1.59446313926648
  C          -0.59652538842564      2.03430821968063      1.80478858771997
  C          -0.63208452533984      0.79674448065899      2.44951319044643
  C          -1.83915119690081      0.26057966065624      2.88121497739584
  C          -3.02602656645037      0.95661457268825      2.66953695561845
  H          -3.92206231113776      2.72977870063060      1.85012511951087
  H          -3.96728805365443      0.53646445100211      3.00026011252936
  H          -1.77404179045090      3.68186985918864      1.08716658402225
  H           0.28991905223527      0.24799942986721      2.60416499357546
  H          -1.85565398955304     -0.70276666004535      3.37490504539187
  C           0.70823740641493      2.64108459753462      1.38162011372440
  N           1.38187876578894      3.38653401952225      2.48574426098307
  H           1.51560128237539      2.75867349696447      3.27616434938484
  H           0.75220995943819      4.11478722825603      2.82089501197033
  H           0.58156441926377      3.32361891967033      0.54517368471095
  H           1.49981440981985      1.75402224953326      1.01209170785422
  Cu          3.09799119364352      4.20136443194210      2.05128375231642
