18
Coordinates from ORCA-job ./orca E -1967.122124214029
  C          -2.97858667639786      1.87159480771168      1.65854042061772
  C          -1.83994728331241      2.62734956158113      1.41303412069994
  C          -0.62626238426466      2.28455929635794      2.01239982747780
  C          -0.56265677677685      1.16717712118812      2.84899488052995
  C          -1.70168022606419      0.41353394378869      3.09133236348258
  C          -2.91195853430668      0.76430804084957      2.49791417181975
  H          -3.91710270952473      2.14821460739724      1.19625086349239
  H          -3.79857541719808      0.17335637181799      2.68755885009835
  H          -1.89011804294615      3.48974607445725      0.75973391533766
  H           0.37589298108363      0.86737807863337      3.29988602633807
  H          -1.64509399505927     -0.45175001063346      3.73871093347634
  C           0.54903959729769      3.13882392834800      1.75343098505361
  N           1.49402960645930      3.32818270659262      2.78796239790810
  H           1.32850025928762      2.83449906714322      3.65398492944229
  H           1.82337142082461      4.27480376129423      2.91805977871553
  H           0.34082604433624      4.04081386737150      1.19542143731539
  H           1.07053703380155      2.37538058682764      0.24996176054495
  Cu          2.31224510276057      2.28648818927245      1.14986233764872
