18
Coordinates from ORCA-job ./orca E -1967.063645798217
  C          -2.96047653725355      2.20630173016405      2.06046583765775
  C          -1.74270877001198      2.71894505605211      1.62925447834665
  C          -0.56595901147827      1.99046718907865      1.80427428186520
  C          -0.62774089066297      0.73616169141876      2.41260033063880
  C          -1.84520439891490      0.21962228955951      2.84297134189567
  C          -3.01313465899921      0.95536839343828      2.66909640156774
  H          -3.86844690060156      2.77798698799985      1.91615169641458
  H          -3.96190469271063      0.55330825102080      3.00094252205319
  H          -1.70522782270558      3.68903640424839      1.14662755133375
  H           0.28023930487875      0.15888372394014      2.54684087570451
  H          -1.88290315094513     -0.75656975926351      3.30957191234988
  C           0.76600026098368      2.55032453316027      1.37814181263794
  N           1.36588065718672      3.42103924563813      2.44841947361296
  H           1.44017649777969      2.87818001956040      3.30726539589989
  H           0.72190720538508      4.17913958684395      2.66092451994938
  H           0.64262793169476      3.18126474962233      0.49858574480717
  H           1.26736753972342      1.99192179954827      1.22967553053884
  Cu          3.11196743665216      4.18307810796824      2.05123029272467
