18
Coordinates from ORCA-job ./orca E -1967.170195630231
  C          -2.96809661114612      2.20719806746473      2.05699904278141
  C          -1.75104495237196      2.72187136344743      1.62573998387029
  C          -0.57198964605671      1.99739156764423      1.80437021786834
  C          -0.63151260336430      0.74516060384081      2.41727796600323
  C          -1.84781608226668      0.22709622867944      2.84839617174010
  C          -3.01789682371483      0.95864514449751      2.67027614705547
  H          -3.87744172115343      2.77580878817010      1.90920892747240
  H          -3.96589375571169      0.55483737909539      3.00218922510700
  H          -1.71580362196046      3.69061785811738      1.14029118558881
  H           0.27797919976922      0.17077329556824      2.55293523384434
  H          -1.88325704998115     -0.74768241247417      3.31811381688383
  C           0.75507987430409      2.56782258426351      1.37828328950613
  N           1.36395362975071      3.41967841308442      2.45688687272498
  H           1.46166282426636      2.85866654676483      3.30144385952406
  H           0.71269402276233      4.16333292389606      2.69887739811981
  H           0.63022953769714      3.20841802552096      0.50562490912579
  H           1.36034525973362      1.89708750352437      1.17980593343986
  Cu          3.09126851944432      4.21773611889342      2.04631981934276
