18
Coordinates from ORCA-job ./orca E -1967.141515012359
  C          -2.94917136646472      1.80210085045511      1.57047378905858
  C          -1.84404731639356      2.62588356037321      1.44730502953408
  C          -0.68342954515146      2.36703373941282      2.19376263153201
  C          -0.64808607349442      1.26309185896243      3.06083280085393
  C          -1.75745365162886      0.44635657770367      3.18006232635792
  C          -2.90721408935419      0.71181975992500      2.43550089885129
  H          -3.84199417514871      2.00644844914981      0.99512426130382
  H          -3.77011478111270      0.06580362069971      2.53173842868648
  H          -1.86503240935890      3.47279760726262      0.77325480043834
  H           0.23721989133484      1.03325219992932      3.63928137024026
  H          -1.73090196767005     -0.40132971225238      3.85143998744826
  C           0.42445493778105      3.27773405901102      2.02325514441830
  N           1.55634553301581      3.27078674096502      2.78771957823961
  H           1.65044566797297      2.61949631733505      3.55800813798029
  H           2.06401311856564      4.14068576122823      2.90258202120556
  H           0.23884398256569      4.20099499129028      1.48779842349238
  H           1.33827721884834      2.23752844267988     -0.43916761723442
  Cu          1.91030502569335      2.49397517586894      0.91406798759304
