18
Coordinates from ORCA-job ./orca E -1967.143571992946
  C          -2.98856382185546      1.81929056539597      1.60532010793610
  C          -1.90009590672869      2.66630552965349      1.50432623262485
  C          -0.72770834140186      2.40012324411725      2.23560034583513
  C          -0.66712916339136      1.26634569530272      3.06797835310463
  C          -1.76003908208068      0.42929255040179      3.16401402152998
  C          -2.91922930563021      0.70183929567590      2.43296436303529
  H          -3.88907278746370      2.02558894344038      1.04318671140927
  H          -3.76973507732555      0.03731210118573      2.51226215556513
  H          -1.93971025171955      3.53683664252346      0.86220184468207
  H           0.22536730776211      1.03632605999097      3.63475502306479
  H          -1.71759895271164     -0.44053510487785      3.80530199869765
  C           0.35230793669850      3.32765992351323      2.08307551563990
  N           1.52877352078763      3.28733020375151      2.74896879564611
  H           1.67957353334223      2.61607024281770      3.49475589216423
  H           2.06507822378271      4.14504810364359      2.83310121951535
  H           0.16972201314813      4.24082049912972      1.52888463477015
  H           1.76737842473363      2.03960288798100     -0.53770864695113
  Cu          1.91314173005378      2.49920261635336      0.89405143173044
