18
Coordinates from ORCA-job ./orca E -1967.141705998877
  C          -2.94908864916083      1.80077512527741      1.56904794337078
  C          -1.84540330222710      2.62679718981852      1.44918831653796
  C          -0.68578825064027      2.36949397330342      2.19817662830105
  C          -0.65066720585722      1.26540412033667      3.06544014109171
  C          -1.75879225630646      0.44678725770649      3.18152735702347
  C          -2.90708033307772      0.71027775963295      2.43381198320043
  H          -3.84085259737163      2.00349483868498      0.99150711571340
  H          -3.76897213371197      0.06256785533792      2.52770819974450
  H          -1.86619472764401      3.47399930941800      0.77550959358668
  H           0.23317087682301      1.03771972061598      3.64692399302761
  H          -1.73276293097586     -0.40080829327712      3.85302497707899
  C           0.42039979449884      3.28122821023983      2.02919282375125
  N           1.55775786343668      3.26899412973531      2.78447490896203
  H           1.65804538404920      2.61385597865475      3.55079144102141
  H           2.06849580536142      4.13729534261214      2.89848752410416
  H           0.23542437274663      4.20536156830685      1.49497558961150
  H           1.35072184199007      2.23311593398258     -0.44668813643555
  Cu          1.90404644806735      2.49809997961309      0.90993960030837
