18
Coordinates from ORCA-job ./orca E -1967.188209258078
  C          -2.99374644517941      2.19347821289237      2.03174315791134
  C          -1.78257386989050      2.72412794806416      1.60157004563936
  C          -0.59128763786420      2.02616713660082      1.80418914738794
  C          -0.63225182119436      0.78517519040424      2.44173159789102
  C          -1.84134687560919      0.25328585033788      2.87382660264161
  C          -3.02451794297844      0.95761011932836      2.67007732775290
  H          -3.91247770244623      2.74103176589854      1.86400547923830
  H          -3.96729456872833      0.54125751890178      3.00130931406425
  H          -1.76134914753640      3.68443637851586      1.09922846309159
  H           0.28697741810815      0.23044013916613      2.59168234271712
  H          -1.86203522034417     -0.71273689102699      3.36211714947582
  C           0.71862438437692      2.62479092373694      1.37965857931857
  N           1.37717417909817      3.39448639043133      2.47965797927901
  H           1.50503312099205      2.78056589469959      3.28198588030472
  H           0.74100126521409      4.12522173619025      2.79550863718071
  H           0.59149252292601      3.29897845664629      0.53571506468259
  H           1.47717403432311      1.77670028931919      1.04864542850132
  Cu          3.09386430673314      4.20944293989200      2.05038780292053
