18
Coordinates from ORCA-job ./orca E -1967.141302510398
  C          -2.94772835832457      1.80109994586075      1.56913793507541
  C          -1.84177368278100      2.62361564446846      1.44450961141003
  C          -0.68163752493195      2.36531185813698      2.19153388021631
  C          -0.64737217238463      1.26306542551600      3.06045380121916
  C          -1.75756367756655      0.44738999331162      3.18119993894715
  C          -2.90700891668805      0.71237421866756      2.43621096076152
  H          -3.84026757690123      2.00525279886257      0.99325538592445
  H          -3.77053659158383      0.06738158003392      2.53363816477618
  H          -1.86189966367672      3.46911825981601      0.76864290745358
  H           0.23767232767332      1.03325132471572      3.63933951115104
  H          -1.73167297576820     -0.39904919084279      3.85419338065085
  C           0.42776981611464      3.27521426766237      2.01992974790167
  N           1.55715377187437      3.26933371208272      2.78893350707297
  H           1.64830348854178      2.61853148108896      3.55985285629208
  H           2.06357460462041      4.13964990292230      2.90544882448704
  H           0.24185957201828      4.19945829407722      1.48635824765058
  H           1.32159075467786      2.25015336893784     -0.43330467593879
  Cu          1.91199680508617      2.49330711468151      0.91370601494851
