18
Coordinates from ORCA-job ./orca E -1967.132828239415
  C          -2.95021805522136      1.82497682636328      1.59402322726765
  C          -1.82372954446691      2.61146682205622      1.41317296209271
  C          -0.64345037860540      2.32244388372553      2.10832992477132
  C          -0.60274446990294      1.22204504075952      2.97331201949364
  C          -1.73105794092870      0.43743487413096      3.14830721348538
  C          -2.90592294042193      0.73697689294326      2.46129696800450
  H          -3.86186994985818      2.05890839560799      1.06051017581614
  H          -3.78431261718508      0.12047631385758      2.60116535771420
  H          -1.85086892043245      3.45608032955435      0.73609625667809
  H           0.30498863525491      0.96095842531111      3.50288241530253
  H          -1.69594914683345     -0.41134300755613      3.81823733475995
  C           0.49408592848975      3.21473906431777      1.90845710960341
  N           1.52642831145862      3.29909448779645      2.82057214909175
  H           1.51772265732213      2.71237755419137      3.64415870069801
  H           1.98898277429769      4.19148613384984      2.93756896593751
  H           0.30954555911061      4.12257930371996      1.34993343538205
  H           1.10360415765230      2.35014804481744     -0.16195221948735
  Cu          2.02722594027059      2.40361061455302      0.99696800338801
