18
Coordinates from ORCA-job ./orca E -1967.143038667758
  C          -2.96413253381164      1.80775463345894      1.58228901622743
  C          -1.86748412480552      2.64388095907578      1.47281245007116
  C          -0.70370078869653      2.38364616984009      2.21687118676701
  C          -0.65881968306439      1.26701106926927      3.07004520738460
  C          -1.75995750591992      0.43958050668245      3.17524319914265
  C          -2.91137377212173      0.70574855189958      2.43163156770907
  H          -3.85854386262051      2.01121811503513      1.00928905740619
  H          -3.76801418034052      0.05000352364220      2.51753070629105
  H          -1.89562787987125      3.50122969787188      0.81248564429178
  H           0.22736168298620      1.03944838028396      3.64781269368772
  H          -1.72781221301297     -0.41736875705955      3.83437273436729
  C           0.39069563643188      3.30234739557829      2.05578005446061
  N           1.54787297047297      3.27646454578013      2.76969520417536
  H           1.67265622714672      2.61262407052343      3.52577144923012
  H           2.06999344709170      4.14013840623571      2.87199124444523
  H           0.20672196048619      4.22230500324932      1.51365535392481
  H           1.52348390820392      2.14379689805152     -0.49866244571095
  Cu          1.89914071144548      2.50463083058171      0.90442567612870
