18
Coordinates from ORCA-job ./orca E -1967.143509210352
  C          -2.97910943628628      1.81467708267325      1.59653140277861
  C          -1.88712075244761      2.65700303898536      1.49156729466174
  C          -0.71823121338697      2.39320856517838      2.22800996880091
  C          -0.66397624339592      1.26629610648289      3.06882786183690
  C          -1.76039822933315      0.43341759970817      3.16909971039180
  C          -2.91658811630639      0.70355983362884      2.43321224015256
  H          -3.87732309105140      2.02014732608004      1.03036257770575
  H          -3.76967582560718      0.04272561452141      2.51546376770517
  H          -1.92218483883985      3.52234189311074      0.84214849550147
  H           0.22598344423774      1.03724017362106      3.64006865724841
  H          -1.72211913779683     -0.43110604732491      3.81784174416471
  C           0.36756236833778      3.31742632070164      2.07237441227124
  N           1.53587046362964      3.28293989650777      2.75797736051136
  H           1.67583845063647      2.61400498964462      3.50753873681471
  H           2.06601725578794      4.14330864172405      2.85051961398250
  H           0.18415214016291      4.23367032742338      1.52359128199396
  H           1.67610543362886      2.07988035329509     -0.53020504748070
  Cu          1.90765732803028      2.50371828403812      0.89810992095880
