18
Coordinates from ORCA-job ./orca E -1967.163007847002
  C          -2.96715194114619      2.20714221596974      2.05718848262883
  C          -1.74994452040391      2.72142042649999      1.62595126325925
  C          -0.57119686341932      1.99642938995779      1.80433845188644
  C          -0.63113164116079      0.74405211561215      2.41689202490261
  C          -1.84763642250358      0.22631899881634      2.84791575262008
  C          -3.01740921523318      0.95840170243370      2.67010323148717
  H          -3.87628763504569      2.77615200782265      1.90964742153602
  H          -3.96553920741141      0.55490381179582      3.00201569915413
  H          -1.71433605610519      3.69024435207765      1.14067977113302
  H           0.27813544624749      0.16928108540907      2.55256078177228
  H          -1.88343186091453     -0.74854838317508      3.31742421278682
  C           0.75660039600128      2.56548766093421      1.37809203440325
  N           1.36441629468168      3.41948080593328      2.45600457178834
  H           1.46044164250161      2.86008585513191      3.30184877985012
  H           0.71348759539530      4.16412301315644      2.69552546309689
  H           0.63159191806027      3.20543250858184      0.50488789762274
  H           1.34887414914011      1.90884338201158      1.18559504441937
  Cu          3.09297792131653      4.21520905102959      2.04636911565126
