18
Coordinates from ORCA-job ./orca E -1967.143355237691
  C          -2.97287858008771      1.81195017139549      1.59046924528328
  C          -1.87920745443274      2.65208560655477      1.48413712158490
  C          -0.71231563954336      2.38961634995236      2.22365599097785
  C          -0.66183514918686      1.26669011973345      3.06940046614221
  C          -1.75994965060731      0.43573351517894      3.17115512856311
  C          -2.91414607582419      0.70427165673625      2.43196877709296
  H          -3.86949581675652      2.01651295471184      1.02139787404892
  H          -3.76857456653733      0.04532879579565      2.51545998694974
  H          -1.91151945823483      3.51436602600450      0.83050754574533
  H           0.22660903580635      1.03822486644950      3.64324863421064
  H          -1.72411556811443     -0.42595325970142      3.82383163854985
  C           0.37660925888593      3.31166641868617      2.06599429346380
  N           1.54116142607818      3.28060433220979      2.76243188355500
  H           1.67588562406130      2.61392584602169      3.51469737633670
  H           2.06864312107849      4.14208281973926      2.85806679750441
  H           0.19345185668535      4.22893880592884      1.51897852787860
  H           1.61176065913525      2.10455906541392     -0.51437736293811
  Cu          1.90237697759448      2.50385590918886      0.90201607505070
