18
Coordinates from ORCA-job ./orca E -1967.142089926352
  C          -2.95204202704782      1.80273270262564      1.57217680368353
  C          -1.84953656931286      2.63049910056857      1.45431380248504
  C          -0.68910126788878      2.37221799749702      2.20215634710404
  C          -0.65200271055498      1.26526852566856      3.06610392167967
  C          -1.75892463709211      0.44506121323394      3.18001653854211
  C          -2.90795634656389      0.70959418147104      2.43349506244522
  H          -3.84437035555146      2.00600462998768      0.99574045090035
  H          -3.76890072318011      0.06037714203490      2.52565439879512
  H          -1.87173240684171      3.47985911681794      0.78342189338817
  H           0.23245582466434      1.03681659715614      3.64632223984605
  H          -1.73153886084535     -0.40476174209815      3.84861517092554
  C           0.41515252740895      3.28493738824594      2.03427398784096
  N           1.55553000160006      3.27154477649211      2.78278155343858
  H           1.65957046199698      2.61554687200182      3.54807281742014
  H           2.06737119447711      4.13959377620110      2.89481819445006
  H           0.22933310441245      4.20795926575830      1.49828210955315
  H           1.38466866563386      2.21214210130548     -0.46219831205169
  Cu          1.90448412468540      2.49906635503174      0.90899301955373
