18
Coordinates from ORCA-job ./orca E -1967.122229355375
  C          -2.98155441599301      1.87568899893082      1.66485566092688
  C          -1.84273204672654      2.63034563995439      1.41582767809051
  C          -0.62664381442842      2.28332684762592      2.00754300441812
  C          -0.56086006236565      1.16319605774012      2.84032066558625
  C          -1.69984689437006      0.41070225496623      3.08613458898519
  C          -2.91259451703762      0.76554266736055      2.50009512142491
  H          -3.92197092911012      2.15553720670396      1.20838666109634
  H          -3.79922399827244      0.17541134602726      2.69223801589825
  H          -1.89497482425697      3.49515554789944      0.76589763756346
  H           0.37984678247526      0.86078352891139      3.28502193686095
  H          -1.64136975715764     -0.45697693676241      3.73014796027462
  C           0.55030223799715      3.13510922682600      1.74488268537593
  N           1.49189113866380      3.33138119299027      2.78455114516754
  H           1.31474700912936      2.84626329134610      3.65321992319929
  H           1.81172857427693      4.28156414734620      2.91279707411451
  H           0.34157724941386      4.03535241854277      1.18409963023046
  H           1.08119391269754      2.36843502755746      0.26996244823587
  Cu          2.33294435506488      2.27764153603273      1.16705816255007
