18
Coordinates from ORCA-job ./orca E -1967.128252597300
  C          -3.01780737484420      1.90838658180051      1.72254803508141
  C          -1.87888384361097      2.65070124190311      1.43443651379401
  C          -0.64128163139500      2.27018705406032      1.95569902437762
  C          -0.55543314922964      1.13007646070041      2.75952695459896
  C          -1.69381368267112      0.39153477956278      3.04683620465968
  C          -2.92781990680488      0.77951581415565      2.52943554528198
  H          -3.97449349818215      2.21395128673866      1.31925714395312
  H          -3.81439794651040      0.20043721617762      2.75310998405880
  H          -1.94914592545095      3.53275174194865      0.80985202636609
  H           0.40306832994673      0.80659701692361      3.14833194873539
  H          -1.61939001878705     -0.49124154600984      3.66845470486257
  C           0.54710453245459      3.09714655956508      1.65370970432838
  N           1.49083062034194      3.33263016447782      2.72904429526865
  H           1.21679431599729      2.90358340807244      3.60427773093779
  H           1.68739585580397      4.31611178571123      2.86740247941742
  H           0.32884507430173      3.99722499131348      1.09380894544061
  H           1.19933082626062      2.32926238294148      0.45613724603227
  Cu          2.62155742237983      2.26560305995602      1.36117151280425
