18
Coordinates from ORCA-job ./orca E -1967.176724863584
  C          -3.00507831381016      2.18545728655569      2.01892778948892
  C          -1.79681173120191      2.72409559734131      1.58974312681469
  C          -0.59993315153104      2.03953413802681      1.80508682413028
  C          -0.63194784905389      0.80425629680613      2.45452902269793
  C          -1.83768193686951      0.26534108340590      2.88601700276875
  C          -3.02691171745649      0.95602241183577      2.66930047445241
  H          -3.92812886667843      2.72249692099833      1.84131470296395
  H          -3.96717362595706      0.53348132173548      2.99980664201551
  H          -1.78223468847776      3.68007334596629      1.07918834477288
  H           0.29181984389121      0.25941478719274      2.61221824389511
  H          -1.85150678386160     -0.69624390235311      3.38319610220622
  C           0.70133835187035      2.65185376737351      1.38319616666738
  N           1.38472889109473      3.38137159754084      2.48970748830419
  H           1.52167946152123      2.74457360623358      3.27234158067215
  H           0.75940733664597      4.10799900584673      2.83696642796629
  H           0.57511803236043      3.33965772591056      0.55156991654789
  H           1.51509182687592      1.73940136477318      0.98764478939193
  Cu          3.10068492063843      4.19567364480906      2.05228535424230
