18
Coordinates from ORCA-job ./orca E -1967.135901487945
  C          -2.94508198040634      1.81318138538290      1.57931332068113
  C          -1.82492452644316      2.61191367312374      1.41931686680743
  C          -0.65382194165385      2.33689484011171      2.13765338942158
  C          -0.61844630942022      1.23940504591918      3.00812608701310
  C          -1.74120735309439      0.44370158073341      3.16291686648076
  C          -2.90499405192501      0.72774310426309      2.45033370074214
  H          -3.84837532362195      2.03436715754033      1.02663119866016
  H          -3.77859873857889      0.10105307171704      2.57387980546010
  H          -1.84718544409665      3.45374327357509      0.73870178984693
  H           0.27964925736505      0.99098957375894      3.55918449965006
  H          -1.71106386414043     -0.40183398793114      3.83708180287107
  C           0.47601134749295      3.23410759577805      1.94600750104546
  N           1.54377261303739      3.28522086835469      2.81234084078705
  H           1.57107227165202      2.67469873302765      3.61867985248558
  H           2.02101968955784      4.17008067438807      2.93206428122857
  H           0.29083040978659      4.14976634797533      1.39950546722131
  H           1.13532541256489      2.33301636325561     -0.25161948791169
  Cu          1.97847853192434      2.43641069902589      0.96292221750884
