18
Coordinates from ORCA-job ./orca E -1967.127491200329
  C          -2.95287075686400      1.83425913016193      1.60554424010562
  C          -1.81980342205336      2.60675721098144      1.40112633009936
  C          -0.63118737896966      2.30467705363242      2.07301510473302
  C          -0.58704048563456      1.20611167484782      2.93753322950497
  C          -1.72183618516657      0.43491685345646      3.13716559003743
  C          -2.90627555965502      0.74751197936168      2.47405193075252
  H          -3.87169444450934      2.07952851225852      1.08947730289953
  H          -3.78978422782000      0.14302895354612      2.63287039194861
  H          -1.85066598091771      3.45095079761850      0.72347612360758
  H           0.32903663639041      0.93523568893145      3.44810982021503
  H          -1.68318990697759     -0.41303097040215      3.80809719107149
  C           0.51954373715968      3.18752299747828      1.85831346481536
  N           1.51353132438666      3.30385116727748      2.82014839756390
  H           1.46105031010156      2.73633998532613      3.65456812462760
  H           1.94680582695908      4.20866952832585      2.94641946706897
  H           0.32720707676980      4.09660391258639      1.30603215823366
  H           1.03971850315035      2.40056418403477     -0.02347794524383
  Cu          2.09991493365050      2.37096134057635      1.02056907795854
