18
Coordinates from ORCA-job ./orca E -1967.124003896782
  C          -2.96096950195554      1.84748834574024      1.62322161800070
  C          -1.82425171355877      2.61093861604519      1.40047592651373
  C          -0.62610041643361      2.29340152022423      2.04560644057329
  C          -0.57548179968174      1.19023082589053      2.90242737274525
  C          -1.71365245041754      0.42838173013197      3.12141709272551
  C          -2.90821434687287      0.75564223442354      2.48447228864945
  H          -3.88742557375022      2.10502356750117      1.12700554713919
  H          -3.79425675106304      0.15886253632468      2.65771456544522
  H          -1.86158899353505      3.46013280898641      0.72929624174920
  H           0.34935367223947      0.90813479702260      3.39098401517951
  H          -1.66909005649819     -0.42392859505708      3.78654789806761
  C           0.53542197890707      3.16573719383000      1.81424748999342
  N           1.50381793034595      3.31225460930740      2.81113081823680
  H           1.41023463839519      2.76851530098114      3.65739306077810
  H           1.89954823597696      4.23287919064226      2.94284405766226
  H           0.33469258131398      4.07396630219661      1.26411165075889
  H           1.03147000104610      2.40479797869342      0.09438330303836
  Cu          2.17895256554211      2.34200103711501      1.05976061274278
