18
Coordinates from ORCA-job ./orca E -1967.125128665530
  C          -2.95755112588971      1.84237255021740      1.61621857371648
  C          -1.82194506448220      2.60879116806499      1.39999631682451
  C          -0.62742975533239      2.29706399680267      2.05544041730151
  C          -0.57940434346398      1.19591419211240      2.91552828556740
  C          -1.71657781243451      0.43095054559415      3.12756533983630
  C          -2.90736790953067      0.75283466246963      2.48073024295532
  H          -3.88115444983668      2.09538941650821      1.11247380686348
  H          -3.79271146957419      0.15359477814681      2.64894888557058
  H          -1.85663751471351      3.45583766265020      0.72601988238980
  H           0.34218726457665      0.91803783417267      3.41246616125676
  H          -1.67445578381105     -0.41945464913614      3.79524366969924
  C           0.52973509975068      3.17392419307923      1.83124817929193
  N           1.50638873168263      3.30948447889297      2.81588667724770
  H           1.42904440498724      2.75615330266908      3.65764368068494
  H           1.91823433594528      4.22350187076290      2.94529526786929
  H           0.33270334771851      4.08201149129149      1.27943907749268
  H           1.03219874909298      2.40454208069091      0.04922509931840
  Cu          2.14720329531521      2.35351042500977      1.04367043611297
