18
Coordinates from ORCA-job ./orca E -1967.141073674865
  C          -2.94713883633140      1.80143554358563      1.56915087377735
  C          -1.84027723698335      2.62251882774896      1.44250596253090
  C          -0.67974862801739      2.36357941919108      2.18842562419844
  C          -0.64571257849926      1.26190659749012      3.05783383996867
  C          -1.75670748778669      0.44743829700777      3.18051660458521
  C          -2.90677375842374      0.71326428839341      2.43693616265104
  H          -3.84014393705291      2.00633347647383      0.99423635764641
  H          -3.77097242218292      0.06938968910906      2.53584733706753
  H          -1.86027811719663      3.46754645891442      0.76602500939702
  H           0.23994680299926      1.03124715831771      3.63546969545060
  H          -1.73079208267122     -0.39866041103891      3.85394319173323
  C           0.43076052120149      3.27284178813583      2.01599501459998
  N           1.55684371590195      3.26990180159019      2.79084046891457
  H           1.64445393634468      2.62123565103222      3.56389395613443
  H           2.06180056846505      4.14094594674883      2.90774672964693
  H           0.24500992171944      4.19662838394604      1.48165905025618
  H           1.30742398178903      2.25634584028742     -0.42417343499178
  Cu          1.91476563672473      2.49056124306611      0.91618755643303
