18
Coordinates from ORCA-job ./orca E -1967.142565524354
  C          -2.95636274837498      1.80452145143115      1.57575352970584
  C          -1.85616216359209      2.63564972367877      1.46175846259259
  C          -0.69494706238560      2.37696515632696      2.20907894197067
  C          -0.65513705325955      1.26624381897554      3.06887654439880
  C          -1.75975576828301      0.44299695923907      3.17865318749982
  C          -2.90930865558716      0.70797734377497      2.43255632763020
  H          -3.84909791926204      2.00765876761067      0.99995812079343
  H          -3.76851333844404      0.05603614661620      2.52170102409788
  H          -1.88030254749107      3.48796926078801      0.79472902880294
  H           0.22961825242109      1.03810071385497      3.64869676329887
  H          -1.73072564494063     -0.40967356973454      3.84350870947191
  C           0.40552664315557      3.29194457158477      2.04372916491571
  N           1.55306653545297      3.27353181060078      2.77783020819919
  H           1.66584364688591      2.61391241735170      3.53900927611040
  H           2.06850728760903      4.14006535098355      2.88659159366855
  H           0.21962334220575      4.21413385431576      1.50618148967339
  H           1.43887431887595      2.18376725452443     -0.48157485311701
  Cu          1.90171287501399      2.50265896807706      0.90600248028661
