18
Coordinates from ORCA-job ./orca E -1967.143560809162
  C          -2.98421545512235      1.81731099271595      1.60140979895948
  C          -1.89380956996419      2.66169162514289      1.49793580399202
  C          -0.72289660098184      2.39635399906689      2.23125845257111
  C          -0.66531097987479      1.26580675402646      3.06762604062103
  C          -1.76011924634219      0.43108418851318      3.16619032765017
  C          -2.91818066186701      0.70294048432103      2.43346889686521
  H          -3.88380343791974      2.02350326806306      1.03772633220031
  H          -3.77018156970100      0.04057948795628      2.51474596980101
  H          -1.93123437140344      3.52970255106870      0.85225391875578
  H           0.22624289210738      1.03577712057508      3.63592684507395
  H          -1.71958559566941     -0.43628334323505      3.81095262733554
  C           0.35981134785984      3.32239750467355      2.07733889002651
  N           1.53209608536576      3.28557930437496      2.75353896772577
  H           1.67741387763678      2.61577699599710      3.50152419175588
  H           2.06490191654623      4.14490290031435      2.84197693254889
  H           0.17675675888888      4.23683540580034      1.52543547845687
  H           1.72356267216496      2.05871101263636     -0.53327483241255
  Cu          1.91101193827616      2.50178974798876      0.89700535807293
