18
Coordinates from ORCA-job ./orca E -1967.128468823127
  C          -2.95149794299154      1.83150582882174      1.60200235853913
  C          -1.81965939746987      2.60677306868290      1.40247876505877
  C          -0.63313449425737      2.30810292818255      2.08017873815689
  C          -0.59020471532514      1.20998236284025      2.94578407451025
  C          -1.72384283540425      0.43610100369280      3.14036366441032
  C          -2.90591608210111      0.74527271605842      2.47128481273929
  H          -3.86853942857420      2.07388094380197      1.08146846778630
  H          -3.78847895066591      0.13839360149899      2.62615013536231
  H          -1.84932191956167      3.45031463383623      0.72399277579738
  H           0.32385878406729      0.94162422095924      3.46116250452777
  H          -1.68628845315148     -0.41135950870186      3.81194218652436
  C           0.51513018131935      3.19293041258550      1.86867958234871
  N           1.51658034196454      3.30197973642524      2.82094437727290
  H           1.47323166918958      2.72990398929944      3.65290964519483
  H           1.95729321357902      4.20359691580728      2.94547989043043
  H           0.32465218494764      4.10211212610785      1.31571501097413
  H           1.04564582460989      2.39643121469575     -0.05099931746476
  Cu          2.08295201982547      2.37691380540517      1.01350232783039
