18
Coordinates from ORCA-job ./orca E -1967.144356425337
  C          -2.96462642378170      2.20746598266112      2.05993265151057
  C          -1.74730424505239      2.72115710966904      1.62851422194688
  C          -0.56951690370282      1.99430054294289      1.80426369871668
  C          -0.63021689196842      0.74058710812038      2.41406761933923
  C          -1.84703348121944      0.22323711485184      2.84502829045266
  C          -3.01591822520319      0.95728165904484      2.67001654646869
  H          -3.87322264097792      2.77791455949932      1.91467733493101
  H          -3.96427962240010      0.55434163299649      3.00195981520584
  H          -1.71095388917083      3.69093247776760      1.14513287713742
  H           0.27837371685201      0.16440687705998      2.54835011985900
  H          -1.88363850622086     -0.75257539693894      3.31251273271656
  C           0.76048116972380      2.55939386526436      1.37810235574959
  N           1.36344625272326      3.42238480733158      2.45282966578782
  H           1.44930164763454      2.87111882617986      3.30512981031251
  H           0.71492100620922      4.17299712970881      2.67900760821480
  H           0.63547008425898      3.19562955892140      0.50214569665525
  H           1.32738964023755      1.93026915167984      1.20191528294451
  Cu          3.09978731205876      4.20361699323823      2.04945367204957
