18
Coordinates from ORCA-job ./orca E -1967.122102137031
  C          -2.97511902199019      1.86620412207270      1.65050536243168
  C          -1.83679073014334      2.62335092133855      1.40924240225444
  C          -0.62612934174991      2.28611954268490      2.01817826585943
  C          -0.56522599451897      1.17245325594855      2.85986492191923
  C          -1.70427929736615      0.41742491611835      3.09817003023207
  C          -2.91140158491446      0.76279011803716      2.49540444562827
  H          -3.91119689044265      2.13853652217318      1.18080359346556
  H          -3.79796844441138      0.17084510442930      2.68214135678238
  H          -1.88437958945235      3.48249509126596      0.75146366511851
  H           0.37056043529181      0.87626319295020      3.31867314555560
  H          -1.65010573282299     -0.44454475027197      3.75013891322368
  C           0.54731248917780      3.14308392770466      1.76302435570677
  N           1.49830389101364      3.32258080727099      2.79068023327171
  H           1.34588076264884      2.81820818859569      3.65283901994508
  H           1.83670849053368      4.26542895771672      2.92457201068914
  H           0.33879086028019      4.04835360565895      1.21059539795873
  H           1.05657782174732      2.38694289341598      0.22838283255038
  Cu          2.29092187711940      2.29792358288935      1.12836004740650
