18
Coordinates from ORCA-job ./orca E -1967.137083661871
  C          -2.94274709894099      1.80786762630728      1.57310202694782
  C          -1.82552131287086      2.61189293088300      1.42173563111285
  C          -0.65848745087273      2.34292299893581      2.14991238486857
  C          -0.62540149918053      1.24702829493007      3.02321100572489
  C          -1.74564508105238      0.44672547133615      3.16978629823047
  C          -2.90444718280110      0.72390388511091      2.44614358588208
  H          -3.84231712452210      2.02338741537771      1.01222409731776
  H          -3.77590999383206      0.09297095409207      2.56305417382529
  H          -1.84570909164582      3.45242491532024      0.73949655796961
  H           0.26840576520864      1.00487338631448      3.58375848273949
  H          -1.71785782330738     -0.39698420419894      3.84629575881075
  C           0.46798914653968      3.24218542233641      1.96219783473923
  N           1.55039460465459      3.27809406637844      2.80797630977456
  H           1.59204763311286      2.65640834339499      3.60540520756777
  H           2.03407284198103      4.15942702789386      2.92975032741015
  H           0.28224635623868      4.16172354691154      1.42198477254319
  H           1.15176702469500      2.32832069828855     -0.29011739980431
  Cu          1.95958028659563      2.45128722038704      0.94712294433943
