18
Coordinates from ORCA-job ./orca E -1967.123317213776
  C          -2.96339338859457      1.85070627417157      1.62777064181534
  C          -1.82615510214150      2.61256924210537      1.40107094569409
  C          -0.62565942141155      2.29146275929135      2.03953226343145
  C          -0.57328744558834      1.18697031916509      2.89421021911348
  C          -1.71191705838848      0.42684608679716      3.11751188744914
  C          -2.90884058182550      0.75727225747475      2.48677917466130
  H          -3.89163345473664      2.11091821662184      1.13626371894518
  H          -3.79515326731666      0.16176828911286      2.66301196374844
  H          -1.86528543207904      3.46316799224290      0.73175076978565
  H           0.35357298087682      0.90228258967246      3.37744721492227
  H          -1.66566352908612     -0.42672723510229      3.78094297463454
  C           0.53887181067486      3.16044823458059      1.80288033996348
  N           1.50324811299624      3.31331315696127      2.80700143094980
  H           1.39840395243059      2.77607504102939      3.65606241079577
  H           1.88695971379433      4.23864500226302      2.94072689432957
  H           0.33537609458860      4.06928822812322      1.25476609940545
  H           1.03166027208712      2.40523923548296      0.12483270789033
  Cu          2.20135574372010      2.33421431000579      1.07047834246394
