18
Coordinates from ORCA-job ./orca E -1967.184191986867
  C          -2.99842744488607      2.19021104056890      2.02648513700993
  C          -1.78841766365098      2.72416712490110      1.59680085012189
  C          -0.59481379580889      2.03165464569948      1.80457171975957
  C          -0.63213179584969      0.79295808530751      2.44694050249962
  C          -1.83985508097466      0.25818219745061      2.87878928898498
  C          -3.02553255259741      0.95692495673895      2.66970712702111
  H          -3.91895454797363      2.73345464150038      1.85466331924111
  H          -3.96728921169172      0.53800465631554      3.00059038083668
  H          -1.76991747095066      3.68273716514979      1.09113269441400
  H           0.28897223090696      0.24225232030761      2.60005183606851
  H          -1.85770759986383     -0.70604380385541      3.37071749448662
  C           0.71168570303861      2.63569372268053      1.38088089399036
  N           1.38036802485283      3.38914286224471      2.48373785118168
  H           1.51218324228864      2.76584230201501      3.27810189001379
  H           0.74856511762834      4.11827259956921      2.81256330638039
  H           0.58480119343716      3.31555866918637      0.54201700722434
  H           1.49222619997950      1.76149494466020      1.02428865643089
  Cu          3.09670545211592      4.20395186955826      2.05100004433326
