18
Coordinates from ORCA-job ./orca E -1967.187906576608
  C          -2.97393786936796      2.20540909817746      2.05243744739913
  C          -1.75804284493016      2.72302873783558      1.62106514418325
  C          -0.57647348360065      2.00357935649912      1.80406499817153
  C          -0.63239432361219      0.75356359796091      2.42192267655857
  C          -1.84722938866824      0.23296384242036      2.85358384901842
  C          -3.01993758721195      0.95934233548275      2.67072120928563
  H          -3.88512012939713      2.77008452599013      1.90094408816001
  H          -3.96688290760782      0.55316407618241      3.00273775432434
  H          -1.72558721734581      3.69020273382147      1.13236492478141
  H           0.27906991810056      0.18296080091805      2.55986983418786
  H          -1.87974303677897     -0.74017804123845      3.32688727345151
  C           0.74647459165002      2.58109119001129      1.37830182015586
  N           1.36515395633185      3.41552072929826      2.46240457360135
  H           1.47275933807246      2.84196625864610      3.29717405951342
  H           0.71456751099796      4.15408897135518      2.72259010951578
  H           0.62128279507210      3.22882193461771      0.51154730385941
  H           1.40175688635062      1.85477943685152      1.14786452588506
  Cu          3.08674379194576      4.22407041516882      2.04655840794609
