18
Coordinates from ORCA-job ./orca E -1967.143302214567
  C          -2.97018937839098      1.81059435227870      1.58817898152815
  C          -1.87524320997306      2.64897921994186      1.48033094497714
  C          -0.70951534014487      2.38726346872690      2.22146530947508
  C          -0.66098060378809      1.26654632024651      3.06974789596743
  C          -1.76037122885421      0.43710783367214      3.17310040451911
  C          -2.91371477369235      0.70502764605362      2.43264282106953
  H          -3.86606796263188      2.01494558376249      1.01784525639115
  H          -3.76908720447209      0.04746666182686      2.51727553642486
  H          -1.90600617467643      3.50938423499885      0.82413750303636
  H           0.22673072146398      1.03801624699661      3.64474253287205
  H          -1.72580780787960     -0.42286147940298      3.82812754779290
  C           0.38157516674717      3.30806277776195      2.06243555959102
  N           1.54300788842530      3.27918720829333      2.76547443646165
  H           1.67356686145720      2.61323592805878      3.51898774561455
  H           2.06769830719464      4.14189032549030      2.86453004698369
  H           0.19710609279992      4.22670951488295      1.51815240151844
  H           1.58676423268314      2.11769312113217     -0.51589027156984
  Cu          1.90299441373227      2.50521103527882      0.90175534734658
