18
Coordinates from ORCA-job ./orca E -1967.039627734311
  C          -2.95962406462998      2.20605340729841      2.06080972460675
  C          -1.74183038584672      2.71860717661859      1.62962208606638
  C          -0.56528541925849      1.98979909289135      1.80427621249094
  C          -0.62716515066027      0.73526618525630      2.41209219069921
  C          -1.84470781356472      0.21876189062613      2.84234376215733
  C          -3.01247269728130      0.95485349745610      2.66892141204123
  H          -3.86749560285811      2.77799253499582      1.91688879583519
  H          -3.96128943827156      0.55288675123904      3.00074794165512
  H          -1.70418406072480      3.68886063284140      1.14733486916067
  H           0.28072476330625      0.15779723988278      2.54617264353640
  H          -1.88256372701302     -0.75759186941878      3.30858923321433
  C           0.76699490718876      2.54855656518703      1.37832865753012
  N           1.36611777523300      3.42110931177782      2.44735457304878
  H           1.43708129866337      2.88053631641185      3.30793931474016
  H           0.72355312931562      4.18137718248699      2.65607605084828
  H           0.64427903876439      3.17784612285124      0.49772857093301
  H           1.25527921782473      2.00424149790158      1.23576449761228
  Cu          3.11504822981336      4.17750646369498      2.05204946382239
