18
Coordinates from ORCA-job ./orca E -1967.123596325061
  C          -2.99338395917751      1.88898274050399      1.68657309382048
  C          -1.85411700099161      2.63926593900009      1.42391832672182
  C          -0.62974217994138      2.27838752794255      1.98883923961701
  C          -0.55630708113936      1.14967642447617      2.80941193413836
  C          -1.69540224780316      0.40230621723055      3.06975590950269
  C          -2.91652580585221      0.77060558274460      2.50964150639825
  H          -3.94016402218070      2.17922510535674      1.25010219468508
  H          -3.80335509922619      0.18432605423795      2.71245435673987
  H          -1.91328189508629      3.51136902545098      0.78441091437043
  H           0.39159829651017      0.83872289130976      3.23262831975514
  H          -1.63076242260965     -0.47208402295883      3.70409467798256
  C           0.55292065743875      3.12048074078666      1.71148966797405
  N           1.49039156325141      3.33569224255712      2.76717283383295
  H           1.26958222129925      2.87861532604027      3.64166155421873
  H           1.76491672686906      4.30044414370079      2.89505074033166
  H           0.33928846933787      4.01884465831119      1.14865913676051
  H           1.12083053975780      2.35242834518223      0.34774519371580
  Cu          2.42597323954409      2.25717105812633      1.22943039943372
