18
Coordinates from ORCA-job ./orca E -1967.139461394623
  C          -2.94318850986862      1.80212977740060      1.56766016122122
  C          -1.83198539853657      2.61632649411112      1.43150578727857
  C          -0.66994955894743      2.35481986729840      2.17259106789098
  C          -0.63777198920673      1.25726772870308      3.04583765721339
  C          -1.75273644129700      0.44859627120817      3.17785156236397
  C          -2.90508342400708      0.71731422792086      2.43973024336316
  H          -3.83789206253498      2.01001367908455      0.99636398795204
  H          -3.77238576235263      0.07874999886140      2.54563805591017
  H          -1.85093670979814      3.45816367594503      0.75095481900867
  H           0.25021895212275      1.02321111404361      3.61864948191372
  H          -1.72715717459456     -0.39511546912557      3.85435159606840
  C           0.44746394305841      3.25957928913427      1.99384344610291
  N           1.55778635032265      3.27062588730733      2.79787422246318
  H           1.62721941897972      2.63212623038387      3.58064922040151
  H           2.05415096409549      4.14566713243439      2.91831618316755
  H           0.26178136683848      4.18272372380560      1.45887910163858
  H           1.22533870129095      2.29487304164025     -0.36549496694354
  Cu          1.92758733443542      2.47738732984271      0.92783837298519
