18
Coordinates from ORCA-job ./orca E -1967.126066752487
  C          -2.95537047428924      1.83881108676236      1.61143946465775
  C          -1.82073624946366      2.60764068782328      1.40003854407650
  C          -0.62874627464973      2.30003351105773      2.06257588036387
  C          -0.58245693789902      1.20018131676154      2.92482338227275
  C          -1.71874436419418      0.43278219372287      3.13181616387892
  C          -2.90683223467399      0.75071461890383      2.47797176605693
  H          -3.87692968918383      2.08849424479823      1.10236248278373
  H          -3.79150641049935      0.14943618252325      2.64238698057055
  H          -1.85371583633207      3.45328030704969      0.72424029824581
  H           0.33683659199833      0.92533316681059      3.42758999966674
  H          -1.67821737383260     -0.41639219455493      3.80112357247835
  C           0.52561488364438      3.17953270537150      1.84262682918613
  N           1.50941767260663      3.30691095535742      2.81793472684576
  H           1.44244064470120      2.74745308318495      3.65660881918667
  H           1.93051016210091      4.21697824326949      2.94632586009050
  H           0.33055399531026      4.08791709676182      1.29047905080249
  H           1.03316385827229      2.40452979698246      0.01950057172181
  Cu          2.12717803638393      2.36082299741329      1.03319560711405
