18
Coordinates from ORCA-job ./orca E -1967.156077046486
  C          -3.04542552058769      2.13654935736111      1.94189292243078
  C          -1.84716605618843      2.71014942907761      1.52799096297560
  C          -0.62959749112633      2.09489964758542      1.81990775380018
  C          -0.62972430634486      0.89287707100500      2.53183941883823
  C          -1.82400624439247      0.32174105567075      2.94942672585903
  C          -3.03556746861090      0.94318101503118      2.65474080900603
  H          -3.98418421745281      2.62102175380758      1.70539176083051
  H          -3.96697420415423      0.49372993240146      2.97454156679008
  H          -1.85657232714461      3.64024502354899      0.97210984077090
  H           0.30987239693744      0.39614849713486      2.74598392228697
  H          -1.81272290092667     -0.61297381856240      3.49543855470150
  C           0.64941319339526      2.74206047654360      1.39910009473229
  N           1.44768676228813      3.29380923401051      2.52117402201445
  H           1.63411777289475      2.55673604315548      3.19813394957564
  H           0.87864648616274      3.98074305207944      3.01618507154154
  H           0.49651939660440      3.51959726550435      0.65792653559810
  H           1.48890478649998      1.78370182544257      0.76079957013373
  Cu          3.14923994214670      4.12024313920136      2.04045651811328
