18
Coordinates from ORCA-job ./orca E -1967.126982184022
  C          -3.01039679787138      1.90266368116249      1.71142961929586
  C          -1.87113309016667      2.64703141017002      1.43068154148223
  C          -0.63740588530185      2.27213990000116      1.96505778940711
  C          -0.55523317983295      1.13557193880268      2.77405488629279
  C          -1.69417458666380      0.39501311210436      3.05397194605301
  C          -2.92446713568623      0.77735154927371      2.52378965306710
  H          -3.96417940102938      2.20369979882740      1.29801436702092
  H          -3.81139616153663      0.19664571834821      2.74174386235540
  H          -1.93797239028534      3.52595616162178      0.80133408597258
  H           0.40037856837412      0.81589432258227      3.17290963990959
  H          -1.62291401734835     -0.48490905886081      3.67996010123635
  C           0.54967825633343      3.10333022686213      1.67016329211695
  N           1.49225914760637      3.33226603964853      2.74015570387299
  H           1.23049729733455      2.89587476946761      3.61505733023081
  H           1.70697080518424      4.31177919110083      2.87706718961951
  H           0.33122710115718      4.00370983059145      1.11118854852571
  H           1.17546688402541      2.33856339674346      0.43091139689216
  Cu          2.56525458570761      2.26187801155174      1.31554904664794
