18
Coordinates from ORCA-job ./orca E -1967.142939619627
  C          -2.96146795113960      1.80677424947370      1.58020169205840
  C          -1.86377199331162      2.64148801683291      1.46987136773210
  C          -0.70115192247212      2.38189554451179      2.21552347377143
  C          -0.65803397106781      1.26707579829727      3.07069952320233
  C          -1.76019597966099      0.44073486330398      3.17672068570873
  C          -2.91070898066427      0.70635927244233      2.43177517799400
  H          -3.85503687323946      2.00997978326281      1.00577869235109
  H          -3.76801783759517      0.05153653224100      2.51805783768886
  H          -1.89037668139122      3.49709793281676      0.80719475271303
  H           0.22757396197057      1.03902047458360      3.64918847174489
  H          -1.72904241146660     -0.41508683653581      3.83737607184894
  C           0.39551736583866      3.29903846954883      2.05254758584196
  N           1.54971401715295      3.27571576573795      2.77259755514896
  H           1.67052026791355      2.61324312584322      3.53036430348478
  H           2.06931527734903      4.14050948122020      2.87720816177176
  H           0.21013969678345      4.21987614243006      1.51238579742936
  H           1.49741922993371      2.15493016775232     -0.49830584920219
  Cu          1.90006478506701      2.50427121623689      0.90385469871142
