18
Coordinates from ORCA-job ./orca E -1967.190115200358
  C          -2.97499179058771      2.20535656378643      2.05225607604755
  C          -1.75935255115287      2.72355957428668      1.62082960338408
  C          -0.57741008136006      2.00481224095177      1.80407884090507
  C          -0.63266962301984      0.75493128763966      2.42229385087829
  C          -1.84721559176551      0.23379990093325      2.85407415003590
  C          -3.02033794258203      0.95944800516867      2.67088083490879
  H          -3.88647135414998      2.76947958115806      1.90052231228898
  H          -3.96708372212793      0.55279791905820      3.00288792717670
  H          -1.72739250699866      3.69065704482306      1.13193859826212
  H           0.27910049077353      0.18487576824771      2.56032023520720
  H          -1.87921885134636     -0.73924814236959      3.32760649285864
  C           0.74490617067751      2.58345649131926      1.37849278028265
  N           1.36467947753811      3.41571752438712      2.46325908436810
  H           1.47319451305638      2.84071296015319      3.29689768237241
  H           0.71423517981289      4.15380179813257      2.72538566221680
  H           0.61962947719488      3.23204162748886      0.51253536090898
  H           1.41305563528889      1.84308903746710      1.14172848994664
  Cu          3.08580307074920      4.22517081736668      2.04705201794977
