18
Coordinates from ORCA-job ./orca E -1967.143141395527
  C          -2.96584113392897      1.80859177871120      1.58415490706292
  C          -1.86945440555161      2.64503592047460      1.47483339743461
  C          -0.70525566759132      2.38440354262123      2.21819074362528
  C          -0.65944671446857      1.26672130579989      3.07004016714929
  C          -1.76029089290659      0.43895553677452      3.17497995938608
  C          -2.91226900232475      0.70573653610914      2.43236265496407
  H          -3.86062956534598      2.01241083075778      1.01188659558824
  H          -3.76870136600873      0.04969882251924      2.51808594169902
  H          -1.89817782669863      3.50303819838669      0.81538503321222
  H           0.22717404468552      1.03857498350393      3.64690289144735
  H          -1.72750388362834     -0.41876491529777      3.83307253972966
  C           0.38856509022464      3.30350409243678      2.05740406418857
  N           1.54631893932131      3.27729276410149      2.76910774328641
  H           1.67196570825687      2.61288342739882      3.52462219982039
  H           2.06841588006861      4.14106392933087      2.87125075449494
  H           0.20370811581636      4.22337240754789      1.51536041444385
  H           1.54243508111338      2.13670706167866     -0.50758981933858
  Cu          1.90144759896688      2.50523377714489      0.90298981180552
