18
Coordinates from ORCA-job ./orca E -1967.139160414202
  C          -2.94332874769487      1.80370524844657      1.56927103469728
  C          -1.83085478861098      2.61581707047218      1.43004215038009
  C          -0.66779457114843      2.35257659955972      2.16841248910881
  C          -0.63519394091220      1.25496023074366      3.04118184118876
  C          -1.75122033762495      0.44799795132809      3.17607874944526
  C          -2.90505521613411      0.71880336000325      2.44120928146960
  H          -3.83910472416429      2.01332662739696      1.00027471121089
  H          -3.77323374381146      0.08179854728898      2.54927764338811
  H          -1.85015229804082      3.45757479118328      0.74939173052087
  H           0.25420460826394      1.01883464274766      3.61101116025744
  H          -1.72502930935353     -0.39601746101525      3.85218496589866
  C           0.45125440134739      3.25640449391679      1.98826744155502
  N           1.55577551115524      3.27289824329438      2.80085229944869
  H           1.61934096626289      2.63793635579988      3.58694669726778
  H           2.04932844030953      4.14940836103137      2.92179303451206
  H           0.26482960236085      4.17848467180224      1.45178144116483
  H           1.21350270729747      2.29813050479884     -0.35623962730026
  Cu          1.93519144049846      2.47181976120105      0.93130295578577
