18
Coordinates from ORCA-job ./orca E -1967.192732294253
  C          -2.98428374019498      2.19973271084319      2.04206002190595
  C          -1.77083689873169      2.72382749892839      1.61092277158359
  C          -0.58425310407585      2.01522923251692      1.80364578894353
  C          -0.63245848298755      0.76982639927786      2.43171322887121
  C          -1.84429647422747      0.24361143177336      2.86404039831951
  C          -3.02240599804161      0.95887251633384      2.67073567782600
  H          -3.89935461371379      2.75579533865899      1.88244868484266
  H          -3.96718763091457      0.54761192508742      3.00263550564400
  H          -1.74415020412220      3.68751606393692      1.11518561502853
  H           0.28301140368355      0.20725060527411      2.57558860681980
  H          -1.87070247197309     -0.72590017136029      3.34510421414703
  C           0.73214123928715      2.60350959879345      1.37817722149472
  N           1.37074109751305      3.40491355227975      2.47153466781203
  H           1.48987423600733      2.80996060811803      3.28945680295146
  H           0.72651231652617      4.13878990958415      2.76112697209990
  H           0.60517642047213      3.26578921987014      0.52379293425119
  H           1.44619483040371      1.80893221726755      1.09568960027947
  Cu          3.08873807509016      4.21919134281493      2.04918128717811
