18
Coordinates from ORCA-job ./orca E -1967.142416728823
  C          -2.95430775786028      1.80296911656402      1.57363065123879
  C          -1.85352039366965      2.63328085348565      1.45868650074681
  C          -0.69299107281462      2.37548912505538      2.20700954639215
  C          -0.65455380889808      1.26676806426292      3.06911097680663
  C          -1.75984115277446      0.44436743465368      3.18016563557794
  C          -2.90864181334608      0.70818939004414      2.43274698505645
  H          -3.84654921109308      2.00550109451158      0.99682554995321
  H          -3.76831556166334      0.05699219470549      2.52275664182730
  H          -1.87674401942699      3.48417992479728      0.78980385223265
  H           0.22961568089636      1.03961790422893      3.65023850182916
  H          -1.73182030619439     -0.40661009074776      3.84724304134103
  C           0.40886874244872      3.28994126716861      2.04122369599859
  N           1.55408689650335      3.27145459994573      2.77932402936680
  H           1.66408802683945      2.61180174824562      3.54079293913143
  H           2.06915491981031      4.13793945130207      2.88986263499405
  H           0.22373428549540      4.21322265775447      1.50535118631979
  H           1.41852835384020      2.19704818289597     -0.47706878166226
  Cu          1.90166819190726      2.50230708112600      0.90533641284930
