18
Coordinates from ORCA-job ./orca E -1967.102925219759
  C          -2.96215983232367      2.20676322166012      2.05995324707013
  C          -1.74449615158738      2.71968923219685      1.62869577365699
  C          -0.56733477596422      1.99186792887316      1.80427338710130
  C          -0.62882057759561      0.73793916108823      2.41344691237093
  C          -1.84607714407743      0.22123006587305      2.84406064885112
  C          -3.01436392115493      0.95628395771064      2.66945892534975
  H          -3.87035127125662      2.77794039588648      1.91500739542830
  H          -3.96301163416828      0.55397469306668      3.00135358459705
  H          -1.70740171438996      3.68953409319779      1.14554337069437
  H           0.27937727001508      0.16107931459165      2.54786949849187
  H          -1.88340432184113     -0.75470089750255      3.31123609076032
  C           0.76383428925993      2.55400388848537      1.37796884973278
  N           1.36519285526891      3.42117143885434      2.45041262079109
  H           1.44528098197061      2.87425250891511      3.30612274008739
  H           0.71888569677441      4.17552833160657      2.66962458413750
  H           0.63957701222802      3.18763224014886      0.50013982244861
  H           1.29136798538863      1.96739858142106      1.21788320065240
  Cu          3.10636525345413      4.19287184392523      2.04998934777669
