18
Coordinates from ORCA-job ./orca E -1967.125607926909
  C          -2.95642800479121      1.84050246271947      1.61371473883097
  C          -1.82130282286960      2.60810710157594      1.39990095163349
  C          -0.62808280863827      2.29853785277913      2.05901692068585
  C          -0.58094994787644      1.19811884877956      2.92027137471252
  C          -1.71769782509191      0.43193201971565      3.12977723797343
  C          -2.90710741286236      0.75175982467802      2.47934885292250
  H          -3.87899264473871      2.09180470319525      1.10724018303051
  H          -3.79212763492322      0.15151899881240      2.64568081273670
  H          -1.85509854752302      3.45438794723138      0.72492766759239
  H           0.33943876827148      0.92178309235878      3.42025074385405
  H          -1.67638683916449     -0.41779056137286      3.79835657512215
  C           0.52767375758003      3.17676024111501      1.83700288765262
  N           1.50786434788280      3.30812906476764      2.81699816795812
  H           1.43597486061701      2.75153567796467      3.65711952770627
  H           1.92457576470449      4.22006910261716      2.94589569971182
  H           0.33169516724567      4.08511205947536      1.28518837223307
  H           1.03245369826871      2.40481296961636      0.03424959920957
  Cu          2.13695812390929      2.35737859397043      1.03809968643326
