18
Coordinates from ORCA-job ./orca E -1967.143215594738
  C          -2.96843080819413      1.80978266219328      1.58628861497795
  C          -1.87323800484327      2.64787476751850      1.47834831864265
  C          -0.70795382601974      2.38656786967019      2.22023751870361
  C          -0.66034778676378      1.26686037348286      3.06981143277625
  C          -1.76000251925633      0.43770450720168      3.17332001772561
  C          -2.91276551601224      0.70501921695076      2.43183498783216
  H          -3.86391422938237      2.01377854190027      1.01519364441690
  H          -3.76833068695000      0.04771853724428      2.51657768992938
  H          -1.90341465048004      3.50764061024310      0.82128946837573
  H           0.22692103522513      1.03887349965877      3.64570237510935
  H          -1.72606874933291     -0.42154984920862      3.82932507485028
  C           0.38372478773937      3.30693933647996      2.06087757201241
  N           1.54460038459909      3.27844126462193      2.76613615380437
  H           1.67431799640051      2.61312062755610      3.52027908656967
  H           2.06934815424771      4.14104419064643      2.86526819033342
  H           0.20015019009143      4.22562358375011      1.51641857950146
  H           1.56735784143309      2.12446861067340     -0.50719578731483
  Cu          1.90050638749855      2.50455164941685      0.90332706175351
