18
Coordinates from ORCA-job ./orca E -1967.122714117963
  C          -2.98697276645439      1.88190687013932      1.67487783568268
  C          -1.84796341357746      2.63471261474035      1.41975854139013
  C          -0.62796035925736      2.28123666539535      1.99903558762931
  C          -0.55858202391593      1.15708623051322      2.82613203354167
  C          -1.69757136577160      0.40676374339938      3.07839756925645
  C          -2.91425139244993      0.76775119295753      2.50422599378528
  H          -3.93038624450154      2.16656943790562      1.22762378699800
  H          -3.80090888562462      0.17917360496945      2.70100000531469
  H          -1.90352236598102      3.50300587618580      0.77476763139457
  H           0.38552584217582      0.85073379121355      3.26093276620562
  H          -1.63612809775837     -0.46417522804809      3.71774804315417
  C           0.55190232946002      3.12828974844216      1.72912887392233
  N           1.49135699979956      3.33357134891455      2.77639351248496
  H           1.29323285400039      2.86211332675515      3.64830856403582
  H           1.79014325117771      4.29078621995836      2.90443059846036
  H           0.34071350198545      4.02766117998454      1.16748268996139
  H           1.09829101027672      2.36126970427416      0.30780386146124
  Cu          2.37554112641684      2.26600367229876      1.19499210532046
