18
Coordinates from ORCA-job ./orca E -1967.139764433167
  C          -2.94436005111893      1.80273187305551      1.56902931023644
  C          -1.83336908405659      2.61723326928704      1.43315054817009
  C          -0.67115791798485      2.35551057734967      2.17396806934371
  C          -0.63832445650840      1.25707405815509      3.04615674487256
  C          -1.75305630679381      0.44812391268092      3.17783685438691
  C          -2.90573056640794      0.71727984042157      2.44029312219315
  H          -3.83926985502008      2.01085231898964      0.99816091156899
  H          -3.77287052852961      0.07846636146221      2.54597168855646
  H          -1.85270414481838      3.45963342796870      0.75330991001049
  H           0.24989680803160      1.02258706549203      3.61844285678138
  H          -1.72706701536902     -0.39617052593726      3.85358696582748
  C           0.44564073738986      3.26081901081987      1.99587068561111
  N           1.55647527318277      3.27135843188394      2.79785506307338
  H           1.62675908409013      2.63205981491294      3.57998245801047
  H           2.05282739800369      4.14645011271453      2.91847759566426
  H           0.25905122802561      4.18400702122686      1.46118642460484
  H           1.24066133901658      2.28774279921776     -0.37695247158817
  Cu          1.92905805886749      2.47870063029864      0.92671326267613
