18
Coordinates from ORCA-job ./orca E -1967.128972442241
  C          -2.95106056548913      1.83046016515462      1.60067815145735
  C          -1.81980266881892      2.60700233937139      1.40333796227314
  C          -0.63414689690558      2.30969591729474      2.08342453975842
  C          -0.59161834436782      1.21157568744875      2.94927621699312
  C          -1.72468865053938      0.43646635298669      3.14158089482070
  C          -2.90579929950905      0.74427862922151      2.47007758068997
  H          -3.86738028272790      2.07166778478168      1.07835275786934
  H          -3.78792173010755      0.13631930736895      2.62321663000236
  H          -1.84901906120918      3.45042486000888      0.72471237564446
  H           0.32160623603300      0.94420810550411      3.46659112340498
  H          -1.68753967368779     -0.41094331365050      3.81323497616909
  C           0.51286150942225      3.19546608289063      1.87348113698620
  N           1.51774646739775      3.30143285023522      2.82132631201566
  H           1.47856638867269      2.72749946172492      3.65229266826600
  H           1.96179365762691      4.20163265488373      2.94483353465690
  H           0.32331188334217      4.10451950492385      1.31986026339165
  H           1.05018959420064      2.39310989988638     -0.06423091544296
  Cu          2.07536143666712      2.37964370996389      1.01099379104304
