18
Coordinates from ORCA-job ./orca E -1967.143576519426
  C          -2.98663677165626      1.81835391591568      1.60364857232497
  C          -1.89674011581278      2.66332738054759      1.50045108349177
  C          -0.72501789610234      2.39738825881786      2.23255642599941
  C          -0.66600150351376      1.26528582463362      3.06701451567880
  C          -1.76035354991931      0.43012817179059      3.16529436853777
  C          -2.91929494722774      0.70287193264279      2.43411476434438
  H          -3.88684989925244      2.02497141555880      1.04114322348488
  H          -3.77099576819080      0.04011880425002      2.51528999708160
  H          -1.93514561647447      3.53243265643296      0.85631345666681
  H           0.22614320265159      1.03482003954619      3.63418832197347
  H          -1.71896308354083     -0.43824138248849      3.80863864347395
  C           0.35620348247321      3.32441237801919      2.07963961098754
  N           1.53030434207465      3.28654815702761      2.75148621213771
  H           1.67823587344613      2.61588965673531      3.49826612676738
  H           2.06393961814540      4.14554761473962      2.83854723593437
  H           0.17273409135956      4.23829616461333      1.52693200518653
  H           1.74749529592071      2.05061860217233     -0.53615496539492
  Cu          1.91340324561949      2.50169040904493      0.89567040132350
