18
Coordinates from ORCA-job ./orca E -1967.184899156587
  C          -2.97279349234483      2.20558602746541      2.05285534749438
  C          -1.75663216681091      2.72257262774137      1.62151125870802
  C          -0.57550502022478      2.00229501656008      1.80405696789055
  C          -0.63213625510556      0.75204556427668      2.42134762007208
  C          -1.84727647147701      0.23199595261496      2.85289563546909
  C          -3.01951545339479      0.95923454544115      2.67056719503172
  H          -3.88363922604502      2.77092454946165      1.90178619442030
  H          -3.96667021840980      0.55355263141383      3.00259907170866
  H          -1.72361465810755      3.68990419433214      1.13315551981634
  H           0.27897788775441      0.18081501851963      2.55915959149770
  H          -1.88034785137884     -0.74131231552374      3.32582269866422
  C           0.74829935328405      2.57832371301339      1.37807683214300
  N           1.36542790701727      3.41559992210682      2.46141876768334
  H           1.47180987165225      2.84388811776188      3.29763034242229
  H           0.71463164574866      4.15476528164118      2.71906073678063
  H           0.62296689775703      3.22518342935004      0.51051558245159
  H           1.39082622529045      1.86605288636280      1.15434823258879
  Cu          3.08765102479542      4.22303283745942      2.04623240515594
