18
Coordinates from ORCA-job ./orca E -1967.138843342023
  C          -2.94266377466320      1.80353382219703      1.56901027564973
  C          -1.82953965524199      2.61455399062831      1.42826417972107
  C          -0.66632418320718      2.35126123844922      2.16604175771396
  C          -0.63409591946121      1.25458137118461      3.03962957336719
  C          -1.75072918281768      0.44840402499554      3.17602889580156
  C          -2.90480916610651      0.71929277948590      2.44182280499479
  H          -3.83864296947748      2.01348548817367      1.00042859646183
  H          -3.77336881551856      0.08299094794179      2.55093109708514
  H          -1.84859195830140      3.45560825280103      0.74670202382820
  H           0.25553292672493      1.01830672454258      3.60908006459977
  H          -1.72462576302584     -0.39505405473800      3.85285502304389
  C           0.45421231294347      3.25435647787768      1.98458980942606
  N           1.55523530207203      3.27254882196601      2.80181834003621
  H           1.61563936862351      2.63858713922957      3.58879361353060
  H           2.04791969477453      4.14934092586932      2.92324372768430
  H           0.26845601555224      4.17682150229965      1.44874404751249
  H           1.20060395136542      2.30668341497077     -0.34681322429729
  Cu          1.93825181576508      2.46915713212497      0.93186939384014
