18
Coordinates from ORCA-job ./orca E -1967.138175092554
  C          -2.94224484444611      1.80469234579851      1.56987887559547
  C          -1.82756474134889      2.61310163368503      1.42528553005893
  C          -0.66320564267102      2.34807764968740      2.16005325787037
  C          -0.63098733952921      1.25216824534833      3.03408323658887
  C          -1.74901889053852      0.44817352966027      3.17421749912393
  C          -2.90455449210765      0.72094996635797      2.44330484540180
  H          -3.83932317073768      2.01637693777054      1.00364178256709
  H          -3.77422092895753      0.08664763786567      2.55522329479588
  H          -1.84676286868587      3.45358828182805      0.74299944513503
  H           0.25995310078712      1.01405598932029      3.60077070026899
  H          -1.72252244368336     -0.39501311449412      3.85138985997008
  C           0.45977598796225      3.24957639786613      1.97613150972846
  N           1.55412326730545      3.27391147001744      2.80409380424021
  H           1.60764948050464      2.64402623651971      3.59464044545726
  H           2.04330561338889      4.15239748972517      2.92626673886019
  H           0.27384306799537      4.17139120003272      1.43946010452719
  H           1.17877034952370      2.31700166403388     -0.32508041901536
  Cu          1.94544449523859      2.46333643897663      0.93667948882525
