18
Coordinates from ORCA-job ./orca E -1967.143461499538
  C          -2.97726174680592      1.81398626456988      1.59459532657798
  C          -1.88510858048697      2.65614901446801      1.48984725245333
  C          -0.71669018987297      2.39266627602923      2.22709894783590
  C          -0.66338657440200      1.26668167902092      3.06915270079804
  C          -1.75995678669229      0.43390281796776      3.16917038521884
  C          -2.91552100484026      0.70350523650315      2.43216178604123
  H          -3.87496876307163      2.01903364807121      1.02745691366994
  H          -3.76878615097657      0.04289288890880      2.51437404387964
  H          -1.91949223817361      3.52081222583074      0.83949640090921
  H           0.22616882117062      1.03786851617736      3.64110218515480
  H          -1.72225067575822     -0.43011028771471      3.81862934167111
  C           0.36964767389476      3.31636006896182      2.07103929827025
  N           1.53764082690573      3.28250209306481      2.75874766272205
  H           1.67705115307478      2.61441034582669      3.50909367168300
  H           2.06790635064969      4.14278555643458      2.85102421190866
  H           0.18699018212018      4.23240928100745      1.52177095077396
  H           1.65576996107283      2.08571192485106     -0.52172363695197
  Cu          1.90470774219190      2.50289245002112      0.90000255738393
