18
Coordinates from ORCA-job ./orca E -1967.122279675201
  C          -2.96974806158622      1.85854360943089      1.63920004268019
  C          -1.83176439891222      2.61751966311786      1.40412906311051
  C          -0.62577981476404      2.28812921250461      2.02691470143071
  C          -0.56896559769733      1.17966656886708      2.87563642050544
  C          -1.70813394741379      0.42275298212487      3.10797609548105
  C          -2.91051063129930      0.76058091212700      2.49182976569248
  H          -3.90214345998108      2.12490434891141      1.15890409262186
  H          -3.79706935627085      0.16729197798607      2.67422943188246
  H          -1.87536660969814      3.47204922695223      0.74006382707626
  H           0.36259303121236      0.88891503836840      3.34619831365454
  H          -1.65767686324069     -0.43449908065212      3.76640235376852
  C           0.54495782923843      3.14943802705045      1.77821849608887
  N           1.50281584963403      3.31595026200878      2.79652551518831
  H           1.37100324632913      2.79520874695884      3.65214673758289
  H           1.85750035591805      4.25221324142411      2.93386106731784
  H           0.33589237661018      4.05897614553089      1.23314718603718
  H           1.04006320512951      2.40053489639490      0.18930701497874
  Cu          2.25479284679226      2.31628422089298      1.09834987490136
