18
Coordinates from ORCA-job ./orca E -1967.142823749958
  C          -2.95959444312854      1.80548125852597      1.57837197556102
  C          -1.86106950306562      2.63900092134521      1.46654827845096
  C          -0.69897066792591      2.38007724294221      2.21287668299262
  C          -0.65711744867310      1.26708411791321      3.07013637876117
  C          -1.76011499405663      0.44184047845506      3.17783128526699
  C          -2.91020396375185      0.70680014197478      2.43225246603383
  H          -3.85289887191920      2.00843817131953      1.00341961812728
  H          -3.76819623460869      0.05306487749420      2.51987504533993
  H          -1.88686665605052      3.49335837217771      0.80222106942984
  H           0.22803029110145      1.03979110199506      3.64965285492352
  H          -1.72990377702337     -0.41234874920375      3.84065744653187
  C           0.39891259297595      3.29695391558274      2.04979608881650
  N           1.55043634951492      3.27415899234563      2.77447744124873
  H           1.66843859747025      2.61173228289648      3.53263632650178
  H           2.06921789516089      4.13915543229445      2.88103578847365
  H           0.21423711478093      4.21877899866792      1.51113730708506
  H           1.47759977517467      2.16679503631744     -0.49370537715554
  Cu          1.90052394402445      2.50429740695596      0.90381932361062
