18
Coordinates from ORCA-job ./orca E -1967.135487750877
  C          -2.94608400194993      1.81528831070591      1.58186077572141
  C          -1.82493791453731      2.61221138778124      1.41882886565031
  C          -0.65225979860377      2.33480977782909      2.13335100065761
  C          -0.61594805080853      1.23650711825072      3.00255313176229
  C          -1.73956238996852      0.44242689810470      3.16023484361818
  C          -2.90519137347772      0.72910535204668      2.45183147907917
  H          -3.85078547002078      2.03865860225224      1.03234691742200
  H          -3.77950428348207      0.10385968592369      2.57767913891615
  H          -1.84807935147844      3.45475782713676      0.73911804763082
  H           0.28373565322954      0.98579395550496      3.55005268000193
  H          -1.70852362994840     -0.40390362115720      3.83337461053005
  C           0.47868716494392      3.23128994059086      1.94028413288132
  N           1.54108925399096      3.28800736247164      2.81371855490601
  H           1.56304969626187      2.68173092574669      3.62331808483149
  H           2.01606535015197      4.17413558106937      2.93244240455536
  H           0.29377866667645      4.14538855391291      1.39123473670053
  H           1.13140801045584      2.33340320203646     -0.23819693011388
  Cu          1.98552246856509      2.43098913979288      0.96900752524883
