18
Coordinates from ORCA-job ./orca E -1967.143424549518
  C          -2.97468468130485      1.81277570085378      1.59239438913673
  C          -1.88127358571024      2.65321491430403      1.48614797184689
  C          -0.71390505736089      2.39032013236611      2.22486279943697
  C          -0.66247434238733      1.26637745882325      3.06929578270046
  C          -1.76032073825746      0.43513950167068      3.17090990863704
  C          -2.91510911402807      0.70428141323421      2.43277823700232
  H          -3.87171442662216      2.01769312945610      1.02411338828105
  H          -3.76933498271335      0.04506808729068      2.51616179834631
  H          -1.91419850921080      3.51614157865079      0.83340352724023
  H           0.22642780252151      1.03737558887960      3.64222226316958
  H          -1.72384547074056     -0.42726586111474      3.82259433299410
  C           0.37442241226390      3.31279187170357      2.06752923124532
  N           1.53955152237687      3.28134211504960      2.76171211875137
  H           1.67513818759131      2.61403995845398      3.51334127389825
  H           2.06698972981663      4.14291473712084      2.85723148447479
  H           0.19037401608052      4.23001094237195      1.52066144800042
  H           1.63144800046455      2.09779751975318     -0.52270247791513
  Cu          1.90496923722047      2.50444121113227      0.90038252275317
