18
Coordinates from ORCA-job ./orca E -1967.173959662043
  C          -3.00825529829203      2.18267638986060      2.01403872786864
  C          -1.80078577324391      2.72352396901359      1.58517367125825
  C          -0.60224430219525      2.04336774006349      1.80525927056937
  C          -0.63166142340546      0.81034331994086      2.45920707700314
  C          -1.83646529845853      0.26948079997240      2.89047577879882
  C          -3.02749025235631      0.95568741213375      2.66892354278963
  H          -3.93257818907286      2.71629611478275      1.83279169382696
  H          -3.96703233739897      0.53143136913352      2.99926979842127
  H          -1.78809008944658      3.67780743183638      1.07148140685525
  H           0.29348588846175      0.26880160293386      2.62014141247179
  H          -1.84830944854385     -0.69031896302119      3.39113672117085
  C           0.69679955045471      2.65911627041303      1.38387896277034
  N           1.38807275129598      3.37563994277604      2.49271392076565
  H           1.52877305160531      2.73084886905662      3.26808779748835
  H           0.76580090720221      4.09956073590657      2.85122044140094
  H           0.56996496458372      3.35245222364735      0.55723673899725
  H           1.52010682375013      1.73541510094244      0.96919079477751
  Cu          3.10236847506033      4.19232967060674      2.05281224276478
