18
Coordinates from ORCA-job ./orca E -1967.124707773477
  C          -2.95873614543860      1.84424024663058      1.61874813422228
  C          -1.82270250737988      2.60954994606797      1.40018493637799
  C          -0.62688744175203      2.29569359576884      2.05194344595869
  C          -0.57793416101810      1.19379300673635      2.91082564932419
  C          -1.71549665531206      0.42998027179911      3.12533866001808
  C          -2.90765270729274      0.75386343340259      2.48208327255897
  H          -3.88337049526828      2.09891981929329      1.11772204110690
  H          -3.79327789464755      0.15554915015277      2.65211490216699
  H          -1.85831149752947      3.45738091035403      0.72722269251404
  H           0.34482754222150      0.91435678336450      3.40474761529680
  H          -1.67251728785389     -0.42113738327567      3.79206731278456
  C           0.53172613861828      3.17109417918944      1.82543327216777
  N           1.50509618881602      3.31074534601076      2.81456331148969
  H           1.42228211801776      2.76074335055713      3.65794694272613
  H           1.91179454314864      4.22692680463679      2.94452353661479
  H           0.33361716557223      4.07904821013601      1.27383642341869
  H           1.03227139437062      2.40410776833421      0.06435089308692
  Cu          2.15773170272780      2.34960456084065      1.04938695816584
