18
Coordinates from ORCA-job ./orca E -1967.181016566438
  C          -2.96987824433578      2.20741453576574      2.05704405133172
  C          -1.75322068554617      2.72293342344499      1.62560456237095
  C          -0.57361726347644      1.99938923377251      1.80433912618056
  C          -0.63220071169352      0.74728102228634      2.41765024173718
  C          -1.84805159786397      0.22844811605474      2.84902521013686
  C          -3.01872586475534      0.95903591549584      2.67068360456059
  H          -3.87964190121445      2.77531144923472      1.90910959040692
  H          -3.96641965363630      0.55455821192093      3.00264678093792
  H          -1.71873368491213      3.69165114399831      1.14003012970028
  H           0.27771918443733      0.17360597422926      2.55311323235923
  H          -1.88274928984096     -0.74628050649170      3.31890174096446
  C           0.75226140158540      2.57207978996879      1.37864224667378
  N           1.36263627412374      3.42056130728127      2.45839762908454
  H           1.46244709783273      2.85712135124873      3.30105155666394
  H           0.71101049352064      4.16294842768041      2.70380311440622
  H           0.62748829857445      3.21380691460029      0.50704380865415
  H           1.38365571543476      1.87307135611092      1.16899151183945
  Cu          3.08848043176647      4.22152233339658      2.04696186198987
