18
Coordinates from ORCA-job ./orca E -1967.132541483615
  C          -2.96380959193171      2.20721103089983      2.05979758187748
  C          -1.74633819563209      2.72059419968139      1.62845690964713
  C          -0.56875741278457      1.99341925310298      1.80426694967815
  C          -0.62978484812222      0.73969803146395      2.41398298819210
  C          -1.84676855962503      0.22263470253749      2.84483977620435
  C          -3.01544602324310      0.95700949755900      2.66983708642271
  H          -3.87226013792359      2.77789463541744      1.91452415864780
  H          -3.96392262236273      0.55432940488224      3.00176687722372
  H          -1.70971916762126      3.69033585178597      1.14505088012901
  H           0.27866617298408      0.16327922342960      2.54835998848087
  H          -1.88364409188381     -0.75316612369673      3.31232520465733
  C           0.76155376898545      2.55771316064194      1.37801835032450
  N           1.36414743714520      3.42179885924326      2.45213035134107
  H           1.44854996860161      2.87168486662038      3.30533766586135
  H           0.71618095276161      4.17337149125712      2.67650961949784
  H           0.63681145927145      3.19323635322620      0.50151170226287
  H           1.31530488264174      1.94280965215947      1.20690909706434
  Cu          3.10169600873945      4.20060590978711      2.04941481248598
