18
Coordinates from ORCA-job ./orca E -1967.176155745814
  C          -2.96902372670938      2.20726240936418      2.05691524274719
  C          -1.75215812580243      2.72236735670012      1.62559848410549
  C          -0.57280553151442      1.99839059976542      1.80436811732373
  C          -0.63186366175026      0.74626570217962      2.41756089975103
  C          -1.84794400418487      0.22782384018786      2.84879518957365
  C          -3.01833864689981      0.95884789520970      2.67046625007557
  H          -3.87858763328794      2.77547947526064      1.90896373313073
  H          -3.96618712394655      0.55470587257613      3.00239543726052
  H          -1.71730701929972      3.69106492808021      1.14002190495997
  H           0.27785662121156      0.17226494073002      2.55316273959684
  H          -1.88300603099478     -0.74689735551530      3.31866045999913
  C           0.75358272518454      2.57009690763397      1.37847446788103
  N           1.36339343440797      3.42000038216425      2.45770474041084
  H           1.46237850846408      2.85758890058476      3.30115952880987
  H           0.71193443340678      4.16291313934488      2.70172442817297
  H           0.62885553082996      3.21128132084851      0.50634892619909
  H           1.37186773143850      1.88524162239169      1.17421509168949
  Cu          3.08981251944722      4.21976206249200      2.04650435831148
