18
Coordinates from ORCA-job ./orca E -1967.131400825184
  C          -2.95063256210376      1.82714853128844      1.59688897579230
  C          -1.82212186745977      2.60943699713377      1.40907114268251
  C          -0.63966968601118      2.31723059514904      2.09822871759404
  C          -0.59814833773012      1.21773871319774      2.96352840755886
  C          -1.72840693296998      0.43698429298170      3.14564028169760
  C          -2.90593173974797      0.73996512821548      2.46513612796757
  H          -3.86427709249025      2.06409271420256      1.06806843250404
  H          -3.78589189771937      0.12701971496894      2.61059486345148
  H          -1.85010634959199      3.45354285433963      0.73134721588502
  H           0.31188987648453      0.95409712680821      3.48803951199928
  H          -1.69243789986788     -0.41124224951122      3.81626105211409
  C           0.50147018678150      3.20730859560659      1.89486155146832
  N           1.52230407933627      3.30012217692163      2.82162545028950
  H           1.50108649264626      2.71877081001351      3.64851918847478
  H           1.97847364714750      4.19525231732899      2.94090846932763
  H           0.31587588656366      4.11540616001023      1.33757960710778
  H           1.08390905360324      2.36766289013655     -0.12652038044820
  Cu          2.04507514312954      2.39392263120772      1.00326138453288
