18
Coordinates from ORCA-job ./orca E -1967.129453582874
  C          -2.95064664329869      1.82942593580048      1.59938790761762
  C          -1.81999485266626      2.60729243964791      1.40436167365967
  C          -0.63521221878169      2.31137111355952      2.08688526295077
  C          -0.59315547536918      1.21317781408687      2.95292273350845
  C          -1.72561733564635      0.43675549261166      3.14277507812242
  C          -2.90571883075989      0.74321432952234      2.46877940224594
  H          -3.86622054641720      2.06947256612174      1.07524890406733
  H          -3.78736471608939      0.13409072850345      2.62001155492402
  H          -1.84877171159309      3.45066319755878      0.72566497710789
  H           0.31919091963567      0.94685722091987      3.47226514346288
  H          -1.68888243657657     -0.41064511000418      3.81444894973755
  C           0.51055605800727      3.19805694127261      1.87838637117297
  N           1.51903781432819      3.30086456499951      2.82144934778151
  H           1.48406381138912      2.72516457839294      3.65146169575406
  H           1.96624981796396      4.19973128167269      2.94384230045887
  H           0.32192247834715      4.10689590546026      1.32397879039059
  H           1.05488040515079      2.38967345817102     -0.07723426961372
  Cu          2.06814346237637      2.38239754170202      1.00840417665061
