18
Coordinates from ORCA-job ./orca E -1967.125920989200
  C          -3.00548900850791      1.90013092105622      1.70610715786008
  C          -1.86593811597548      2.64553710059239      1.42953527021622
  C          -0.63441123574093      2.27303879471487      1.97056495407024
  C          -0.55431887407942      1.13769473562034      2.78140557973426
  C          -1.69353628605691      0.39591401178411      3.05673331862054
  C          -2.92182992593191      0.77597101420681      2.52031072407298
  H          -3.95770223380073      2.19931625268739      1.28780595072058
  H          -3.80895257254953      0.19427030399097      2.73476719739018
  H          -1.93085219204182      3.52329522322921      0.79836539797075
  H           0.39975469452702      0.81968272542523      3.18521676212972
  H          -1.62399251489687     -0.48317868591210      3.68406244589581
  C           0.55176480136076      3.10724348327944      1.68092653598928
  N           1.48950302314682      3.33565464989664      2.74892756209622
  H           1.23599790433077      2.89658925496102      3.62452727631025
  H           1.72053509637798      4.31177332611603      2.88103409147139
  H           0.33541447262783      4.00561079200577      1.11826984520211
  H           1.16246373383464      2.33902261318389      0.41092320960044
  Cu          2.52404923337601      2.25689348316084      1.29355672064798
