18
Coordinates from ORCA-job ./orca E -1967.134196365697
  C          -2.94882797276689      1.82108905564014      1.58903547792781
  C          -1.82479575893637      2.61246817164638      1.41652707334576
  C          -0.64776251306168      2.32840761860597      2.12016805744335
  C          -0.60868796547143      1.22825479896271      2.98623388353766
  C          -1.73477579646519      0.43914776332889      3.15297822839687
  C          -2.90574582960393      0.73331812858591      2.45676577298921
  H          -3.85752651673675      2.05054069863295      1.04864321913816
  H          -3.78222615483756      0.11266612645902      2.59004562579137
  H          -1.85033464732815      3.45662311723904      0.73886420729308
  H           0.29564923021889      0.97123773505875      3.52330898516398
  H          -1.70123117683112     -0.40913997582670      3.82356794783222
  C           0.48632263604989      3.22294547905523      1.92372556793301
  N           1.53270244057308      3.29535593176847      2.81798348864548
  H           1.53882309838643      2.70048943079791      3.63601970277582
  H           2.00177997598226      4.18469711813443      2.93429772777579
  H           0.30220921286114      4.13275096436303      1.36778055576663
  H           1.11942760530862      2.33781345047997     -0.19852425871984
  Cu          2.00746013265892      2.41579438706743      0.98561873696319
