18
Coordinates from ORCA-job ./orca E -1967.130914996801
  C          -2.94981241741517      1.82657844527771      1.59570705148907
  C          -1.82118264997771      2.60870817364092      1.40775934257075
  C          -0.63878719688154      2.31653504860932      2.09699527744882
  C          -0.59776954736367      1.21785059271324      2.96330518282504
  C          -1.72824660692022      0.43741489175609      3.14578438215467
  C          -2.90550577531340      0.73997431241679      2.46468715643680
  H          -3.86327330772402      2.06324695678662      1.06643604628105
  H          -3.78560320028239      0.12726499826247      2.61036025709827
  H          -1.84886870678626      3.45227738757674      0.72934034234224
  H           0.31209515721534      0.95450488464841      3.48825916623259
  H          -1.69259436936474     -0.41027442248739      3.81710980498598
  C           0.50294087804773      3.20589078901788      1.89272799489060
  N           1.52373272655099      3.29927265159493      2.82108933847598
  H           1.50201039907354      2.71860619674536      3.64836215292901
  H           1.97982105557248      4.19439375064033      2.94015122924135
  H           0.31770967709417      4.11400293561579      1.33551621727804
  H           1.07179607655796      2.37552677367807     -0.11399180639956
  Cu          2.04399780791713      2.39268563350621      1.00344086371877
