18
Coordinates from ORCA-job ./orca E -1967.124233607033
  C          -2.99725833532520      1.89348768582089      1.69399784868758
  C          -1.85774305688980      2.64189405955886      1.42638516881705
  C          -0.63077363512911      2.27625654823813      1.98233678978585
  C          -0.55493508629879      1.14471337547937      2.79880732973874
  C          -1.69417652606933      0.39944185666854      3.06439204026747
  C          -2.91799149989122      0.77258531827135      2.51328154532825
  H          -3.94607018090213      2.18737967954505      1.26441190311064
  H          -3.80503139569949      0.18803596567904      2.72015778298765
  H          -1.91896400170090      3.51632756720320      0.79026924441957
  H           0.39527767836576      0.83077520275060      3.21463233303128
  H          -1.62773108328837     -0.47705281429364      3.69565095150284
  C           0.55324959706331      3.11568625256130      1.70119979551680
  N           1.48875160793668      3.33752859828238      2.76210344594123
  H           1.25551571113171      2.88830050700644      3.63766720436673
  H           1.74929525642708      4.30639983161613      2.88946525472935
  H           0.33871057740040      4.01290014108927      1.13660419773880
  H           1.13607727690737      2.34549179872802      0.36960772259909
  Cu          2.45625709596236      2.25430842579420      1.25206944143016
