18
Coordinates from ORCA-job ./orca E -1967.122116772399
  C          -2.97208124144416      1.86170564045954      1.64385202002315
  C          -1.83395274695653      2.61990127376440      1.40610263935552
  C          -0.62596097713455      2.28724053063625      2.02306385418277
  C          -0.56742221553414      1.17670311654631      2.86899841073573
  C          -1.70655716214005      0.42063913000569      3.10397273079463
  C          -2.91094862664491      0.76156798480370      2.49339553396649
  H          -3.90603310815856      2.13050942074753      1.16794531420622
  H          -3.79752002690210      0.16887686376531      2.67770362392262
  H          -1.87924989117880      3.47628167124948      0.74454843491260
  H           0.36594150660649      0.88366524613799      3.33459898563874
  H          -1.65453211490687     -0.43850334764014      3.75982137540278
  C           0.54591467276370      3.14655976161921      1.77140634811140
  N           1.50162428997141      3.31814655270880      2.79344398244154
  H           1.36053761366137      2.80447197875085      3.65194639188338
  H           1.84810843419446      4.25761964069577      2.93011271890668
  H           0.33678363043073      4.05447958425504      1.22364286163266
  H           1.04610852402934      2.39623821609513      0.20780516878538
  Cu          2.27169943934345      2.30835673539836      1.11067960509690
