18
Coordinates from ORCA-job ./orca E -1967.130451402042
  C          -2.95079937932428      1.82897268869212      1.59875315433110
  C          -1.82106138788072      2.60878578342407      1.40685684628602
  C          -0.63713337036020      2.31392899837578      2.09184213473390
  C          -0.59509522582680      1.21466367311616      2.95708381653460
  C          -1.72659866809436      0.43646816618787      3.14354418099413
  C          -2.90577840244489      0.74198259397918      2.46716323748263
  H          -3.86567157821819      2.06796125468287      1.07295223677010
  H          -3.78676831209752      0.13130180296185      2.61591323011245
  H          -1.84963883326307      3.45280083075683      0.72900890198229
  H           0.31646227388394      0.94902518807873      3.47807335217572
  H          -1.69006466927329     -0.41168768923792      3.81424918137602
  C           0.50613835406602      3.20221062171702      1.88610179251551
  N           1.52062947333293      3.30137112816572      2.82199375285931
  H           1.49135271466463      2.72403733795115      3.65130004207268
  H           1.97138079359026      4.19887100541612      2.94282638598631
  H           0.31818706030393      4.10975645665715      1.32898615990908
  H           1.07015819394284      2.37645180122756     -0.10151711187365
  Cu          2.05676096299900      2.38755835784720      1.00790870575124
