18
Coordinates from ORCA-job ./orca E -1967.140874595955
  C          -3.07184995664215      2.08613418804521      1.87097710205488
  C          -1.88245322104542      2.69331718645123      1.48054419683184
  C          -0.65302240806202      2.14424369544920      1.84641227223425
  C          -0.63298055689689      0.97314181970717      2.60926242255051
  C          -1.81866489754664      0.37013293696324      3.00389226474645
  C          -3.04225648212673      0.92568095568145      2.63518590278028
  H          -4.01903719201001      2.52127163205972      1.57888018320453
  H          -3.96644959788206      0.45112817007042      2.93911012014063
  H          -1.90759903550051      3.59993070573090      0.88785477872598
  H           0.31326927786469      0.51917868087626      2.88041247030840
  H          -1.79092127531505     -0.53904292496497      3.59082737216882
  C           0.60555398781061      2.82338645836608      1.43316798901539
  N           1.50476513233493      3.21633346881411      2.53681647389911
  H           1.71923309762538      2.40405590835255      3.11075410345475
  H           1.00294656798854      3.85972828394188      3.15025276013962
  H           0.43343057140603      3.67219628842215      0.78152795438419
  H           1.43240387464791      1.87556686185204      0.57085582380254
  Cu          3.19609211334976      4.03807568418026      2.00630580955671
