18
Coordinates from ORCA-job ./orca E -1967.142694515023
  C          -2.95797750897584      1.80473996192829      1.57656091969052
  C          -1.85919896737283      2.63793992459240      1.46463673550172
  C          -0.69751447108092      2.37934453361383      2.21166866351411
  C          -0.65651770880753      1.26729745259409      3.07012760110718
  C          -1.75981386799729      0.44239982886280      3.17800904644614
  C          -2.90937481588325      0.70684832112307      2.43149665871687
  H          -3.85089555217488      2.00737345532740      1.00088643970555
  H          -3.76758008591474      0.05340430275806      2.51925122450086
  H          -1.88440958472266      3.49164792073421      0.79945125335185
  H           0.22820533920991      1.04040491965856      3.65044816510702
  H          -1.73020091453922     -0.41111691346612      3.84173563246661
  C           0.40091164078040      3.29572009330243      2.04815104684340
  N           1.55213030989544      3.27349861462819      2.77498020018912
  H           1.66948335229555      2.61177706266078      3.53378386891840
  H           2.07089989271601      4.13844896692631      2.88147595353856
  H           0.21683370679530      4.21748759688585      1.50924561389025
  H           1.45914478135394      2.17368407341426     -0.48412121129780
  Cu          1.89833445442267      2.50355988445538      0.90525218780947
