18
Coordinates from ORCA-job ./orca E -1967.168122144304
  C          -3.02704281091065      2.16000621711039      1.97630973502798
  C          -1.82452123544871      2.71610395900159      1.55162189006375
  C          -0.61573353208041      2.06845864046034      1.80742956171104
  C          -0.62877727208241      0.85245596018023      2.49399004276843
  C          -1.82767316324175      0.29783088543888      2.92239711575120
  C          -3.03011084834225      0.95147692560471      2.66397598476067
  H          -3.95946808709483      2.66871851817871      1.76715612975939
  H          -3.96519457592290      0.51572640904563      2.99196661674822
  H          -1.82397383089264      3.65708336818364      1.01405361019671
  H           0.30461178191732      0.33409979144771      2.68230069708620
  H          -1.82672834881912     -0.64799585974984      3.44909662215805
  C           0.67483513421571      2.69783277239678      1.38482261231855
  N           1.41806996324948      3.32938986973101      2.50888575722397
  H           1.58272357284340      2.63358070489185      3.23369521639771
  H           0.81948118955060      4.03359634480797      2.93951406839788
  H           0.53121214447449      3.44048556670472      0.60579510243096
  H           1.49634961118145      1.76810546467848      0.86545174555573
  Cu          3.12440030740363      4.15750446188602      2.05457749164237
