18
Coordinates from ORCA-job ./orca E -1967.131884089513
  C          -2.95053605782074      1.82682892028583      1.59618516117078
  C          -1.82265858329722      2.61050558282691      1.41065842233249
  C          -0.64077497789437      2.31888580115422      2.10141042917115
  C          -0.59941986694798      1.21878666877557      2.96632518359166
  C          -1.72906792922222      0.43687362336258      3.14610006502406
  C          -2.90584628579296      0.73911795783561      2.46375041767512
  H          -3.86361790055665      2.06299565700127      1.06608036703999
  H          -3.78534624091167      0.12507068988580      2.60735983877512
  H          -1.85046220604297      3.45499165563769      0.73341887530446
  H           0.31002795404838      0.95561290890014      3.49204955287300
  H          -1.69329371718077     -0.41181831397593      3.81612301667183
  C           0.49898695544451      3.20961222644857      1.89932890266784
  N           1.52380171556551      3.30045732833189      2.82156180362014
  H           1.50642035028872      2.71803704384102      3.64790421904818
  H           1.98180958196501      4.19487806380227      2.93977741894874
  H           0.31320579404043      4.11690130042935      1.34061112168846
  H           1.09020595265591      2.36004254376623     -0.13780544448094
  Cu          2.03902546165929      2.39668034169048      1.00220064887742
