18
Coordinates from ORCA-job ./orca E -1967.192545915767
  C          -2.97860879404352      2.20361331618600      2.04901027537315
  C          -1.76382970272701      2.72398930705089      1.61752943184676
  C          -0.58018241570390      2.00883762075027      1.80386531334283
  C          -0.63280103257625      0.76044005943454      2.42542259222032
  C          -1.84629925913105      0.23742159564328      2.85752545768288
  C          -3.02125674825350      0.95941568494049      2.67105159522740
  H          -3.89140170407661      2.76490447509851      1.89470642825368
  H          -3.96725209226949      0.55106973403403      3.00310689779374
  H          -1.73385765804403      3.68996210332576      1.12634681612471
  H           0.28032513633091      0.19302445214255      2.56516604965037
  H          -1.87622649111631     -0.73447577884688      3.33354331787078
  C           0.73962934263525      2.59162146744128      1.37851770514367
  N           1.36611462005317      3.41254762784469      2.46649124308804
  H           1.47862246849298      2.83024559038055      3.29445816260787
  H           0.71759096489507      4.14899912980134      2.73855157116849
  H           0.61403243399756      3.24487704151236      0.51654192923849
  H           1.43194080493060      1.82373345973831      1.12302241391429
  Cu          3.08592012660656      4.22423311352076      2.04818279945117
