18
Coordinates from ORCA-job ./orca E -1967.122665554105
  C          -2.96616466587830      1.85409727580419      1.63268117890016
  C          -1.82853861616066      2.61456655788608      1.40207782175894
  C          -0.62556989105167      2.28980191869738      2.03354146692516
  C          -0.57126542262170      1.18375819370669      2.88580677166374
  C          -1.71021877601394      0.42520647631827      3.11339630305076
  C          -2.90958260237517      0.75883369662587      2.48910773282161
  H          -3.89625850346818      2.11700043532894      1.14610031953261
  H          -3.79605218166355      0.16442457922958      2.66825145899973
  H          -1.86964878433607      3.46676381020138      0.73488184892736
  H           0.35769328019646      0.89641424489615      3.36346722452738
  H          -1.66210730964169     -0.42982069681145      3.77484901359253
  C           0.54202287378909      3.15515328826102      1.79114327191567
  N           1.50332909835592      3.31409150555285      2.80205973619958
  H           1.38616874538096      2.78403495773703      3.65402721426452
  H           1.87345895183603      4.24456609929670      2.93803424438278
  H           0.33559350930102      4.06472609594638      1.24527370850307
  H           1.03359067397387      2.40475217673391      0.15606400464177
  Cu          2.22600962037788      2.32608938458831      1.08227667939184
