18
Coordinates from ORCA-job ./orca E -1967.147049431401
  C          -3.06484590811698      2.10142308373571      1.89318344451786
  C          -1.87333938026130      2.69893247440098      1.49379354122019
  C          -0.64625535665482      2.12987867800621      1.83548840262421
  C          -0.63031152953307      0.94937753731467      2.58341871477266
  C          -1.81781582319516      0.35580292854457      2.98725512384865
  C          -3.03916995284921      0.93106205668656      2.64234079460982
  H          -4.01058280340758      2.55110462814832      1.61890336921058
  H          -3.96504825097279      0.46385818130275      2.95252017635695
  H          -1.89521852281832      3.61265313845892      0.91191947240134
  H           0.31538645546652      0.48304984190408      2.83541775749013
  H          -1.79349228126851     -0.56110493571897      3.56222206520792
  C           0.61931400620321      2.79848527612733      1.41859454028371
  N           1.48638136106934      3.23973150600941      2.53295372722033
  H           1.68681481861278      2.44939521330703      3.14193775654336
  H           0.96375899782398      3.90157369139743      3.10773962664778
  H           0.45281302662083      3.62720591702151      0.73945755421284
  H           1.44688366515278      1.84863386147008      0.63237844312538
  Cu          3.18718747812866      4.05339692188227      2.02351548970515
