18
Coordinates from ORCA-job ./orca E -1967.179362919516
  C          -3.00294938769258      2.18698264449095      2.02130662360209
  C          -1.79408710526366      2.72411554507295      1.59205130163382
  C          -0.59824842227450      2.03698268227676      1.80500193948034
  C          -0.63201762525649      0.80060307419177      2.45216140904839
  C          -1.83841950754977      0.26302776151512      2.88370334027299
  C          -3.02650560430978      0.95629267870102      2.66936517345459
  H          -3.92518651471676      2.72601772949493      1.84549599218906
  H          -3.96726317920327      0.53490120441758      2.99993736438904
  H          -1.77821487753864      3.68094396090308      1.08309577802528
  H           0.29090009560823      0.25387843000651      2.60841967888446
  H          -1.85355643494556     -0.69940395051642      3.37921019243173
  C           0.70473336886845      2.64656257207063      1.38240985780239
  N           1.38341312452120      3.38383639982121      2.48777021043070
  H           1.51893994436214      2.75134642119580      3.27415962796625
  H           0.75596414199324      4.11119670257550      2.82929810548474
  H           0.57830279317883      3.33180403933529      0.54842049195431
  H           1.50729750037294      1.74681314031820      0.99956945283835
  Cu          3.09935768984640      4.19855896412788      2.05166346011022
