18
Coordinates from ORCA-job ./orca E -1967.162111417467
  C          -3.03519576372256      2.15036713700110      1.96286317615117
  C          -1.83461166315065      2.71415351349030      1.54257217347649
  C          -0.62184115138549      2.07972720707448      1.81257855670713
  C          -0.62897838752140      0.86902675427193      2.50893188215320
  C          -1.82576310817821      0.30719398768145      2.93294686492273
  C          -3.03234782517944      0.94761958330175      2.66025393421944
  H          -3.97053710519626      2.64906418595057      1.74292036020835
  H          -3.96578516683164      0.50582215139808      2.98480121518832
  H          -1.83859022385017      3.65099200414672      0.99794568523892
  H           0.30738954565794      0.35975774562048      2.70702067466693
  H          -1.82014143440273     -0.63447785336268      3.46698334123281
  C           0.66325212984755      2.71740622361952      1.39114028337087
  N           1.42962221218267      3.31619197350237      2.51443813030791
  H           1.60034605799080      2.60440711074605      3.22206795412905
  H           0.84426471257639      4.01661314630114      2.96934811040038
  H           0.51701512293074      3.47317121377359      0.62593579084208
  H           1.49724887034989      1.76990470145223      0.82112685462881
  Cu          3.13711317788300      4.13751921402975      2.04916501215424
