18
Coordinates from ORCA-job ./orca E -1967.133291292233
  C          -2.94998513040593      1.82401911269026      1.59280901416997
  C          -1.82424498780681      2.61200728582035      1.41445471347565
  C          -0.64483440986969      2.32431152624360      2.11192478527625
  C          -0.60446753244298      1.22377464282052      2.97697809630536
  C          -1.73208256158281      0.43777771940938      3.14946896834068
  C          -2.90590781931546      0.73589234275193      2.45995461944589
  H          -3.86084719939706      2.05674207610811      1.05743725067229
  H          -3.78371052445072      0.11811479667174      2.59784299810467
  H          -1.85100904664419      3.45665412743861      0.73742689168983
  H           0.30237003840934      0.96374275624063      3.50852765918490
  H          -1.69733775861595     -0.41104823064815      3.81934444847108
  C           0.49155436030502      3.21735224767272      1.91314384751380
  N           1.52807035565384      3.29832715610584      2.81991863430311
  H           1.52380497885394      2.70936765305379      3.64203511644647
  H           1.99267729867141      4.18979545776129      2.93650521290311
  H           0.30732015580052      4.12554321231254      1.35492837607077
  H           1.10990927729991      2.34483846772556     -0.17381129974587
  Cu          2.02118050553783      2.40724764982082      0.99415066737158
