18
Coordinates from ORCA-job ./orca E -1967.122922073735
  C          -2.96472072867170      1.85234754072252      1.63013496202158
  C          -1.82727458984533      2.61350351645837      1.40150854614104
  C          -0.62557388825132      2.29060557134862      2.03656525971172
  C          -0.57227966571294      1.18538906839107      2.89010196619863
  C          -1.71108473989227      0.42605846643309      3.11551833384485
  C          -2.90919648282699      0.75804392252608      2.48791540956333
  H          -3.89386632894110      2.11388221445625      1.14102828254032
  H          -3.79559781260168      0.16309348342995      2.66558318794256
  H          -1.86735600344828      3.46486298159947      0.73319525641683
  H           0.35560175417087      0.89941185446356      3.37063491160232
  H          -1.66394102100651     -0.42819691156869      3.77801964370134
  C           0.54047684688111      3.15781475383682      1.79709497944195
  N           1.50326707595107      3.31369705697981      2.80461401341734
  H           1.39246241576556      2.77992143578125      3.65509825555624
  H           1.88039062662274      4.24154309026120      2.93946233157191
  H           0.33552196229768      4.06702743630946      1.25011947938051
  H           1.03230293536239      2.40521962355112      0.14031116521931
  Cu          2.21332764414695      2.33023489501933      1.07613401572745
