18
Coordinates from ORCA-job ./orca E -1967.127007226045
  C          -2.95346549249888      1.83532979913605      1.60696409133687
  C          -1.81993953356354      2.60675666579534      1.40048504412239
  C          -0.63039052079777      2.30329852131066      2.06983629312218
  C          -0.58571011257395      1.20463112274742      2.93398925610715
  C          -1.72097771431862      0.43455442535749      3.13587608127526
  C          -2.90639609586349      0.74841939665181      2.47520527179136
  H          -3.87302800343342      2.08171713263626      1.09273371209107
  H          -3.79023999380649      0.14486634395461      2.63569985882397
  H          -1.85136214398256      3.45117952412604      0.72311807947591
  H           0.33124216622858      0.93279695271371      3.44253585656519
  H          -1.68184163170039     -0.41352337425602      3.80662881809726
  C           0.52163987127359      3.18504565974367      1.85335414222536
  N           1.51248127228362      3.30424835087489      2.81940815421515
  H           1.45566782744747      2.73874614112352      3.65483600594030
  H           1.94222270405093      4.21052947666081      2.94668473746503
  H           0.32849742409276      4.09441079762018      1.30195187491499
  H           1.03615551571539      2.40326130720157     -0.00979152377446
  Cu          2.10790446144700      2.36819175660138      1.02352424620439
