18
Coordinates from ORCA-job ./orca E -1967.189833295525
  C          -2.99259813992239      2.19371579779861      2.03205179521242
  C          -1.78110297205943      2.72363308591754      1.60190289956165
  C          -0.59025848959526      2.02475663249306      1.80406593076944
  C          -0.63203050335003      0.78358427976325      2.44116525904274
  C          -1.84146497109461      0.25237605533193      2.87322713445289
  C          -3.02414923141075      0.95763218430273      2.66996175799021
  H          -3.91097419886703      2.74199072451891      1.86467971420582
  H          -3.96716400391084      0.54187595976770      3.00127145262439
  H          -1.75926945131022      3.68406494106502      1.09982625871483
  H           0.28683792052392      0.22816467261021      2.59094117946146
  H          -1.86276191096474     -0.71377617863743      3.36123802380863
  C           0.72046316327676      2.62199077402441      1.37914439364790
  N           1.37749710028736      3.39442346958020      2.47869383516559
  H           1.50481496204196      2.78202184371194      3.28227740855871
  H           0.74074158759914      4.12539252842802      2.79261537166574
  H           0.59314313112549      3.29547725993320      0.53446571338168
  H           1.46651719736090      1.78772076015704      1.05569126397077
  Cu          3.09421881027019      4.20941520923240      2.04982060776385
