18
Coordinates from ORCA-job ./orca E -1967.159153966854
  C          -3.03750503344431      2.14810141869074      1.96004525865203
  C          -1.83759337970496      2.71405555492699      1.54071264475191
  C          -0.62374984979934      2.08289618922580      1.81393420788891
  C          -0.62916697630589      0.87326314076616      2.51232099126666
  C          -1.82528709880809      0.30941824612177      2.93524403319320
  C          -3.03295031471690      0.94662104059054      2.65949997561800
  H          -3.97363068829900      2.64427316940230      1.73777307656598
  H          -3.96589049614695      0.50317750320438      2.98322085518355
  H          -1.84292316467776      3.64994888885873      0.99451792951138
  H           0.30801842863798      0.36623297285042      2.71217434603220
  H          -1.81838411250498     -0.63145375898998      3.47065804767741
  C           0.65929354245008      2.72382892718860      1.39375275259800
  N           1.43180029956171      3.31390983054616      2.51616793528901
  H           1.60336281688398      2.59815310820122      3.21955335612345
  H           0.85013934000664      4.01390797949996      2.97676369713173
  H           0.51379171590394      3.48137695422340      0.63046929413198
  H           1.50289952448647      1.76482021569659      0.80838428650857
  Cu          3.14023544647778      4.13192861899507      2.04784731187486
