18
Coordinates from ORCA-job ./orca E -1967.143581133979
  C      -2.988574      1.819307      1.605335
  C      -1.900092      2.666314      1.504344
  C      -0.727700      2.400105      2.235606
  C      -0.667110      1.266319      3.067968
  C      -1.760021      0.429278      3.163988
  C      -2.919223      0.701849      2.432956
  H      -3.889097      2.025615      1.043229
  H      -3.769732      0.037327      2.512254
  H      -1.939718      3.536863      0.862247
  H       0.225399      1.036307      3.634727
  H      -1.717601     -0.440567      3.805254
  C       0.352291      3.327659      2.083030
  N       1.528750      3.287368      2.748949
  H       1.679530      2.616122      3.494755
  H       2.065072      4.145074      2.833076
  H       0.169690      4.240859      1.528912
  H       1.767445      2.039494     -0.537656
  Cu      1.913152      2.499168      0.894067
18
Coordinates from ORCA-job ./orca E -1967.143571992946
  C      -2.988564      1.819291      1.605320
  C      -1.900096      2.666306      1.504326
  C      -0.727708      2.400123      2.235600
  C      -0.667129      1.266346      3.067978
  C      -1.760039      0.429293      3.164014
  C      -2.919229      0.701839      2.432964
  H      -3.889073      2.025589      1.043187
  H      -3.769735      0.037312      2.512262
  H      -1.939710      3.536837      0.862202
  H       0.225367      1.036326      3.634755
  H      -1.717599     -0.440535      3.805302
  C       0.352308      3.327660      2.083076
  N       1.528774      3.287330      2.748969
  H       1.679574      2.616070      3.494756
  H       2.065078      4.145048      2.833101
  H       0.169722      4.240820      1.528885
  H       1.767378      2.039603     -0.537709
  Cu      1.913142      2.499203      0.894051
18
Coordinates from ORCA-job ./orca E -1967.143565048498
  C      -2.986685      1.818590      1.603259
  C      -1.897995      2.665324      1.502301
  C      -0.726163      2.399553      2.234614
  C      -0.666395      1.266517      3.068062
  C      -1.759521      0.429741      3.164048
  C      -2.918137      0.701847      2.431925
  H      -3.886761      2.024563      1.040312
  H      -3.768818      0.037542      2.511200
  H      -1.937005      3.535312      0.859403
  H       0.225647      1.036850      3.635698
  H      -1.717698     -0.439524      3.806141
  C       0.354092      3.326818      2.082124
  N       1.530584      3.287008      2.749875
  H       1.681257      2.616491      3.496357
  H       2.067317      4.144502      2.833561
  H       0.172293      4.239608      1.527063
  H       1.746747      2.045206     -0.529121
  Cu      1.909701      2.498510      0.896218
18
Coordinates from ORCA-job ./orca E -1967.143565247860
  C      -2.986725      1.818529      1.603419
  C      -1.897964      2.665187      1.502296
  C      -0.726062      2.399377      2.234375
  C      -0.666437      1.266579      3.068054
  C      -1.759641      0.429839      3.164244
  C      -2.918262      0.701861      2.432180
  H      -3.886827      2.024552      1.040526
  H      -3.768994      0.037638      2.511604
  H      -1.936950      3.535086      0.859276
  H       0.225630      1.036914      3.635655
  H      -1.717804     -0.439328      3.806474
  C       0.354585      3.326458      2.081505
  N       1.530427      3.286754      2.749892
  H       1.680334      2.616164      3.496390
  H       2.066609      4.144478      2.834204
  H       0.172713      4.239622      1.527140
  H       1.747357      2.045929     -0.530210
  Cu      1.910470      2.498823      0.896015
18
Coordinates from ORCA-job ./orca E -1967.143570260198
  C      -2.986855      1.818415      1.603876
  C      -1.897584      2.664361      1.501683
  C      -0.725697      2.398607      2.233499
  C      -0.666378      1.266362      3.067640
  C      -1.760041      0.430131      3.164887
  C      -2.918812      0.702170      2.433249
  H      -3.887066      2.024717      1.041232
  H      -3.769838      0.038402      2.513356
  H      -1.936393      3.533869      0.858107
  H       0.225777      1.036462      3.635032
  H      -1.718229     -0.438619      3.807698
  C       0.356034      3.325184      2.079697
  N       1.530147      3.286198      2.750423
  H       1.677890      2.615391      3.497119
  H       2.064570      4.144798      2.836744
  H       0.173476      4.239356      1.527214
  H       1.748599      2.048495     -0.534007
  Cu      1.912861      2.500161      0.895592
18
Coordinates from ORCA-job ./orca E -1967.143519612017
  C      -2.986764      1.818414      1.603804
  C      -1.897392      2.664201      1.501485
  C      -0.725569      2.398405      2.233393
  C      -0.666329      1.266209      3.067617
  C      -1.760107      0.430157      3.164995
  C      -2.918864      0.702291      2.433356
  H      -3.886931      2.024749      1.041110
  H      -3.769994      0.038688      2.513589
  H      -1.936087      3.533583      0.857735
  H       0.225811      1.036133      3.634961
  H      -1.718362     -0.438529      3.807891
  C       0.356161      3.324950      2.079636
  N       1.530282      3.286294      2.750746
  H       1.677968      2.615588      3.497541
  H       2.064492      4.145009      2.837246
  H       0.173293      4.239040      1.527106
  H       1.747895      2.048833     -0.534790
  Cu      1.912956      2.500445      0.895621
18
Coordinates from ORCA-job ./orca E -1967.143576519426
  C      -2.986637      1.818354      1.603649
  C      -1.896740      2.663327      1.500451
  C      -0.725018      2.397388      2.232556
  C      -0.666002      1.265286      3.067015
  C      -1.760354      0.430128      3.165294
  C      -2.919295      0.702872      2.434115
  H      -3.886850      2.024971      1.041143
  H      -3.770996      0.040119      2.515290
  H      -1.935146      3.532433      0.856313
  H       0.226143      1.034820      3.634188
  H      -1.718963     -0.438241      3.808639
  C       0.356203      3.324412      2.079640
  N       1.530304      3.286548      2.751486
  H       1.678236      2.615890      3.498266
  H       2.063940      4.145548      2.838547
  H       0.172734      4.238296      1.526932
  H       1.747495      2.050619     -0.536155
  Cu      1.913403      2.501690      0.895670
18
Coordinates from ORCA-job ./orca E -1967.143554208557
  C      -2.984778      1.817657      1.601598
  C      -1.894658      2.662346      1.498430
  C      -0.723485      2.396817      2.231563
  C      -0.665274      1.265457      3.067086
  C      -1.759843      0.430579      3.165324
  C      -2.918218      0.702885      2.433082
  H      -3.884563      2.023950      1.038288
  H      -3.770095      0.040356      2.514239
  H      -1.932463      3.530907      0.853522
  H       0.226421      1.035343      3.635110
  H      -1.719066     -0.437226      3.809468
  C       0.357975      3.323567      2.078671
  N       1.532120      3.286218      2.752367
  H       1.679929      2.616301      3.499838
  H       2.066185      4.144996      2.838979
  H       0.175286      4.237082      1.525095
  H       1.726973      2.056239     -0.527427
  Cu      1.910014      2.500985      0.897808
18
Coordinates from ORCA-job ./orca E -1967.143554716679
  C      -2.984709      1.817638      1.601678
  C      -1.894835      2.662758      1.499022
  C      -0.723571      2.397196      2.231909
  C      -0.665476      1.266056      3.067627
  C      -1.759792      0.430710      3.165385
  C      -2.917963      0.702581      2.432746
  H      -3.884396      2.023727      1.038122
  H      -3.769606      0.039685      2.513466
  H      -1.932672      3.531301      0.854093
  H       0.226245      1.036069      3.635661
  H      -1.718882     -0.437214      3.809369
  C       0.358446      3.323481      2.078263
  N       1.532046      3.285956      2.752241
  H       1.679065      2.616132      3.499901
  H       2.066001      4.144748      2.839049
  H       0.176026      4.237258      1.525105
  H       1.726420      2.055841     -0.528221
  Cu      1.910113      2.500538      0.897624
18
Coordinates from ORCA-job ./orca E -1967.143556816014
  C      -2.984546      1.817558      1.601801
  C      -1.894778      2.662931      1.499392
  C      -0.723604      2.397604      2.232278
  C      -0.665629      1.266720      3.068103
  C      -1.759745      0.430933      3.165553
  C      -2.917700      0.702270      2.432535
  H      -3.884172      2.023521      1.038082
  H      -3.769029      0.038902      2.512688
  H      -1.932678      3.531474      0.854457
  H       0.226038      1.037044      3.636362
  H      -1.718733     -0.436956      3.809590
  C       0.359526      3.323103      2.077350
  N       1.531945      3.285537      2.752435
  H       1.677221      2.615880      3.500557
  H       2.065426      4.144535      2.839957
  H       0.177325      4.237500      1.525163
  H       1.724994      2.055770     -0.530597
  Cu      1.910601      2.500134      0.897333
18
Coordinates from ORCA-job ./orca E -1967.143494328800
  C      -2.984418      1.817504      1.601702
  C      -1.894510      2.662665      1.499082
  C      -0.723441      2.397369      2.232110
  C      -0.665557      1.266576      3.068044
  C      -1.759812      0.430990      3.165708
  C      -2.917760      0.702391      2.432698
  H      -3.884022      2.023524      1.037975
  H      -3.769188      0.039172      2.512986
  H      -1.932306      3.531090      0.853978
  H       0.226048      1.036853      3.636392
  H      -1.718896     -0.436776      3.809914
  C       0.359774      3.322858      2.077215
  N       1.532038      3.285549      2.752813
  H       1.677051      2.615948      3.501034
  H       2.065282      4.144668      2.840624
  H       0.177312      4.237325      1.525201
  H       1.724130      2.056319     -0.531699
  Cu      1.910737      2.500434      0.897265
18
Coordinates from ORCA-job ./orca E -1967.143563676472
  C      -2.984198      1.817136      1.601379
  C      -1.893288      2.660742      1.496885
  C      -0.722466      2.395443      2.230308
  C      -0.665045      1.265112      3.066950
  C      -1.760369      0.431169      3.166574
  C      -2.918644      0.703404      2.434342
  H      -3.883939      2.023642      1.038057
  H      -3.771086      0.041727      2.516517
  H      -1.930563      3.528541      0.850902
  H       0.226450      1.035061      3.635348
  H      -1.720120     -0.435754      3.811954
  C       0.360131      3.321854      2.076901
  N       1.531953      3.285422      2.754042
  H       1.676871      2.615370      3.501860
  H       2.064070      4.145053      2.843448
  H       0.176618      4.236624      1.525671
  H       1.724150      2.060896     -0.534892
  Cu      1.911935      2.503018      0.896793
18
Coordinates from ORCA-job ./orca E -1967.143560809162
  C      -2.984215      1.817311      1.601410
  C      -1.893810      2.661692      1.497936
  C      -0.722897      2.396354      2.231258
  C      -0.665311      1.265807      3.067626
  C      -1.760119      0.431084      3.166190
  C      -2.918181      0.702940      2.433469
  H      -3.883803      2.023503      1.037726
  H      -3.770182      0.040579      2.514746
  H      -1.931234      3.529703      0.852254
  H       0.226243      1.035777      3.635927
  H      -1.719586     -0.436283      3.810953
  C       0.359811      3.322398      2.077339
  N       1.532096      3.285579      2.753539
  H       1.677414      2.615777      3.501524
  H       2.064902      4.144903      2.841977
  H       0.176757      4.236835      1.525435
  H       1.723563      2.058711     -0.533275
  Cu      1.911012      2.501790      0.897005
18
Coordinates from ORCA-job ./orca E -1967.143532182653
  C      -2.982378      1.816614      1.599371
  C      -1.891748      2.660708      1.495917
  C      -0.721379      2.395780      2.230255
  C      -0.664593      1.265977      3.067684
  C      -1.759620      0.431537      3.166216
  C      -2.917120      0.702955      2.432445
  H      -3.881542      2.022482      1.034892
  H      -3.769298      0.040821      2.513712
  H      -1.928576      3.528172      0.849465
  H       0.226515      1.036298      3.636826
  H      -1.719696     -0.435266      3.811778
  C       0.361569      3.321545      2.076350
  N       1.533918      3.285240      2.754391
  H       1.679119      2.616179      3.503062
  H       2.067154      4.144343      2.842374
  H       0.179289      4.235614      1.523578
  H       1.703173      2.064386     -0.524395
  Cu      1.907670      2.501076      0.899116
18
Coordinates from ORCA-job ./orca E -1967.143513506779
  C      -2.982344      1.816575      1.599469
  C      -1.891775      2.660805      1.496165
  C      -0.721350      2.395847      2.230317
  C      -0.664686      1.266236      3.067913
  C      -1.759659      0.431631      3.166334
  C      -2.917068      0.702839      2.432421
  H      -3.881470      2.022388      1.034901
  H      -3.769177      0.040598      2.513566
  H      -1.928603      3.528229      0.849661
  H       0.226424      1.036612      3.637071
  H      -1.719696     -0.435161      3.811913
  C       0.362030      3.321312      2.075877
  N       1.533811      3.285027      2.754358
  H       1.678301      2.616000      3.503125
  H       2.066701      4.144251      2.842710
  H       0.179791      4.235681      1.523653
  H       1.703140      2.064576     -0.525328
  Cu      1.908088      2.501013      0.898913
18
Coordinates from ORCA-job ./orca E -1967.143533119944
  C      -2.982250      1.816489      1.599714
  C      -1.891485      2.660506      1.496101
  C      -0.721144      2.395681      2.230181
  C      -0.664713      1.266454      3.068035
  C      -1.759829      0.431882      3.166740
  C      -2.917152      0.702821      2.432759
  H      -3.881369      2.022381      1.035138
  H      -3.769232      0.040544      2.513859
  H      -1.928255      3.527769      0.849366
  H       0.226367      1.036868      3.637275
  H      -1.719880     -0.434698      3.812633
  C       0.363352      3.320449      2.074534
  N       1.533625      3.284614      2.754776
  H       1.676159      2.615653      3.503920
  H       2.065380      4.144372      2.844377
  H       0.180790      4.235627      1.523772
  H       1.702623      2.065754     -0.528602
  Cu      1.909472      2.501294      0.898463
18
Coordinates from ORCA-job ./orca E -1967.143479438550
  C      -2.982135      1.816452      1.599601
  C      -1.891237      2.660262      1.495799
  C      -0.720987      2.395433      2.230016
  C      -0.664644      1.266274      3.067967
  C      -1.759896      0.431917      3.166868
  C      -2.917227      0.702969      2.432924
  H      -3.881216      2.022385      1.034991
  H      -3.769439      0.040881      2.514205
  H      -1.927879      3.527380      0.848864
  H       0.226400      1.036565      3.637217
  H      -1.720036     -0.434556      3.812892
  C       0.363492      3.320238      2.074510
  N       1.533740      3.284689      2.755151
  H       1.676213      2.615771      3.504363
  H       2.065321      4.144551      2.844939
  H       0.180621      4.235387      1.523771
  H       1.701820      2.066273     -0.529463
  Cu      1.909549      2.501588      0.898424
18
Coordinates from ORCA-job ./orca E -1967.143541924331
  C      -2.981877      1.816139      1.599212
  C      -1.890135      2.658636      1.493911
  C      -0.720126      2.393779      2.228559
  C      -0.664193      1.264943      3.067058
  C      -1.760360      0.432023      3.167561
  C      -2.917971      0.703893      2.434295
  H      -3.881006      2.022431      1.034828
  H      -3.771115      0.043201      2.517231
  H      -1.926254      3.525170      0.846162
  H       0.226781      1.034850      3.636262
  H      -1.721092     -0.433761      3.814530
  C       0.363632      3.319469      2.074552
  N       1.533734      3.284741      2.756284
  H       1.676502      2.615472      3.505124
  H       2.064494      4.144983      2.847191
  H       0.179804      4.234658      1.524140
  H       1.701347      2.070082     -0.531936
  Cu      1.910295      2.503751      0.898074
18
Coordinates from ORCA-job ./orca E -1967.143504022891
  C      -2.980061      1.815444      1.597185
  C      -1.888093      2.657650      1.491896
  C      -0.718622      2.393202      2.227548
  C      -0.663484      1.265112      3.067103
  C      -1.759871      0.432477      3.167582
  C      -2.916927      0.703913      2.433278
  H      -3.878770      2.021413      1.032015
  H      -3.770249      0.043451      2.516210
  H      -1.923618      3.523636      0.843380
  H       0.227048      1.035368      3.637139
  H      -1.721210     -0.432739      3.815347
  C       0.365377      3.318611      2.073545
  N       1.535563      3.284394      2.757107
  H       1.678222      2.615868      3.506630
  H       2.066752      4.144421      2.847554
  H       0.182316      4.233431      1.522265
  H       1.681083      2.075786     -0.522901
  Cu      1.907005      2.503023      0.900156
18
Coordinates from ORCA-job ./orca E -1967.143504288634
  C      -2.979954      1.815454      1.597271
  C      -1.888392      2.658341      1.492833
  C      -0.718816      2.393853      2.228215
  C      -0.663823      1.266020      3.068011
  C      -1.759801      0.432652      3.167648
  C      -2.916508      0.703431      2.432655
  H      -3.878476      2.021077      1.031655
  H      -3.769442      0.042383      2.514832
  H      -1.923955      3.524314      0.844307
  H       0.226742      1.036392      3.638042
  H      -1.720936     -0.432808      3.815094
  C       0.365882      3.318597      2.073178
  N       1.535544      3.284084      2.756847
  H       1.677385      2.615712      3.506597
  H       2.066744      4.144052      2.847320
  H       0.183198      4.233662      1.522271
  H       1.680164      2.075011     -0.523624
  Cu      1.906905      2.502234      0.899889
18
Coordinates from ORCA-job ./orca E -1967.143506956019
  C      -2.979786      1.815388      1.597341
  C      -1.888454      2.658696      1.493404
  C      -0.718973      2.394459      2.228862
  C      -0.664064      1.266797      3.068698
  C      -1.759753      0.432849      3.167763
  C      -2.916159      0.703015      2.432216
  H      -3.878193      2.020814      1.031451
  H      -3.768682      0.041354      2.513597
  H      -1.924118      3.524745      0.844977
  H       0.226398      1.037481      3.639032
  H      -1.720771     -0.432648      3.815168
  C       0.366730      3.318400      2.072560
  N       1.535528      3.283704      2.756826
  H       1.676061      2.615485      3.506933
  H       2.066508      4.143761      2.847642
  H       0.184330      4.233937      1.522366
  H       1.678758      2.074671     -0.525313
  Cu      1.907101      2.501552      0.899516
18
Coordinates from ORCA-job ./orca E -1967.143446956449
  C      -2.979631      1.815300      1.597227
  C      -1.888216      2.658491      1.493198
  C      -0.718874      2.394361      2.228850
  C      -0.664055      1.266804      3.068782
  C      -1.759818      0.432941      3.167939
  C      -2.916158      0.703048      2.432288
  H      -3.877993      2.020742      1.031274
  H      -3.768696      0.041402      2.513636
  H      -1.923801      3.524458      0.844653
  H       0.226290      1.037559      3.639332
  H      -1.720916     -0.432423      3.815526
  C       0.367056      3.318171      2.072396
  N       1.535621      3.283617      2.757124
  H       1.675784      2.615413      3.507312
  H       2.066391      4.143772      2.848226
  H       0.184462      4.233861      1.522492
  H       1.677774      2.075242     -0.526521
  Cu      1.907240      2.501699      0.899307
18
Coordinates from ORCA-job ./orca E -1967.143509210352
  C      -2.979109      1.814677      1.596531
  C      -1.887121      2.657003      1.491567
  C      -0.718231      2.393209      2.228010
  C      -0.663976      1.266296      3.068828
  C      -1.760398      0.433418      3.169100
  C      -2.916588      0.703560      2.433212
  H      -3.877323      2.020147      1.030363
  H      -3.769676      0.042726      2.515464
  H      -1.922185      3.522342      0.842148
  H       0.225983      1.037240      3.640069
  H      -1.722119     -0.431106      3.817842
  C       0.367562      3.317426      2.072374
  N       1.535870      3.282940      2.757977
  H       1.675838      2.614005      3.507539
  H       2.066017      4.143309      2.850520
  H       0.184152      4.233670      1.523591
  H       1.676105      2.079880     -0.530205
  Cu      1.907657      2.503718      0.898110
18
Coordinates from ORCA-job ./orca E -1967.143465658580
  C      -2.977316      1.813982      1.594516
  C      -1.885101      2.656014      1.489553
  C      -0.716744      2.392628      2.226987
  C      -0.663280      1.266463      3.068859
  C      -1.759923      0.433875      3.169118
  C      -2.915563      0.703581      2.432206
  H      -3.875114      2.019130      1.027571
  H      -3.768829      0.042979      2.514462
  H      -1.919574      3.520803      0.839369
  H       0.226243      1.037756      3.640920
  H      -1.722247     -0.430080      3.818653
  C       0.369293      3.316559      2.071346
  N       1.537706      3.282583      2.758769
  H       1.677574      2.614391      3.509012
  H       2.068280      4.142739      2.850843
  H       0.186644      4.232435      1.521694
  H       1.655993      2.085643     -0.521004
  Cu      1.904415      2.502978      0.900166
18
Coordinates from ORCA-job ./orca E -1967.143461499538
  C      -2.977262      1.813986      1.594595
  C      -1.885109      2.656149      1.489847
  C      -0.716690      2.392666      2.227099
  C      -0.663387      1.266682      3.069153
  C      -1.759957      0.433903      3.169170
  C      -2.915521      0.703505      2.432162
  H      -3.874969      2.019034      1.027457
  H      -3.768786      0.042893      2.514374
  H      -1.919492      3.520812      0.839496
  H       0.226169      1.037869      3.641102
  H      -1.722251     -0.430110      3.818629
  C       0.369648      3.316360      2.071039
  N       1.537641      3.282502      2.758748
  H       1.677051      2.614410      3.509094
  H       2.067906      4.142786      2.851024
  H       0.186990      4.232409      1.521771
  H       1.655770      2.085712     -0.521724
  Cu      1.904708      2.502892      0.900003
18
Coordinates from ORCA-job ./orca E -1967.143396063136
  C      -2.975488      1.813293      1.592595
  C      -1.883108      2.655160      1.487838
  C      -0.715216      2.392083      2.226069
  C      -0.662697      1.266846      3.069171
  C      -1.759489      0.434358      3.169186
  C      -2.914509      0.703528      2.431167
  H      -3.872784      2.018019      1.024690
  H      -3.767954      0.043148      2.513392
  H      -1.916905      3.519273      0.836724
  H       0.226427      1.038379      3.641931
  H      -1.722381     -0.429087      3.819436
  C       0.371366      3.315487      2.069993
  N       1.539481      3.282136      2.759509
  H       1.678798      2.614785      3.510532
  H       2.070176      4.142205      2.851315
  H       0.189463      4.231168      1.519860
  H       1.635797      2.091524     -0.512400
  Cu      1.901484      2.502153      0.902030
18
Coordinates from ORCA-job ./orca E -1967.143406788487
  C      -2.975485      1.813162      1.592748
  C      -1.882942      2.654830      1.487687
  C      -0.715026      2.391760      2.225743
  C      -0.662712      1.266854      3.069147
  C      -1.759686      0.434532      3.169547
  C      -2.914703      0.703604      2.431595
  H      -3.872792      2.017928      1.024860
  H      -3.768266      0.043414      2.514099
  H      -1.916650      3.518750      0.836309
  H       0.226415      1.038418      3.641922
  H      -1.722651     -0.428694      3.820103
  C       0.372079      3.314937      2.069173
  N       1.539272      3.281742      2.759593
  H       1.677525      2.614244      3.510610
  H       2.069163      4.142147      2.852367
  H       0.189964      4.231227      1.520172
  H       1.636360      2.092939     -0.514224
  Cu      1.902592      2.502667      0.901592
18
Coordinates from ORCA-job ./orca E -1967.143413524542
  C      -2.975362      1.812816      1.593115
  C      -1.881960      2.653278      1.486514
  C      -0.714296      2.390440      2.224611
  C      -0.662611      1.266499      3.068861
  C      -1.760394      0.435116      3.170818
  C      -2.915461      0.704160      2.433217
  H      -3.872654      2.017825      1.025274
  H      -3.769559      0.044812      2.516778
  H      -1.915181      3.516380      0.834009
  H       0.226520      1.037766      3.641552
  H      -1.723670     -0.427314      3.822458
  C       0.374427      3.312886      2.066653
  N       1.538967      3.280804      2.760587
  H       1.673958      2.612950      3.511834
  H       2.066123      4.142515      2.856581
  H       0.190895      4.230912      1.521008
  H       1.636541      2.097950     -0.521130
  Cu      1.906177      2.504666      0.900300
18
Coordinates from ORCA-job ./orca E -1967.143421053861
  C      -2.975134      1.812801      1.592886
  C      -1.881673      2.653173      1.486318
  C      -0.714126      2.390292      2.224618
  C      -0.662557      1.266406      3.068982
  C      -1.760422      0.435154      3.170933
  C      -2.915406      0.704255      2.433175
  H      -3.872331      2.017806      1.024892
  H      -3.769599      0.045023      2.516756
  H      -1.914742      3.516143      0.833631
  H       0.226508      1.037490      3.641699
  H      -1.723789     -0.427236      3.822635
  C       0.374549      3.312691      2.066787
  N       1.539208      3.280980      2.761074
  H       1.674252      2.613323      3.512481
  H       2.066264      4.142738      2.857094
  H       0.190638      4.230508      1.520893
  H       1.634803      2.098172     -0.522099
  Cu      1.906016      2.504742      0.900285
18
Coordinates from ORCA-job ./orca E -1967.143424549518
  C      -2.974685      1.812776      1.592394
  C      -1.881274      2.653215      1.486148
  C      -0.713905      2.390320      2.224863
  C      -0.662474      1.266377      3.069296
  C      -1.760321      0.435140      3.170910
  C      -2.915109      0.704281      2.432778
  H      -3.871714      2.017693      1.024113
  H      -3.769335      0.045068      2.516162
  H      -1.914199      3.516142      0.833404
  H       0.226428      1.037376      3.642222
  H      -1.723845     -0.427266      3.822594
  C       0.374422      3.312792      2.067529
  N       1.539552      3.281342      2.761712
  H       1.675138      2.614040      3.513341
  H       2.066990      4.142915      2.857231
  H       0.190374      4.230011      1.520661
  H       1.631448      2.097798     -0.522702
  Cu      1.904969      2.504441      0.900383
18
Coordinates from ORCA-job ./orca E -1967.143354058355
  C      -2.972934      1.812083      1.590404
  C      -1.879295      2.652224      1.484141
  C      -0.712447      2.389734      2.223823
  C      -0.661796      1.266541      3.069300
  C      -1.759865      0.435598      3.170920
  C      -2.914116      0.704308      2.431790
  H      -3.869557      2.016680      1.021366
  H      -3.768522      0.045330      2.515192
  H      -1.911637      3.514597      0.830636
  H       0.226679      1.037885      3.643028
  H      -1.723985     -0.426237      3.823393
  C       0.376126      3.311912      2.066463
  N       1.541397      3.280970      2.762444
  H       1.676900      2.614411      3.514748
  H       2.069263      4.142334      2.857485
  H       0.192825      4.228765      1.518730
  H       1.611614      2.103642     -0.513203
  Cu      1.901812      2.503682      0.902381
18
Coordinates from ORCA-job ./orca E -1967.143355237691
  C      -2.972879      1.811950      1.590469
  C      -1.879207      2.652086      1.484137
  C      -0.712316      2.389616      2.223656
  C      -0.661835      1.266690      3.069400
  C      -1.759950      0.435734      3.171155
  C      -2.914146      0.704272      2.431969
  H      -3.869496      2.016513      1.021398
  H      -3.768575      0.045329      2.515460
  H      -1.911519      3.514366      0.830508
  H       0.226609      1.038225      3.643249
  H      -1.724116     -0.425953      3.823832
  C       0.376609      3.311666      2.065994
  N       1.541161      3.280604      2.762432
  H       1.675886      2.613926      3.514697
  H       2.068643      4.142083      2.858067
  H       0.193452      4.228939      1.518979
  H       1.611761      2.104559     -0.514377
  Cu      1.902377      2.503856      0.902016
18
Coordinates from ORCA-job ./orca E -1967.143270440046
  C      -2.971149      1.811259      1.588494
  C      -1.877249      2.651094      1.482135
  C      -0.710871      2.389028      2.222608
  C      -0.661164      1.266850      3.069393
  C      -1.759502      0.436191      3.171163
  C      -2.913167      0.704300      2.430992
  H      -3.867364      2.015504      1.018676
  H      -3.767776      0.045594      2.514509
  H      -1.908982      3.512822      0.827748
  H       0.226858      1.038729      3.644032
  H      -1.724258     -0.424926      3.824625
  C       0.378300      3.310781      2.064911
  N       1.543011      3.280223      2.763135
  H       1.677658      2.614285      3.516070
  H       2.070922      4.141493      2.858288
  H       0.195884      4.227687      1.517033
  H       1.592070      2.110450     -0.504757
  Cu      1.899239      2.503097      0.903985
18
Coordinates from ORCA-job ./orca E -1967.143282247094
  C      -2.971132      1.811070      1.588642
  C      -1.877064      2.650695      1.481932
  C      -0.710674      2.388683      2.222236
  C      -0.661200      1.266915      3.069410
  C      -1.759722      0.436423      3.171617
  C      -2.913366      0.704368      2.431477
  H      -3.867356      2.015327      1.018828
  H      -3.768086      0.045844      2.515287
  H      -1.908696      3.512186      0.827222
  H       0.226814      1.038907      3.644115
  H      -1.724563     -0.424416      3.825459
  C       0.379081      3.310217      2.064027
  N       1.542752      3.279687      2.763208
  H       1.676182      2.613519      3.516081
  H       2.069852      4.141274      2.859485
  H       0.196522      4.227840      1.517445
  H       1.592665      2.112255     -0.506833
  Cu      1.900450      2.503666      0.903403
18
Coordinates from ORCA-job ./orca E -1967.143291393956
  C      -2.970940      1.810568      1.588932
  C      -1.876023      2.648987      1.480644
  C      -0.709955      2.387369      2.221097
  C      -0.661158      1.266713      3.069282
  C      -1.760476      0.437143      3.173097
  C      -2.914110      0.704894      2.433173
  H      -3.867122      2.014986      1.019086
  H      -3.769331      0.047169      2.518022
  H      -1.907126      3.509551      0.824667
  H       0.226820      1.038572      3.644033
  H      -1.725667     -0.422783      3.828171
  C       0.381518      3.308222      2.061507
  N       1.542368      3.278452      2.764187
  H       1.672321      2.611766      3.517154
  H       2.066835      4.141235      2.863904
  H       0.197742      4.227775      1.518566
  H       1.592613      2.118169     -0.514196
  Cu      1.904152      2.505672      0.901713
18
Coordinates from ORCA-job ./orca E -1967.143297527285
  C      -2.970682      1.810561      1.588689
  C      -1.875696      2.648883      1.480457
  C      -0.709771      2.387229      2.221152
  C      -0.661104      1.266633      3.069449
  C      -1.760503      0.437178      3.173208
  C      -2.914044      0.704990      2.433113
  H      -3.866745      2.014966      1.018654
  H      -3.769363      0.047390      2.517970
  H      -1.906622      3.509298      0.824275
  H       0.226792      1.038270      3.644237
  H      -1.725786     -0.422720      3.828326
  C       0.381695      3.307987      2.061632
  N       1.542629      3.278657      2.764730
  H       1.672585      2.612215      3.517908
  H       2.066961      4.141512      2.864457
  H       0.197478      4.227336      1.518467
  H       1.590590      2.118396     -0.515318
  Cu      1.904045      2.505679      0.901634
18
Coordinates from ORCA-job ./orca E -1967.143302214567
  C      -2.970189      1.810594      1.588179
  C      -1.875243      2.648979      1.480331
  C      -0.709515      2.387263      2.221465
  C      -0.660981      1.266546      3.069748
  C      -1.760371      0.437108      3.173100
  C      -2.913715      0.705028      2.432643
  H      -3.866068      2.014946      1.017845
  H      -3.769087      0.047467      2.517276
  H      -1.906006      3.509384      0.824138
  H       0.226731      1.038016      3.644743
  H      -1.725808     -0.422861      3.828128
  C       0.381575      3.308063      2.062436
  N       1.543008      3.279187      2.765474
  H       1.673567      2.613236      3.518988
  H       2.067698      4.141890      2.864530
  H       0.197106      4.226710      1.518152
  H       1.586764      2.117693     -0.515890
  Cu      1.902994      2.505211      0.901755
18
Coordinates from ORCA-job ./orca E -1967.143212712946
  C      -2.968484      1.809905      1.586214
  C      -1.873308      2.647985      1.478331
  C      -0.708088      2.386672      2.220408
  C      -0.660322      1.266706      3.069726
  C      -1.759937      0.437568      3.173103
  C      -2.912756      0.705060      2.431673
  H      -3.863965      2.013938      1.015142
  H      -3.768310      0.047739      2.516338
  H      -1.903495      3.507834      0.821382
  H       0.226972      1.038519      3.645502
  H      -1.725960     -0.421829      3.828912
  C       0.383250      3.307169      2.061332
  N       1.544864      3.278801      2.766146
  H       1.675355      2.613593      3.520328
  H       2.069979      4.141302      2.864711
  H       0.199515      4.225452      1.516185
  H       1.567226      2.123617     -0.506085
  Cu      1.899925      2.504429      0.903694
18
Coordinates from ORCA-job ./orca E -1967.143215594738
  C      -2.968431      1.809783      1.586289
  C      -1.873238      2.647875      1.478348
  C      -0.707954      2.386568      2.220238
  C      -0.660348      1.266860      3.069811
  C      -1.760003      0.437705      3.173320
  C      -2.912766      0.705019      2.431835
  H      -3.863914      2.013779      1.015194
  H      -3.768331      0.047719      2.516578
  H      -1.903415      3.507641      0.821289
  H       0.226921      1.038873      3.645702
  H      -1.726069     -0.421550      3.829325
  C       0.383725      3.306939      2.060878
  N       1.544600      3.278441      2.766136
  H       1.674318      2.613121      3.520279
  H       2.069348      4.141044      2.865268
  H       0.200150      4.225624      1.516419
  H       1.567358      2.124469     -0.507196
  Cu      1.900506      2.504552      0.903327
18
Coordinates from ORCA-job ./orca E -1967.143110325194
  C      -2.966745      1.809095      1.584339
  C      -1.871322      2.646880      1.476354
  C      -0.706540      2.385974      2.219172
  C      -0.659696      1.267017      3.069778
  C      -1.759576      0.438164      3.173320
  C      -2.911821      0.705053      2.430876
  H      -3.861837      2.012774      1.012516
  H      -3.767568      0.047994      2.515659
  H      -1.900928      3.506091      0.818542
  H       0.227161      1.039371      3.646439
  H      -1.726224     -0.420519      3.830105
  C       0.385387      3.306041      2.059756
  N       1.546459      3.278046      2.766779
  H       1.676116      2.613467      3.521586
  H       2.071634      4.140446      2.865417
  H       0.202540      4.224361      1.514438
  H       1.547966      2.130436     -0.497271
  Cu      1.897454      2.503770      0.905236
18
Coordinates from ORCA-job ./orca E -1967.143159043102
  C      -2.966734      1.808909      1.584497
  C      -1.871152      2.646495      1.476173
  C      -0.706344      2.385636      2.218804
  C      -0.659725      1.267084      3.069790
  C      -1.759788      0.438394      3.173768
  C      -2.912015      0.705120      2.431364
  H      -3.861832      2.012593      1.012673
  H      -3.767866      0.048231      2.516427
  H      -1.900665      3.505470      0.818041
  H       0.227126      1.039561      3.646518
  H      -1.726518     -0.420011      3.830928
  C       0.386166      3.305489      2.058881
  N       1.546175      3.277506      2.766836
  H       1.674615      2.612694      3.521570
  H       2.070539      4.140216      2.866589
  H       0.203181      4.224526      1.514863
  H       1.548583      2.132242     -0.499303
  Cu      1.898713      2.504303      0.904620
18
Coordinates from ORCA-job ./orca E -1967.143137338878
  C      -2.966569      1.808407      1.584815
  C      -1.870139      2.644773      1.474875
  C      -0.705612      2.384287      2.217593
  C      -0.659645      1.266857      3.069594
  C      -1.760514      0.439120      3.175253
  C      -2.912767      0.705669      2.433116
  H      -3.861653      2.012256      1.012993
  H      -3.769133      0.049609      2.519274
  H      -1.899148      3.502821      0.815491
  H       0.227189      1.039230      3.646341
  H      -1.727592     -0.418352      3.833666
  C       0.388551      3.303535      2.056401
  N       1.545667      3.276237      2.767764
  H       1.670663      2.610850      3.522490
  H       2.067402      4.140096      2.870979
  H       0.204353      4.224497      1.516064
  H       1.548769      2.138309     -0.506443
  Cu      1.902637      2.506260      0.902776
18
Coordinates from ORCA-job ./orca E -1967.143135489414
  C      -2.966331      1.808450      1.584616
  C      -1.869861      2.644762      1.474792
  C      -0.705475      2.384241      2.217747
  C      -0.659598      1.266798      3.069765
  C      -1.760507      0.439111      3.175265
  C      -2.912671      0.705739      2.432983
  H      -3.861295      2.012289      1.012616
  H      -3.769098      0.049747      2.519066
  H      -1.898713      3.502696      0.815248
  H       0.227185      1.038895      3.646490
  H      -1.727633     -0.418409      3.833613
  C       0.388707      3.303363      2.056554
  N       1.545932      3.276544      2.768296
  H       1.670955      2.611466      3.523310
  H       2.067593      4.140476      2.871376
  H       0.204093      4.224076      1.515882
  H       1.546653      2.138147     -0.507321
  Cu      1.902524      2.506068      0.902743
18
Coordinates from ORCA-job ./orca E -1967.143141395527
  C      -2.965841      1.808592      1.584155
  C      -1.869454      2.645036      1.474833
  C      -0.705256      2.384404      2.218191
  C      -0.659447      1.266721      3.070040
  C      -1.760291      0.438956      3.174980
  C      -2.912269      0.705737      2.432363
  H      -3.860630      2.012411      1.011887
  H      -3.768701      0.049699      2.518086
  H      -1.898178      3.503038      0.815385
  H       0.227174      1.038575      3.646903
  H      -1.727504     -0.418765      3.833073
  C       0.388565      3.303504      2.057404
  N       1.546319      3.277293      2.769108
  H       1.671966      2.612883      3.524622
  H       2.068416      4.141064      2.871251
  H       0.203708      4.223372      1.515360
  H       1.542435      2.136707     -0.507590
  Cu      1.901448      2.505234      0.902990
18
Coordinates from ORCA-job ./orca E -1967.143032260009
  C      -2.964181      1.807905      1.582216
  C      -1.867563      2.644039      1.472841
  C      -0.703860      2.383807      2.217116
  C      -0.658807      1.266877      3.069992
  C      -1.759877      0.439417      3.174975
  C      -2.911344      0.705774      2.431411
  H      -3.858581      2.011408      1.009229
  H      -3.767959      0.049980      2.517181
  H      -1.895719      3.501484      0.812642
  H       0.227407      1.039071      3.647616
  H      -1.727668     -0.417730      3.833844
  C       0.390211      3.302598      2.056263
  N       1.548182      3.276893      2.769718
  H       1.673777      2.613227      3.525895
  H       2.070702      4.140468      2.871359
  H       0.206073      4.222104      1.513359
  H       1.523204      2.142707     -0.497481
  Cu      1.898461      2.504431      0.904866
18
Coordinates from ORCA-job ./orca E -1967.143038667758
  C      -2.964133      1.807755      1.582289
  C      -1.867484      2.643881      1.472812
  C      -0.703701      2.383646      2.216871
  C      -0.658820      1.267011      3.070045
  C      -1.759958      0.439581      3.175243
  C      -2.911374      0.705749      2.431632
  H      -3.858544      2.011218      1.009289
  H      -3.768014      0.050004      2.517531
  H      -1.895628      3.501230      0.812486
  H       0.227362      1.039448      3.647813
  H      -1.727812     -0.417369      3.834373
  C       0.390696      3.302347      2.055780
  N       1.547873      3.276465      2.769695
  H       1.672656      2.612624      3.525771
  H       2.069993      4.140138      2.871991
  H       0.206722      4.222305      1.513655
  H       1.523484      2.143797     -0.498662
  Cu      1.899141      2.504631      0.904426
18
Coordinates from ORCA-job ./orca E -1967.142915885280
  C      -2.962492      1.807070      1.580365
  C      -1.865613      2.642884      1.470826
  C      -0.702318      2.383047      2.215789
  C      -0.658187      1.267163      3.069986
  C      -1.759551      0.440041      3.175236
  C      -2.910463      0.705787      2.430691
  H      -3.856521      2.010219      1.006657
  H      -3.767286      0.050288      2.516644
  H      -1.893194      3.499676      0.809751
  H       0.227593      1.039939      3.648503
  H      -1.727978     -0.416335      3.835138
  C       0.392328      3.301437      2.054622
  N       1.549739      3.276056      2.770277
  H       1.674477      2.612956      3.527011
  H       2.072284      4.139533      2.872068
  H       0.209068      4.221032      1.511640
  H       1.504402      2.149837     -0.488435
  Cu      1.896171      2.503829      0.906272
18
Coordinates from ORCA-job ./orca E -1967.142897593923
  C      -2.962486      1.806874      1.580529
  C      -1.865455      2.642498      1.470652
  C      -0.702131      2.382721      2.215425
  C      -0.658221      1.267259      3.070014
  C      -1.759761      0.440295      3.175711
  C      -2.910651      0.705851      2.431193
  H      -3.856514      2.010002      1.006798
  H      -3.767570      0.050510      2.517426
  H      -1.892936      3.499028      0.809228
  H       0.227555      1.040177      3.648601
  H      -1.728267     -0.415791      3.836003
  C       0.393111      3.300888      2.053741
  N       1.549428      3.275463      2.770307
  H       1.672918      2.612098      3.526936
  H       2.071164      4.139239      2.873250
  H       0.209722      4.221229      1.512123
  H       1.505074      2.151767     -0.490485
  Cu      1.897482      2.504351      0.905588
18
Coordinates from ORCA-job ./orca E -1967.142937438348
  C      -2.962396      1.806384      1.580904
  C      -1.864519      2.640772      1.469357
  C      -0.701431      2.381368      2.214169
  C      -0.658111      1.266982      3.069721
  C      -1.760461      0.440982      3.177145
  C      -2.911432      0.706419      2.432998
  H      -3.856446      2.009686      1.007235
  H      -3.768875      0.051939      2.520394
  H      -1.891540      3.496396      0.806722
  H       0.227678      1.039799      3.648293
  H      -1.729298     -0.414169      3.838691
  C       0.395411      3.299007      2.051289
  N       1.548830      3.274200      2.771160
  H       1.668934      2.610224      3.527719
  H       2.067972      4.139086      2.877520
  H       0.210834      4.221276      1.513331
  H       1.505694      2.157906     -0.497277
  Cu      1.901617      2.506206      0.903670
18
Coordinates from ORCA-job ./orca E -1967.142863861232
  C      -2.962159      1.806449      1.580727
  C      -1.864263      2.640815      1.469344
  C      -0.701312      2.381363      2.214365
  C      -0.658079      1.266973      3.069929
  C      -1.760445      0.440985      3.177152
  C      -2.911314      0.706469      2.432832
  H      -3.856084      2.009738      1.006871
  H      -3.768794      0.052010      2.520097
  H      -1.891125      3.496329      0.806555
  H       0.227670      1.039489      3.648443
  H      -1.729302     -0.414247      3.838579
  C       0.395579      3.298832      2.051425
  N       1.549078      3.274514      2.771669
  H       1.669173      2.610869      3.528539
  H       2.068144      4.139478      2.877869
  H       0.210580      4.220837      1.513156
  H       1.503550      2.157650     -0.498110
  Cu      1.901565      2.505908      0.903597
18
Coordinates from ORCA-job ./orca E -1967.142939619627
  C      -2.961468      1.806774      1.580202
  C      -1.863772      2.641488      1.469871
  C      -0.701152      2.381896      2.215523
  C      -0.658034      1.267076      3.070700
  C      -1.760196      0.440735      3.176721
  C      -2.910709      0.706359      2.431775
  H      -3.855037      2.009980      1.005779
  H      -3.768018      0.051537      2.518058
  H      -1.890377      3.497098      0.807195
  H       0.227574      1.039020      3.649188
  H      -1.729042     -0.415087      3.837376
  C       0.395517      3.299038      2.052548
  N       1.549714      3.275716      2.772598
  H       1.670520      2.613243      3.530364
  H       2.069315      4.140509      2.877208
  H       0.210140      4.219876      1.512386
  H       1.497419      2.154930     -0.498306
  Cu      1.900065      2.504271      0.903855
18
Coordinates from ORCA-job ./orca E -1967.142812874863
  C      -2.959854      1.806090      1.578289
  C      -1.861926      2.640489      1.467887
  C      -0.699789      2.381294      2.214431
  C      -0.657413      1.267227      3.070625
  C      -1.759803      0.441197      3.176707
  C      -2.909818      0.706400      2.430843
  H      -3.853045      2.008981      1.003167
  H      -3.767309      0.051825      2.517186
  H      -1.887973      3.495539      0.804465
  H       0.227798      1.039509      3.649854
  H      -1.729217     -0.414051      3.838133
  C       0.397132      3.298120      2.051369
  N       1.551584      3.275303      2.773146
  H       1.672354      2.613574      3.531568
  H       2.071606      4.139906      2.877243
  H       0.212460      4.218597      1.510350
  H       1.478512      2.161010     -0.487888
  Cu      1.897161      2.503449      0.905667
18
Coordinates from ORCA-job ./orca E -1967.142820083769
  C      -2.959903      1.805829      1.578395
  C      -1.861830      2.640020      1.467472
  C      -0.699505      2.380797      2.213618
  C      -0.657268      1.267140      3.070224
  C      -1.759864      0.441397      3.177028
  C      -2.909960      0.706463      2.431352
  H      -3.853264      2.008801      1.003549
  H      -3.767635      0.052212      2.518309
  H      -1.887976      3.495012      0.803990
  H       0.227852      1.039970      3.649810
  H      -1.729458     -0.413324      3.839155
  C       0.397623      3.297764      2.050690
  N       1.551033      3.274627      2.773186
  H       1.670838      2.612443      3.531321
  H       2.070549      4.139367      2.878366
  H       0.213166      4.218859      1.510721
  H       1.479770      2.163019     -0.489298
  Cu      1.898291      2.504065      0.905153
18
Coordinates from ORCA-job ./orca E -1967.142821527690
  C      -2.959947      1.805522      1.578588
  C      -1.861570      2.639256      1.466813
  C      -0.699177      2.380203      2.212731
  C      -0.657160      1.267087      3.069864
  C      -1.760039      0.441717      3.177576
  C      -2.910244      0.706654      2.432183
  H      -3.853430      2.008526      1.003932
  H      -3.768128      0.052776      2.519817
  H      -1.887675      3.493936      0.802927
  H       0.227983      1.040253      3.649559
  H      -1.729775     -0.412467      3.840410
  C       0.398451      3.297255      2.049771
  N       1.550394      3.273863      2.773503
  H       1.668770      2.611163      3.531380
  H       2.069229      4.138841      2.880116
  H       0.214156      4.219204      1.511224
  H       1.480644      2.165910     -0.491713
  Cu      1.899979      2.504762      0.904361
18
Coordinates from ORCA-job ./orca E -1967.142828162152
  C      -2.959865      1.805437      1.578570
  C      -1.861343      2.638946      1.466516
  C      -0.699041      2.379986      2.212530
  C      -0.657113      1.267030      3.069821
  C      -1.760120      0.441832      3.177800
  C      -2.910338      0.706779      2.432455
  H      -3.853330      2.008452      1.003885
  H      -3.768336      0.053080      2.520307
  H      -1.887324      3.493424      0.802358
  H       0.228062      1.040076      3.649432
  H      -1.729903     -0.412224      3.840802
  C       0.398764      3.297028      2.049555
  N       1.550274      3.273790      2.773903
  H       1.668234      2.611039      3.531797
  H       2.068910      4.138840      2.880866
  H       0.214336      4.219137      1.511312
  H       1.480013      2.166952     -0.492896
  Cu      1.900577      2.504858      0.904028
18
Coordinates from ORCA-job ./orca E -1967.142823749958
  C      -2.959594      1.805481      1.578372
  C      -1.861070      2.639001      1.466548
  C      -0.698971      2.380077      2.212877
  C      -0.657117      1.267084      3.070136
  C      -1.760115      0.441840      3.177831
  C      -2.910204      0.706800      2.432252
  H      -3.852899      2.008438      1.003420
  H      -3.768196      0.053065      2.519875
  H      -1.886867      3.493358      0.802221
  H       0.228030      1.039791      3.649653
  H      -1.729904     -0.412349      3.840657
  C       0.398913      3.296954      2.049796
  N       1.550436      3.274159      2.774477
  H       1.668439      2.611732      3.532636
  H       2.069218      4.139155      2.881036
  H       0.214237      4.218779      1.511137
  H       1.477600      2.166795     -0.493705
  Cu      1.900524      2.504297      0.903819
18
Coordinates from ORCA-job ./orca E -1967.142687427984
  C      -2.958003      1.804800      1.576473
  C      -1.859245      2.638001      1.464569
  C      -0.697623      2.379472      2.211776
  C      -0.656506      1.267232      3.070050
  C      -1.759733      0.442304      3.177815
  C      -2.909331      0.706845      2.431330
  H      -3.850935      2.007445      1.000832
  H      -3.767507      0.053360      2.519021
  H      -1.884488      3.491798      0.799499
  H       0.228250      1.040275      3.650296
  H      -1.730085     -0.411310      3.841408
  C       0.400514      3.296029      2.048599
  N       1.552309      3.273740      2.774995
  H       1.670285      2.612057      3.533808
  H       2.071508      4.138550      2.881033
  H       0.216536      4.217494      1.509085
  H       1.458859      2.172906     -0.483145
  Cu      1.897656      2.503462      0.905596
18
Coordinates from ORCA-job ./orca E -1967.142694515023
  C      -2.957978      1.804740      1.576561
  C      -1.859199      2.637940      1.464637
  C      -0.697514      2.379345      2.211669
  C      -0.656518      1.267297      3.070128
  C      -1.759814      0.442400      3.178009
  C      -2.909375      0.706848      2.431497
  H      -3.850896      2.007373      1.000886
  H      -3.767580      0.053404      2.519251
  H      -1.884410      3.491648      0.799451
  H       0.228205      1.040405      3.650448
  H      -1.730201     -0.411117      3.841736
  C       0.400912      3.295720      2.048151
  N       1.552130      3.273499      2.774980
  H       1.669483      2.611777      3.533784
  H       2.070900      4.138449      2.881476
  H       0.216834      4.217488      1.509246
  H       1.459145      2.173684     -0.484121
  Cu      1.898334      2.503560      0.905252
18
Coordinates from ORCA-job ./orca E -1967.142535497844
  C      -2.956407      1.804060      1.574677
  C      -1.857395      2.636941      1.462663
  C      -0.696180      2.378737      2.210561
  C      -0.655913      1.267442      3.070029
  C      -1.759439      0.442862      3.177990
  C      -2.908515      0.706894      2.430585
  H      -3.848957      2.006384      0.998324
  H      -3.766905      0.053702      2.518415
  H      -1.882057      3.490088      0.796738
  H       0.228424      1.040883      3.651069
  H      -1.730384     -0.410081      3.842481
  C       0.402499      3.294791      2.046937
  N       1.554005      3.273072      2.775470
  H       1.671339      2.612092      3.534923
  H       2.073193      4.137836      2.881442
  H       0.219112      4.216199      1.507181
  H       1.440557      2.179832     -0.473445
  Cu      1.895482      2.502726      0.907000
18
Coordinates from ORCA-job ./orca E -1967.142542709900
  C      -2.956479      1.803925      1.574939
  C      -1.857291      2.636562      1.462503
  C      -0.695988      2.378338      2.210111
  C      -0.655903      1.267445      3.069945
  C      -1.759640      0.443082      3.178434
  C      -2.908751      0.707005      2.431165
  H      -3.849072      2.006283      0.998650
  H      -3.767266      0.054023      2.519350
  H      -1.881881      3.489461      0.796253
  H       0.228447      1.040959      3.650997
  H      -1.730642     -0.409577      3.843299
  C       0.403262      3.294144      2.045941
  N       1.553639      3.272520      2.775484
  H       1.669701      2.611327      3.534868
  H       2.071911      4.137629      2.882622
  H       0.219616      4.216254      1.507530
  H       1.441764      2.181851     -0.475436
  Cu      1.897034      2.503228      0.906384
18
Coordinates from ORCA-job ./orca E -1967.142562061800
  C      -2.956693      1.803724      1.575697
  C      -1.856616      2.635025      1.461419
  C      -0.695351      2.376921      2.208723
  C      -0.655661      1.266899      3.069262
  C      -1.760242      0.443597      3.179604
  C      -2.909635      0.707683      2.433104
  H      -3.849464      2.006460      0.999789
  H      -3.768708      0.055620      2.522566
  H      -1.880874      3.487133      0.794121
  H       0.228847      1.039979      3.649943
  H      -1.731408     -0.408304      3.845465
  C       0.405436      3.292082      2.043194
  N       1.552865      3.271558      2.776238
  H       1.665503      2.610067      3.535823
  H       2.068328      4.137927      2.886585
  H       0.220274      4.215857      1.508148
  H       1.444050      2.187518     -0.481533
  Cu      1.901809      2.504713      0.904893
18
Coordinates from ORCA-job ./orca E -1967.142494034123
  C      -2.956546      1.803839      1.575628
  C      -1.856419      2.635073      1.461412
  C      -0.695226      2.376865      2.208799
  C      -0.655580      1.266796      3.069295
  C      -1.760210      0.443558      3.179556
  C      -2.909582      0.707778      2.433034
  H      -3.849244      2.006611      0.999629
  H      -3.768715      0.055786      2.522452
  H      -1.880566      3.487102      0.794012
  H       0.228954      1.039531      3.649806
  H      -1.731367     -0.408443      3.845284
  C       0.405603      3.291889      2.043230
  N       1.553030      3.271912      2.776722
  H       1.665574      2.610805      3.536654
  H       2.068341      4.138378      2.886933
  H       0.220003      4.215391      1.507850
  H       1.442428      2.187199     -0.482177
  Cu      1.901982      2.504389      0.904921
18
Coordinates from ORCA-job ./orca E -1967.142565524354
  C      -2.956363      1.804521      1.575754
  C      -1.856162      2.635650      1.461758
  C      -0.694947      2.376965      2.209079
  C      -0.655137      1.266244      3.068877
  C      -1.759756      0.442997      3.178653
  C      -2.909309      0.707977      2.432556
  H      -3.849098      2.007659      0.999958
  H      -3.768513      0.056036      2.521701
  H      -1.880303      3.487969      0.794729
  H       0.229618      1.038101      3.648697
  H      -1.730726     -0.409674      3.843509
  C       0.405527      3.291945      2.043729
  N       1.553067      3.273532      2.777830
  H       1.665844      2.613912      3.539009
  H       2.068507      4.140065      2.886592
  H       0.219623      4.214134      1.506181
  H       1.438874      2.183767     -0.481575
  Cu      1.901713      2.502659      0.906002
18
Coordinates from ORCA-job ./orca E -1967.142404749303
  C      -2.954817      1.803844      1.573882
  C      -1.854382      2.634649      1.459790
  C      -0.693630      2.376355      2.207965
  C      -0.654543      1.266385      3.068767
  C      -1.759392      0.443458      3.178631
  C      -2.908468      0.708026      2.431652
  H      -3.847190      2.006673      0.997416
  H      -3.767857      0.056339      2.520878
  H      -1.877978      3.486407      0.792023
  H       0.229832      1.038572      3.649297
  H      -1.730915     -0.408638      3.844247
  C       0.407098      3.291007      2.042500
  N       1.554943      3.273105      2.778290
  H       1.667713      2.614230      3.540115
  H       2.070798      4.139459      2.886518
  H       0.221879      4.212839      1.504103
  H       1.420451      2.189946     -0.470746
  Cu      1.898917      2.501804      0.907713
18
Coordinates from ORCA-job ./orca E -1967.142405502750
  C      -2.954808      1.803548      1.573931
  C      -1.854380      2.634386      1.459630
  C      -0.693449      2.376070      2.207418
  C      -0.654524      1.266563      3.068696
  C      -1.759477      0.443764      3.179070
  C      -2.908499      0.707976      2.431995
  H      -3.847250      2.006289      0.997519
  H      -3.767946      0.056415      2.521571
  H      -1.878027      3.486002      0.791692
  H       0.229796      1.039268      3.649515
  H      -1.731124     -0.407890      3.845266
  C       0.407598      3.290703      2.041872
  N       1.554475      3.272313      2.778237
  H       1.666238      2.612995      3.539786
  H       2.069981      4.138716      2.887460
  H       0.222665      4.213157      1.504511
  H       1.421360      2.191990     -0.472236
  Cu      1.899831      2.502195      0.907107
18
Coordinates from ORCA-job ./orca E -1967.142414780622
  C      -2.954768      1.803161      1.574018
  C      -1.854137      2.633707      1.459097
  C      -0.693227      2.375677      2.206827
  C      -0.654535      1.266735      3.068667
  C      -1.759683      0.444179      3.179758
  C      -2.908686      0.708068      2.432685
  H      -3.847239      2.005787      0.997591
  H      -3.768227      0.056689      2.522679
  H      -1.877707      3.484967      0.790691
  H       0.229782      1.039846      3.649663
  H      -1.731485     -0.406939      3.846652
  C       0.408407      3.290255      2.041065
  N       1.553946      3.271377      2.778434
  H       1.664257      2.611533      3.539703
  H       2.068976      4.137896      2.888999
  H       0.223698      4.213581      1.505138
  H       1.421850      2.195249     -0.474789
  Cu      1.901238      2.502692      0.906164
18
Coordinates from ORCA-job ./orca E -1967.142421130180
  C      -2.954621      1.803020      1.573912
  C      -1.853902      2.633430      1.458861
  C      -0.693129      2.375540      2.206778
  C      -0.654560      1.266782      3.068813
  C      -1.759789      0.444325      3.180036
  C      -2.908725      0.708129      2.432853
  H      -3.847020      2.005594      0.997358
  H      -3.768330      0.056853      2.522942
  H      -1.877333      3.484483      0.790187
  H       0.229726      1.039852      3.649848
  H      -1.731668     -0.406654      3.847112
  C       0.408709      3.290062      2.040943
  N       1.553915      3.271221      2.778745
  H       1.663850      2.611330      3.540022
  H       2.068850      4.137758      2.889583
  H       0.223880      4.213553      1.505340
  H       1.420949      2.196483     -0.476016
  Cu      1.901658      2.502699      0.905722
18
Coordinates from ORCA-job ./orca E -1967.142416728823
  C      -2.954308      1.802969      1.573631
  C      -1.853520      2.633281      1.458687
  C      -0.692991      2.375489      2.207010
  C      -0.654554      1.266768      3.069111
  C      -1.759841      0.444367      3.180166
  C      -2.908642      0.708189      2.432747
  H      -3.846549      2.005501      0.996826
  H      -3.768316      0.056992      2.522757
  H      -1.876744      3.484180      0.789804
  H       0.229616      1.039618      3.650239
  H      -1.731820     -0.406610      3.847243
  C       0.408869      3.289941      2.041224
  N       1.554087      3.271455      2.779324
  H       1.664088      2.611802      3.540793
  H       2.069155      4.137939      2.889863
  H       0.223734      4.213223      1.505351
  H       1.418528      2.197048     -0.477069
  Cu      1.901668      2.502307      0.905336
18
Coordinates from ORCA-job ./orca E -1967.142253574876
  C      -2.952786      1.802294      1.571773
  C      -1.851763      2.632279      1.456722
  C      -0.691690      2.374874      2.205887
  C      -0.653971      1.266906      3.068989
  C      -1.759490      0.444830      3.180140
  C      -2.907820      0.708242      2.431854
  H      -3.844670      2.004520      0.994307
  H      -3.767680      0.057303      2.521951
  H      -1.874446      3.482615      0.787105
  H       0.229823      1.040084      3.650816
  H      -1.732019     -0.405572      3.847975
  C       0.410426      3.288995      2.039976
  N       1.555967      3.271021      2.779752
  H       1.665974      2.612116      3.541868
  H       2.071443      4.137333      2.889747
  H       0.225969      4.211921      1.503256
  H       1.400288      2.203260     -0.466092
  Cu      1.898907      2.501437      0.907013
18
Coordinates from ORCA-job ./orca E -1967.142248992231
  C      -2.952828      1.802256      1.571947
  C      -1.851726      2.632136      1.456701
  C      -0.691546      2.374635      2.205606
  C      -0.653934      1.266891      3.068923
  C      -1.759564      0.444919      3.180337
  C      -2.907927      0.708307      2.432162
  H      -3.844745      2.004513      0.994537
  H      -3.767864      0.057493      2.522466
  H      -1.874386      3.482365      0.786946
  H       0.229854      1.040117      3.650771
  H      -1.732115     -0.405353      3.848344
  C       0.410825      3.288628      2.039427
  N       1.555673      3.270752      2.779759
  H       1.664992      2.611789      3.541848
  H       2.070642      4.137230      2.890305
  H       0.226270      4.211876      1.503361
  H       1.401051      2.204308     -0.467110
  Cu      1.899791      2.501598      0.906710
18
Coordinates from ORCA-job ./orca E -1967.142069683569
  C      -2.951326      1.801584      1.570104
  C      -1.849989      2.631135      1.454743
  C      -0.690258      2.374018      2.204478
  C      -0.653358      1.267026      3.068789
  C      -1.759220      0.445380      3.180309
  C      -2.907119      0.708361      2.431280
  H      -3.842892      2.003537      0.992044
  H      -3.767242      0.057806      2.521679
  H      -1.872114      3.480801      0.784257
  H       0.230060      1.040578      3.651327
  H      -1.732315     -0.404317      3.849070
  C       0.412368      3.287678      2.038164
  N       1.557554      3.270312      2.780159
  H       1.666886      2.612094      3.542890
  H       2.072933      4.136617      2.890158
  H       0.228484      4.210570      1.501254
  H       1.382966      2.210552     -0.456022
  Cu      1.897043      2.500729      0.908358
18
Coordinates from ORCA-job ./orca E -1967.142054135410
  C      -2.951508      1.801502      1.570504
  C      -1.849949      2.630721      1.454541
  C      -0.690051      2.373526      2.203840
  C      -0.653275      1.266930      3.068499
  C      -1.759382      0.445568      3.180705
  C      -2.907417      0.708532      2.432006
  H      -3.843199      2.003566      0.992661
  H      -3.767713      0.058276      2.522924
  H      -1.872048      3.480144      0.783738
  H       0.230226      1.040495      3.650921
  H      -1.732486     -0.403850      3.849833
  C       0.413130      3.286972      2.037010
  N       1.557020      3.269778      2.780202
  H       1.664954      2.611388      3.542902
  H       2.071408      4.136455      2.891421
  H       0.229012      4.210551      1.501429
  H       1.384859      2.212728     -0.457979
  Cu      1.898880      2.501179      0.907881
18
Coordinates from ORCA-job ./orca E -1967.142089534197
  C      -2.952119      1.801570      1.571755
  C      -1.849548      2.629203      1.453440
  C      -0.689397      2.371873      2.201909
  C      -0.652761      1.265970      3.067043
  C      -1.759817      0.445887      3.181568
  C      -2.908508      0.709426      2.434352
  H      -3.844267      2.004274      0.994804
  H      -3.769493      0.060342      2.527003
  H      -1.871481      3.477913      0.781710
  H       0.231193      1.038749      3.648520
  H      -1.732880     -0.402903      3.851511
  C       0.415188      3.284840      2.033875
  N       1.555728      3.269113      2.781056
  H       1.660009      2.610704      3.544174
  H       2.067161      4.137108      2.895368
  H       0.229658      4.209886      1.501291
  H       1.389365      2.218167     -0.463406
  Cu      1.904429      2.502336      0.907067
18
Coordinates from ORCA-job ./orca E -1967.142017689054
  C      -2.952042      1.801777      1.571793
  C      -1.849458      2.629399      1.453586
  C      -0.689322      2.371897      2.202020
  C      -0.652665      1.265879      3.067018
  C      -1.759730      0.445806      3.181419
  C      -2.908434      0.709506      2.434243
  H      -3.844138      2.004531      0.994797
  H      -3.769439      0.060431      2.526787
  H      -1.871332      3.478090      0.781827
  H       0.231392      1.038221      3.648167
  H      -1.732708     -0.403182      3.851101
  C       0.415349      3.284662      2.033835
  N       1.555834      3.269565      2.781518
  H       1.659930      2.611658      3.545117
  H       2.067146      4.137673      2.895564
  H       0.229407      4.209368      1.500810
  H       1.387983      2.217412     -0.463801
  Cu      1.904687      2.501766      0.907239
18
Coordinates from ORCA-job ./orca E -1967.142090571417
  C      -2.952257      1.803230      1.572651
  C      -1.849686      2.630890      1.454770
  C      -0.689203      2.372410      2.202452
  C      -0.651946      1.265149      3.065989
  C      -1.758790      0.444750      3.179560
  C      -2.908003      0.709675      2.433448
  H      -3.844621      2.006696      0.996352
  H      -3.768894      0.060352      2.525370
  H      -1.871889      3.480327      0.783963
  H       0.232759      1.035956      3.645537
  H      -1.731098     -0.405610      3.847462
  C       0.415339      3.284729      2.033900
  N       1.555531      3.272272      2.782955
  H       1.659233      2.617059      3.548929
  H       2.066991      4.140578      2.894550
  H       0.229182      4.207414      1.497453
  H       1.384790      2.210345     -0.461914
  Cu      1.905020      2.498238      0.909611
18
Coordinates from ORCA-job ./orca E -1967.142089926352
  C      -2.952042      1.802733      1.572177
  C      -1.849537      2.630499      1.454314
  C      -0.689101      2.372218      2.202156
  C      -0.652003      1.265269      3.066104
  C      -1.758925      0.445061      3.180017
  C      -2.907956      0.709594      2.433495
  H      -3.844370      2.006005      0.995740
  H      -3.768901      0.060377      2.525654
  H      -1.871732      3.479859      0.783422
  H       0.232456      1.036817      3.646322
  H      -1.731539     -0.404762      3.848615
  C       0.415153      3.284937      2.034274
  N       1.555530      3.271545      2.782782
  H       1.659570      2.615547      3.548073
  H       2.067371      4.139594      2.894818
  H       0.229333      4.207959      1.498282
  H       1.384669      2.212142     -0.462198
  Cu      1.904484      2.499066      0.908993
18
Coordinates from ORCA-job ./orca E -1967.141897715880
  C      -2.950565      1.802063      1.570347
  C      -1.847822      2.629496      1.452362
  C      -0.687830      2.371596      2.201024
  C      -0.651436      1.265396      3.065962
  C      -1.758591      0.445519      3.179987
  C      -2.907166      0.709650      2.432621
  H      -3.842546      2.005034      0.993267
  H      -3.768298      0.060695      2.524880
  H      -1.869487      3.478294      0.780741
  H       0.232659      1.037266      3.646862
  H      -1.731744     -0.403730      3.849337
  C       0.416681      3.283978      2.032999
  N       1.557413      3.271105      2.783154
  H       1.661479      2.615858      3.549085
  H       2.069657      4.138989      2.894634
  H       0.231526      4.206645      1.496166
  H       1.366744      2.218426     -0.450991
  Cu      1.901786      2.498179      0.910601
18
Coordinates from ORCA-job ./orca E -1967.141897616379
  C      -2.950616      1.801800      1.570501
  C      -1.847762      2.629069      1.452084
  C      -0.687639      2.371201      2.200430
  C      -0.651424      1.265472      3.065863
  C      -1.758733      0.445785      3.180461
  C      -2.907342      0.709724      2.433193
  H      -3.842672      2.004731      0.993504
  H      -3.768595      0.060994      2.525908
  H      -1.869413      3.477629      0.780162
  H       0.232677      1.037678      3.646884
  H      -1.731987     -0.403073      3.850319
  C       0.417207      3.283592      2.032265
  N       1.556898      3.270354      2.783097
  H       1.659918      2.614682      3.548708
  H       2.068630      4.138332      2.895652
  H       0.232215      4.206930      1.496606
  H       1.368142      2.220847     -0.452594
  Cu      1.902954      2.498712      0.909997
18
Coordinates from ORCA-job ./orca E -1967.141872394477
  C      -2.950686      1.801458      1.570740
  C      -1.847496      2.628207      1.451441
  C      -0.687402      2.370617      2.199712
  C      -0.651409      1.265462      3.065706
  C      -1.759021      0.446174      3.181214
  C      -2.907718      0.709959      2.434170
  H      -3.842802      2.004363      0.993812
  H      -3.769185      0.061609      2.527550
  H      -1.868998      3.476288      0.778891
  H       0.232781      1.037818      3.646665
  H      -1.732395     -0.402180      3.851725
  C       0.418061      3.282969      2.031224
  N       1.556279      3.269459      2.783280
  H       1.657749      2.613262      3.548600
  H       2.067271      4.137673      2.897328
  H       0.233037      4.207259      1.497240
  H       1.369551      2.224660     -0.455315
  Cu      1.904845      2.499401      0.909059
18
Coordinates from ORCA-job ./orca E -1967.141900169736
  C      -2.950647      1.801320      1.570739
  C      -1.847246      2.627721      1.450988
  C      -0.687232      2.370226      2.199348
  C      -0.651339      1.265296      3.065577
  C      -1.759161      0.446327      3.181545
  C      -2.907914      0.710172      2.434631
  H      -3.842772      2.004262      0.993833
  H      -3.769567      0.062137      2.528416
  H      -1.868618      3.475543      0.778112
  H       0.232869      1.037529      3.646468
  H      -1.732628     -0.401804      3.852348
  C       0.418375      3.282628      2.030907
  N       1.556118      3.269267      2.783642
  H       1.657123      2.612942      3.548902
  H       2.066809      4.137580      2.898203
  H       0.233060      4.207158      1.497422
  H       1.369521      2.226461     -0.456674
  Cu      1.905709      2.499697      0.908633
18
Coordinates from ORCA-job ./orca E -1967.141909775733
  C      -2.950427      1.801395      1.570581
  C      -1.847060      2.627869      1.451118
  C      -0.687189      2.370344      2.199693
  C      -0.651350      1.265361      3.065872
  C      -1.759143      0.446309      3.181517
  C      -2.907768      0.710154      2.434374
  H      -3.842406      2.004282      0.993441
  H      -3.769400      0.062054      2.527916
  H      -1.868302      3.475635      0.778165
  H       0.232814      1.037288      3.646713
  H      -1.732609     -0.401962      3.852133
  C       0.418491      3.282545      2.031118
  N       1.556298      3.269612      2.784088
  H       1.657352      2.613673      3.549679
  H       2.067151      4.137893      2.898174
  H       0.232873      4.206775      1.497223
  H       1.367438      2.226199     -0.457226
  Cu      1.905697      2.499033      0.908460
18
Coordinates from ORCA-job ./orca E -1967.141713368876
  C      -2.948973      1.800729      1.568765
  C      -1.845368      2.626866      1.449172
  C      -0.685933      2.369719      2.198554
  C      -0.650794      1.265486      3.065719
  C      -1.758821      0.446769      3.181485
  C      -2.906997      0.710215      2.433510
  H      -3.840610      2.003318      0.990992
  H      -3.768817      0.062380      2.527158
  H      -1.866082      3.474069      0.775493
  H       0.233012      1.037732      3.647232
  H      -1.732823     -0.400927      3.852849
  C       0.420006      3.281577      2.029827
  N       1.558183      3.269168      2.784431
  H       1.659277      2.613982      3.550663
  H       2.069433      4.137290      2.897950
  H       0.235046      4.205455      1.495092
  H       1.349690      2.232502     -0.445886
  Cu      1.903030      2.498130      0.910034
18
Coordinates from ORCA-job ./orca E -1967.141705998877
  C      -2.949089      1.800775      1.569048
  C      -1.845403      2.626797      1.449188
  C      -0.685788      2.369494      2.198177
  C      -0.650667      1.265404      3.065440
  C      -1.758792      0.446787      3.181527
  C      -2.907080      0.710278      2.433812
  H      -3.840853      2.003495      0.991507
  H      -3.768972      0.062568      2.527708
  H      -1.866195      3.473999      0.775510
  H       0.233171      1.037720      3.646924
  H      -1.732763     -0.400808      3.853025
  C       0.420400      3.281228      2.029193
  N       1.557758      3.268994      2.784475
  H       1.658045      2.613856      3.550791
  H       2.068496      4.137295      2.898488
  H       0.235424      4.205362      1.494976
  H       1.350722      2.233116     -0.446688
  Cu      1.904046      2.498100      0.909940
18
Coordinates from ORCA-job ./orca E -1967.141487583297
  C      -2.947655      1.800111      1.567247
  C      -1.843731      2.625795      1.447249
  C      -0.684546      2.368867      2.197031
  C      -0.650117      1.265526      3.065276
  C      -1.758476      0.447245      3.181493
  C      -2.906322      0.710340      2.432959
  H      -3.839082      2.002535      0.989083
  H      -3.768402      0.062896      2.526968
  H      -1.864001      3.472435      0.772848
  H       0.233368      1.038158      3.647422
  H      -1.732977     -0.399777      3.853735
  C       0.421901      3.280257      2.027886
  N       1.559644      3.268544      2.784791
  H       1.659979      2.614157      3.551744
  H       2.070779      4.136686      2.898233
  H       0.237577      4.204038      1.492834
  H       1.333131      2.239448     -0.435242
  Cu      1.901391      2.497199      0.911484
18
Coordinates from ORCA-job ./orca E -1967.141543194206
  C      -2.947955      1.800176      1.567833
  C      -1.843810      2.625511      1.447150
  C      -0.684349      2.368392      2.196290
  C      -0.649934      1.265343      3.064745
  C      -1.758520      0.447332      3.181693
  C      -2.906615      0.710536      2.433711
  H      -3.839607      2.002816      0.990076
  H      -3.768853      0.063386      2.528272
  H      -1.864155      3.472007      0.772564
  H       0.233734      1.037900      3.646591
  H      -1.732923     -0.399518      3.854159
  C       0.422654      3.279568      2.026595
  N       1.558927      3.268181      2.784874
  H       1.657708      2.613795      3.551945
  H       2.069035      4.136717      2.899434
  H       0.238173      4.203940      1.492684
  H       1.335492      2.240999     -0.436883
  Cu      1.903456      2.497377      0.911307
18
Coordinates from ORCA-job ./orca E -1967.141516258801
  C      -2.949037      1.800831      1.569817
  C      -1.843852      2.624460      1.446407
  C      -0.683714      2.366725      2.193869
  C      -0.649008      1.263970      3.062263
  C      -1.758501      0.447264      3.181802
  C      -2.907716      0.711573      2.436197
  H      -3.841528      2.004546      0.993703
  H      -3.770638      0.065630      2.532699
  H      -1.864410      3.470620      0.771387
  H       0.235525      1.035363      3.642371
  H      -1.732482     -0.399349      3.854565
  C       0.424636      3.277470      2.022945
  N       1.556927      3.268223      2.785911
  H       1.651503      2.614476      3.553981
  H       2.063928      4.138179      2.903182
  H       0.238974      4.202887      1.491273
  H       1.341931      2.244011     -0.441027
  Cu      1.909921      2.497581      0.911694
18
Coordinates from ORCA-job ./orca E -1967.141428843402
  C      -2.949054      1.801134      1.569972
  C      -1.843861      2.624775      1.446644
  C      -0.683661      2.366776      2.193922
  C      -0.648834      1.263781      3.062030
  C      -1.758348      0.447114      3.181519
  C      -2.907663      0.711685      2.436112
  H      -3.841549      2.004949      0.993914
  H      -3.770605      0.065759      2.532545
  H      -1.864414      3.470969      0.771659
  H       0.235922      1.034618      3.641600
  H      -1.732175     -0.399781      3.853918
  C       0.424766      3.277334      2.022842
  N       1.556942      3.268837      2.786410
  H       1.651247      2.615708      3.555076
  H       2.063837      4.138923      2.903314
  H       0.238715      4.202336      1.490555
  H       1.340868      2.242718     -0.441088
  Cu      1.910326      2.496825      0.912098
18
Coordinates from ORCA-job ./orca E -1967.141514404303
  C      -2.950235      1.804222      1.572520
  C      -1.844816      2.627532      1.448816
  C      -0.683483      2.367307      2.193681
  C      -0.647095      1.261744      3.058668
  C      -1.756452      0.444925      3.177702
  C      -2.907369      0.712375      2.435554
  H      -3.843688      2.009769      0.998603
  H      -3.770327      0.066425      2.531745
  H      -1.866266      3.475188      0.775683
  H       0.239446      1.029230      3.634187
  H      -1.728724     -0.404604      3.846694
  C       0.424915      3.277132      2.021758
  N       1.555522      3.274143      2.789077
  H       1.647990      2.626143      3.562355
  H       2.062000      4.144983      2.902028
  H       0.238455      4.198601      1.483462
  H       1.339550      2.228996     -0.436997
  Cu      1.913037      2.490348      0.917505
18
Coordinates from ORCA-job ./orca E -1967.141516698704
  C      -2.949482      1.802571      1.570979
  C      -1.844282      2.626226      1.447653
  C      -0.683474      2.367046      2.193697
  C      -0.647876      1.262756      3.060294
  C      -1.757279      0.446046      3.179562
  C      -2.907315      0.711945      2.435574
  H      -3.842473      2.007222      0.996003
  H      -3.770248      0.065980      2.531868
  H      -1.865382      3.473311      0.773813
  H       0.237680      1.032307      3.638130
  H      -1.730451     -0.402027      3.850438
  C       0.424570      3.277513      2.022770
  N       1.556198      3.271473      2.787879
  H       1.649942      2.620834      3.558776
  H       2.063401      4.141678      2.902489
  H       0.238651      4.200495      1.486922
  H       1.339240      2.235667     -0.438645
  Cu      1.911039      2.493418      0.914839
18
Coordinates from ORCA-job ./orca E -1967.141515012359
  C      -2.949171      1.802101      1.570474
  C      -1.844047      2.625884      1.447305
  C      -0.683430      2.367034      2.193763
  C      -0.648086      1.263092      3.060833
  C      -1.757454      0.446357      3.180062
  C      -2.907214      0.711820      2.435501
  H      -3.841994      2.006448      0.995124
  H      -3.770115      0.065804      2.531738
  H      -1.865032      3.472798      0.773255
  H       0.237220      1.033252      3.639281
  H      -1.730902     -0.401330      3.851440
  C       0.424455      3.277734      2.023255
  N       1.556346      3.270787      2.787720
  H       1.650446      2.619496      3.558008
  H       2.064013      4.140686      2.902582
  H       0.238844      4.200995      1.487798
  H       1.338277      2.237528     -0.439168
  Cu      1.910305      2.493975      0.914068
18
Coordinates from ORCA-job ./orca E -1967.141285694964
  C      -2.947760      1.801440      1.568686
  C      -1.842397      2.624880      1.445373
  C      -0.682201      2.366400      2.192616
  C      -0.647542      1.263204      3.060664
  C      -1.757146      0.446809      3.180029
  C      -2.906472      0.711883      2.434658
  H      -3.840252      2.005496      0.992719
  H      -3.769561      0.066136      2.531012
  H      -1.862865      3.471233      0.770602
  H       0.237417      1.033676      3.639767
  H      -1.731118     -0.400306      3.852148
  C       0.425943      3.276753      2.021940
  N       1.558230      3.270338      2.788012
  H       1.652388      2.619804      3.558932
  H       2.066290      4.140084      2.902297
  H       0.240977      4.199662      1.485652
  H       1.320836      2.243909     -0.427637
  Cu      1.907694      2.493062      0.915570
18
Coordinates from ORCA-job ./orca E -1967.141288424171
  C      -2.947827      1.801245      1.568878
  C      -1.842371      2.624545      1.445218
  C      -0.682072      2.366098      2.192191
  C      -0.647563      1.263308      3.060648
  C      -1.757283      0.447026      3.180441
  C      -2.906635      0.711935      2.435160
  H      -3.840373      2.005275      0.992973
  H      -3.769816      0.066361      2.531869
  H      -1.862814      3.470675      0.770159
  H       0.237413      1.033986      3.639810
  H      -1.731300     -0.399811      3.852921
  C       0.426471      3.276353      2.021193
  N       1.557774      3.269703      2.787923
  H       1.650917      2.618860      3.558614
  H       2.065298      4.139572      2.903142
  H       0.241575      4.199876      1.486024
  H       1.322196      2.246038     -0.429144
  Cu      1.908870      2.493415      0.915022
18
Coordinates from ORCA-job ./orca E -1967.141310988588
  C      -2.947954      1.801000      1.569230
  C      -1.842145      2.623735      1.444681
  C      -0.681865      2.365517      2.191543
  C      -0.647524      1.263238      3.060451
  C      -1.757566      0.447357      3.181129
  C      -2.907043      0.712190      2.436164
  H      -3.840581      2.005087      0.993459
  H      -3.770443      0.067005      2.533522
  H      -1.862452      3.469406      0.769024
  H       0.237538      1.033913      3.639500
  H      -1.731649     -0.399052      3.854154
  C       0.427411      3.275592      2.019971
  N       1.557131      3.268924      2.788082
  H       1.648609      2.617687      3.558595
  H       2.063702      4.139143      2.904773
  H       0.242253      4.200076      1.486585
  H       1.323927      2.249694     -0.431930
  Cu      1.911114      2.493949      0.914108
18
Coordinates from ORCA-job ./orca E -1967.141295032303
  C      -2.947925      1.800975      1.569268
  C      -1.841966      2.623463      1.444433
  C      -0.681734      2.365254      2.191320
  C      -0.647444      1.263099      3.060336
  C      -1.757636      0.447438      3.181305
  C      -2.907158      0.712350      2.436451
  H      -3.840559      2.005123      0.993526
  H      -3.770683      0.067375      2.534054
  H      -1.862182      3.468972      0.768570
  H       0.237640      1.033586      3.639287
  H      -1.731751     -0.398869      3.854462
  C       0.427674      3.275295      2.019707
  N       1.557016      3.268902      2.788405
  H       1.648117      2.617688      3.558976
  H       2.063305      4.139237      2.905391
  H       0.242157      4.199892      1.486635
  H       1.323712      2.250688     -0.432908
  Cu      1.911877      2.493993      0.913821
18
Coordinates from ORCA-job ./orca E -1967.141302510398
  C      -2.947728      1.801100      1.569138
  C      -1.841774      2.623616      1.444510
  C      -0.681638      2.365312      2.191534
  C      -0.647372      1.263065      3.060454
  C      -1.757564      0.447390      3.181200
  C      -2.907009      0.712374      2.436211
  H      -3.840268      2.005253      0.993255
  H      -3.770537      0.067382      2.533638
  H      -1.861900      3.469118      0.768643
  H       0.237672      1.033251      3.639340
  H      -1.731673     -0.399049      3.854193
  C       0.427770      3.275214      2.019930
  N       1.557154      3.269334      2.788934
  H       1.648303      2.618531      3.559853
  H       2.063575      4.139650      2.905449
  H       0.241860      4.199458      1.486358
  H       1.321591      2.250153     -0.433305
  Cu      1.911997      2.493307      0.913706
18
Coordinates from ORCA-job ./orca E -1967.141067841431
  C      -2.946340      1.800443      1.567364
  C      -1.840145      2.622612      1.442584
  C      -0.680425      2.364675      2.190381
  C      -0.646838      1.263175      3.060273
  C      -1.757266      0.447843      3.181163
  C      -2.906284      0.712441      2.435377
  H      -3.838554      2.004306      0.990874
  H      -3.770001      0.067720      2.532928
  H      -1.859759      3.467554      0.766000
  H       0.237865      1.033669      3.639804
  H      -1.731895     -0.398025      3.854895
  C       0.429243      3.274227      2.018599
  N       1.559039      3.268882      2.789197
  H       1.650259      2.618837      3.560748
  H       2.065847      4.139051      2.905125
  H       0.243971      4.198121      1.484199
  H       1.304327      2.256549     -0.421644
  Cu      1.909415      2.492380      0.915173
18
Coordinates from ORCA-job ./orca E -1967.141070192993
  C      -2.946505      1.800509      1.567729
  C      -1.840211      2.622519      1.442570
  C      -0.680263      2.364400      2.189878
  C      -0.646671      1.263049      3.059879
  C      -1.757209      0.447848      3.181186
  C      -2.906395      0.712542      2.435779
  H      -3.838892      2.004533      0.991556
  H      -3.770205      0.067988      2.533668
  H      -1.859934      3.467462      0.765987
  H       0.238124      1.033608      3.639290
  H      -1.731785     -0.397912      3.855056
  C       0.429654      3.273879      2.017874
  N       1.558472      3.268691      2.789244
  H       1.648758      2.618676      3.560865
  H       2.064732      4.139048      2.905749
  H       0.244454      4.198053      1.484017
  H       1.305736      2.257218     -0.422435
  Cu      1.910600      2.492348      0.915147
18
Coordinates from ORCA-job ./orca E -1967.141072863804
  C      -2.946999      1.800893      1.568729
  C      -1.840307      2.622242      1.442411
  C      -0.679942      2.363759      2.188779
  C      -0.646173      1.262455      3.058656
  C      -1.757051      0.447732      3.181049
  C      -2.906774      0.712956      2.436804
  H      -3.839821      2.005433      0.993401
  H      -3.770828      0.068855      2.535482
  H      -1.860230      3.467156      0.765789
  H       0.239060      1.032609      3.637256
  H      -1.731385     -0.398010      3.854936
  C       0.430563      3.273087      2.016273
  N       1.557264      3.268821      2.789751
  H       1.645487      2.619204      3.561907
  H       2.062306      4.139735      2.907238
  H       0.245227      4.197627      1.483119
  H       1.308517      2.257971     -0.424006
  Cu      1.913547      2.491935      0.915466
18
Coordinates from ORCA-job ./orca E -1967.141076480483
  C      -2.947136      1.801140      1.569026
  C      -1.840325      2.622293      1.442424
  C      -0.679843      2.363596      2.188496
  C      -0.645950      1.262172      3.058188
  C      -1.756923      0.447614      3.180848
  C      -2.906847      0.713127      2.437008
  H      -3.840085      2.005885      0.993968
  H      -3.770993      0.069179      2.535893
  H      -1.860296      3.467232      0.765830
  H       0.239505      1.031950      3.636312
  H      -1.731126     -0.398257      3.854570
  C       0.430758      3.272875      2.015927
  N       1.556974      3.269223      2.790189
  H       1.644706      2.619992      3.562732
  H       2.061779      4.140278      2.907635
  H       0.245217      4.197214      1.482490
  H       1.308634      2.257499     -0.424272
  Cu      1.914411      2.491448      0.915778
18
Coordinates from ORCA-job ./orca E -1967.141073674865
  C      -2.947139      1.801436      1.569151
  C      -1.840277      2.622519      1.442506
  C      -0.679749      2.363579      2.188426
  C      -0.645713      1.261907      3.057834
  C      -1.756707      0.447438      3.180517
  C      -2.906774      0.713264      2.436936
  H      -3.840144      2.006333      0.994236
  H      -3.770972      0.069390      2.535847
  H      -1.860278      3.467546      0.766025
  H       0.239947      1.031247      3.635470
  H      -1.730792     -0.398660      3.853943
  C       0.430761      3.272842      2.015995
  N       1.556844      3.269902      2.790840
  H       1.644454      2.621236      3.563894
  H       2.061801      4.140946      2.907747
  H       0.245010      4.196628      1.481659
  H       1.307424      2.256346     -0.424173
  Cu      1.914766      2.490561      0.916188
18
Coordinates from ORCA-job ./orca E -1967.140829361247
  C      -2.945772      1.800781      1.567391
  C      -1.838670      2.621516      1.440588
  C      -0.678550      2.362939      2.187269
  C      -0.645185      1.262009      3.057645
  C      -1.756417      0.447887      3.180479
  C      -2.906063      0.713332      2.436113
  H      -3.838457      2.005393      0.991878
  H      -3.770451      0.069732      2.535152
  H      -1.858164      3.465983      0.763392
  H       0.240139      1.031654      3.635917
  H      -1.731015     -0.397642      3.854641
  C       0.432220      3.271848      2.014652
  N       1.558728      3.269448      2.791078
  H       1.646417      2.621541      3.564759
  H       2.064070      4.140348      2.907393
  H       0.247101      4.195285      1.479493
  H       1.290319      2.262777     -0.412417
  Cu      1.912212      2.489629      0.917618
18
Coordinates from ORCA-job ./orca E -1967.140831918926
  C      -2.945914      1.800789      1.567717
  C      -1.838752      2.621433      1.440626
  C      -0.678436      2.362725      2.186868
  C      -0.645100      1.262010      3.057427
  C      -1.756407      0.447949      3.180594
  C      -2.906161      0.713380      2.436479
  H      -3.838719      2.005488      0.992414
  H      -3.770605      0.069895      2.535793
  H      -1.858327      3.465847      0.763365
  H       0.240298      1.031747      3.635616
  H      -1.730958     -0.397470      3.854901
  C       0.432663      3.271501      2.013916
  N       1.558216      3.269143      2.791048
  H       1.644942      2.621203      3.564728
  H       2.063041      4.140193      2.907985
  H       0.247625      4.195311      1.479453
  H       1.291696      2.263701     -0.413351
  Cu      1.913359      2.489617      0.917459
18
Coordinates from ORCA-job ./orca E -1967.140564365538
  C      -2.944567      1.800137      1.565972
  C      -1.837165      2.620431      1.438715
  C      -0.677250      2.362083      2.185706
  C      -0.644579      1.262109      3.057227
  C      -1.756122      0.448396      3.180553
  C      -2.905463      0.713449      2.435666
  H      -3.837058      2.004552      0.990081
  H      -3.770097      0.070239      2.535114
  H      -1.856238      3.464286      0.760743
  H       0.240489      1.032149      3.636043
  H      -1.731181     -0.396455      3.855593
  C       0.434108      3.270504      2.012559
  N       1.560100      3.268683      2.791259
  H       1.646913      2.621500      3.565564
  H       2.065310      4.139590      2.907602
  H       0.249695      4.193965      1.477277
  H       1.274750      2.270156     -0.401493
  Cu      1.910815      2.488686      0.918860
18
Coordinates from ORCA-job ./orca E -1967.140553618983
  C      -2.944912      1.800262      1.566645
  C      -1.837306      2.620220      1.438698
  C      -0.677088      2.361660      2.184978
  C      -0.644370      1.261923      3.056629
  C      -1.756117      0.448451      3.180685
  C      -2.905746      0.713645      2.436425
  H      -3.837651      2.004918      0.991207
  H      -3.770514      0.070698      2.536411
  H      -1.856500      3.463965      0.760585
  H       0.240929      1.031846      3.635051
  H      -1.731028     -0.396286      3.855869
  C       0.434871      3.269847      2.011202
  N       1.559281      3.268367      2.791300
  H       1.644442      2.621223      3.565738
  H       2.063439      4.139677      2.908736
  H       0.250346      4.193916      1.477090
  H       1.277372      2.271383     -0.402982
  Cu      1.913011      2.488746      0.918773
18
Coordinates from ORCA-job ./orca E -1967.140584186718
  C      -2.946034      1.801043      1.568677
  C      -1.837536      2.619496      1.438226
  C      -0.676598      2.360280      2.182764
  C      -0.643414      1.260625      3.054111
  C      -1.755930      0.448273      3.180526
  C      -2.906701      0.714596      2.438676
  H      -3.839619      2.006767      0.994909
  H      -3.772022      0.072685      2.540418
  H      -1.857072      3.463069      0.759881
  H       0.242802      1.029404      3.630724
  H      -1.730318     -0.396415      3.855771
  C       0.436659      3.268058      2.007739
  N       1.557195      3.268591      2.792173
  H       1.638292      2.622118      3.567558
  H       2.058485      4.141213      2.911991
  H       0.251135      4.193107      1.475656
  H       1.283883      2.272950     -0.406178
  Cu      1.919254      2.488598      0.919418
18
Coordinates from ORCA-job ./orca E -1967.140636691151
  C      -2.946146      1.801392      1.568964
  C      -1.837575      2.619741      1.438385
  C      -0.676501      2.360184      2.182568
  C      -0.643165      1.260331      3.053656
  C      -1.755751      0.448118      3.180228
  C      -2.906712      0.714777      2.438754
  H      -3.839824      2.007314      0.995420
  H      -3.772107      0.072980      2.540607
  H      -1.857158      3.463362      0.760102
  H       0.243307      1.028559      3.629661
  H      -1.729966     -0.396808      3.855160
  C       0.436839      3.267816      2.007431
  N       1.557037      3.269189      2.792687
  H       1.637682      2.623292      3.568614
  H       2.058035      4.142002      2.912344
  H       0.250853      4.192505      1.474891
  H       1.283513      2.271779     -0.406295
  Cu      1.920099      2.487927      0.919862
18
Coordinates from ORCA-job ./orca E -1967.140586214537
  C      -2.946075      1.801911      1.569099
  C      -1.837479      2.620249      1.438602
  C      -0.676298      2.360180      2.182467
  C      -0.642754      1.259882      3.053067
  C      -1.755331      0.447770      3.179553
  C      -2.906484      0.714964      2.438450
  H      -3.839852      2.008114      0.995815
  H      -3.771954      0.073254      2.540265
  H      -1.857175      3.464138      0.760682
  H       0.243967      1.027518      3.628436
  H      -1.729399     -0.397527      3.854010
  C       0.436768      3.267792      2.007673
  N       1.556967      3.270358      2.793660
  H       1.637553      2.625468      3.570495
  H       2.058147      4.143220      2.912422
  H       0.250318      4.191481      1.473496
  H       1.281120      2.269234     -0.405826
  Cu      1.920423      2.486453      0.920673
18
Coordinates from ORCA-job ./orca E -1967.140584329667
  C      -2.945924      1.801972      1.568975
  C      -1.837393      2.620443      1.438694
  C      -0.676222      2.360337      2.182641
  C      -0.642697      1.259896      3.053153
  C      -1.755197      0.447675      3.179377
  C      -2.906289      0.714900      2.438153
  H      -3.839664      2.008153      0.995635
  H      -3.771706      0.073088      2.539762
  H      -1.857114      3.464448      0.760910
  H       0.244003      1.027606      3.628587
  H      -1.729297     -0.397723      3.853707
  C       0.436642      3.268028      2.008109
  N       1.556954      3.270633      2.793876
  H       1.637755      2.626003      3.570868
  H       2.058559      4.143284      2.912090
  H       0.250462      4.191309      1.473193
  H       1.279651      2.268607     -0.405502
  Cu      1.919937      2.485799      0.920812
18
Coordinates from ORCA-job ./orca E -1967.140304940034
  C      -2.944599      1.801324      1.567243
  C      -1.835828      2.619442      1.436790
  C      -0.675051      2.359690      2.181477
  C      -0.642182      1.259987      3.052947
  C      -1.754918      0.448117      3.179336
  C      -2.905606      0.714970      2.437350
  H      -3.838031      2.007225      0.993322
  H      -3.771212      0.073435      2.539097
  H      -1.855053      3.462890      0.758298
  H       0.244195      1.027994      3.628999
  H      -1.729521     -0.396715      3.854394
  C       0.438074      3.267024      2.006743
  N       1.558834      3.270175      2.794064
  H       1.639730      2.626304      3.571675
  H       2.060822      4.142687      2.911678
  H       0.252511      4.189957      1.471012
  H       1.262859      2.275096     -0.393556
  Cu      1.917435      2.484858      0.922171
18
Coordinates from ORCA-job ./orca E -1967.140317582929
  C      -2.944752      1.801290      1.567615
  C      -1.835931      2.619323      1.436849
  C      -0.674941      2.359493      2.181069
  C      -0.642121      1.260063      3.052771
  C      -1.754924      0.448217      3.179520
  C      -2.905712      0.714989      2.437780
  H      -3.838312      2.007254      0.993900
  H      -3.771349      0.073534      2.539794
  H      -1.855236      3.462685      0.758244
  H       0.244333      1.028264      3.628780
  H      -1.729470     -0.396481      3.854756
  C       0.438606      3.266688      2.005911
  N       1.558183      3.269719      2.793946
  H       1.637925      2.625728      3.571490
  H       2.059634      4.142370      2.912304
  H       0.253318      4.190134      1.471063
  H       1.264503      2.276370     -0.394670
  Cu      1.918706      2.484821      0.921916
18
Coordinates from ORCA-job ./orca E -1967.140348321696
  C      -2.945071      1.801391      1.568274
  C      -1.835995      2.618976      1.436697
  C      -0.674801      2.359119      2.180409
  C      -0.641897      1.259865      3.052144
  C      -1.754905      0.448275      3.179653
  C      -2.905995      0.715197      2.438576
  H      -3.838882      2.007615      0.995031
  H      -3.771745      0.073982      2.541106
  H      -1.855398      3.462205      0.757918
  H       0.244807      1.027984      3.627753
  H      -1.729306     -0.396306      3.855036
  C       0.439370      3.266163      2.004698
  N       1.557247      3.269447      2.794118
  H       1.635326      2.625453      3.571799
  H       2.057898      4.142425      2.913409
  H       0.254200      4.190203      1.470865
  H       1.266705      2.277855     -0.396216
  Cu      1.920905      2.484610      0.921769
18
Coordinates from ORCA-job ./orca E -1967.140319294901
  C      -2.945251      1.801574      1.568618
  C      -1.835996      2.618851      1.436578
  C      -0.674683      2.358833      2.179982
  C      -0.641672      1.259560      3.051624
  C      -1.754829      0.448208      3.179560
  C      -2.906152      0.715409      2.438965
  H      -3.839223      2.008031      0.995704
  H      -3.772027      0.074421      2.541843
  H      -1.855442      3.462051      0.757761
  H       0.245228      1.027370      3.626823
  H      -1.729123     -0.396409      3.854893
  C       0.439644      3.265878      2.004196
  N       1.556815      3.269686      2.794503
  H       1.634258      2.625907      3.572418
  H       2.057114      4.142834      2.913995
  H       0.254288      4.189921      1.470425
  H       1.267397      2.278030     -0.396763
  Cu      1.922114      2.484304      0.921915
18
Coordinates from ORCA-job ./orca E -1967.140324270290
  C      -2.945231      1.801796      1.568712
  C      -1.835930      2.619022      1.436657
  C      -0.674590      2.358795      2.179932
  C      -0.641487      1.259383      3.051396
  C      -1.754693      0.448122      3.179377
  C      -2.906103      0.715530      2.438945
  H      -3.839217      2.008350      0.995860
  H      -3.772022      0.074603      2.541841
  H      -1.855360      3.462229      0.757845
  H       0.245561      1.026777      3.626209
  H      -1.728892     -0.396662      3.854496
  C       0.439757      3.265759      2.004166
  N       1.556672      3.270217      2.795106
  H       1.633906      2.626849      3.573390
  H       2.057022      4.143376      2.914238
  H       0.254065      4.189439      1.469872
  H       1.266237      2.277372     -0.397010
  Cu      1.922764      2.483501      0.922009
18
Coordinates from ORCA-job ./orca E -1967.140031536010
  C      -2.943928      1.801152      1.566996
  C      -1.834386      2.618021      1.434761
  C      -0.673433      2.358146      2.178763
  C      -0.640978      1.259469      3.051181
  C      -1.754423      0.448562      3.179334
  C      -2.905435      0.715602      2.438152
  H      -3.837611      2.007429      0.993571
  H      -3.771543      0.074954      2.541193
  H      -1.853326      3.460672      0.755244
  H       0.245752      1.027157      3.626603
  H      -1.729118     -0.395658      3.855178
  C       0.441175      3.264749      2.002786
  N       1.558551      3.269756      2.795268
  H       1.635890      2.627148      3.574169
  H       2.059280      4.142781      2.913794
  H       0.256094      4.188082      1.467682
  H       1.249613      2.283884     -0.384965
  Cu      1.920285      2.482553      0.923330
18
Coordinates from ORCA-job ./orca E -1967.140021219267
  C      -2.944058      1.801261      1.567340
  C      -1.834466      2.618051      1.434872
  C      -0.673314      2.357984      2.178429
  C      -0.640846      1.259406      3.050900
  C      -1.754347      0.448541      3.179302
  C      -2.905485      0.715660      2.438418
  H      -3.837868      2.007668      0.994152
  H      -3.771641      0.075108      2.541666
  H      -1.853509      3.460727      0.755389
  H       0.245961      1.027106      3.626195
  H      -1.728972     -0.395649      3.855189
  C       0.441559      3.264448      2.002144
  N       1.558065      3.269651      2.795283
  H       1.634561      2.627131      3.574269
  H       2.058287      4.142848      2.914250
  H       0.256475      4.188010      1.467523
  H       1.250696      2.284099     -0.385583
  Cu      1.921362      2.482409      0.923301
18
Coordinates from ORCA-job ./orca E -1967.139728966409
  C      -2.942775      1.800619      1.565638
  C      -1.832942      2.617052      1.432982
  C      -0.672171      2.357334      2.177255
  C      -0.640343      1.259489      3.050674
  C      -1.754081      0.448978      3.179256
  C      -2.904829      0.715733      2.437635
  H      -3.836287      2.006751      0.991887
  H      -3.771174      0.075460      2.541034
  H      -1.851501      3.459173      0.752798
  H       0.246152      1.027480      3.626568
  H      -1.729198     -0.394649      3.855865
  C       0.442963      3.263435      2.000751
  N       1.559944      3.269186      2.795419
  H       1.636551      2.627422      3.575019
  H       2.060545      4.142248      2.913779
  H       0.258482      4.186651      1.465324
  H       1.234232      2.290633     -0.373438
  Cu      1.918893      2.481465      0.924594
18
Coordinates from ORCA-job ./orca E -1967.139750337453
  C      -2.943125      1.800857      1.566365
  C      -1.833139      2.617029      1.433134
  C      -0.672023      2.357011      2.176614
  C      -0.640098      1.259302      3.050039
  C      -1.753993      0.448958      3.179231
  C      -2.905037      0.715903      2.438271
  H      -3.836894      2.007259      0.993096
  H      -3.771475      0.075825      2.542098
  H      -1.851858      3.459122      0.752910
  H       0.246648      1.027121      3.625482
  H      -1.728911     -0.394661      3.855850
  C       0.443710      3.262833      1.999428
  N       1.559094      3.269037      2.795460
  H       1.634060      2.627439      3.575273
  H       2.058640      4.142513      2.914750
  H       0.259107      4.186559      1.465008
  H       1.236668      2.291041     -0.374611
  Cu      1.921087      2.481313      0.924642
18
Coordinates from ORCA-job ./orca E -1967.139762161246
  C      -2.944137      1.801800      1.568357
  C      -1.833433      2.616753      1.433082
  C      -0.671588      2.355956      2.174773
  C      -0.639146      1.258134      3.047654
  C      -1.753660      0.448675      3.178815
  C      -2.905754      0.716715      2.440102
  H      -3.838694      2.009257      0.996679
  H      -3.772606      0.077417      2.545278
  H      -1.852557      3.458868      0.752874
  H       0.248477      1.024823      3.621329
  H      -1.727991     -0.395092      3.855238
  C       0.445471      3.261225      1.996199
  N       1.557069      3.269552      2.796259
  H       1.628094      2.628796      3.577104
  H       2.053831      4.144331      2.917569
  H       0.259809      4.185738      1.463531
  H       1.242158      2.290821     -0.377160
  Cu      1.927117      2.480691      0.925357
18
Coordinates from ORCA-job ./orca E -1967.139763862265
  C      -2.944341      1.802220      1.568796
  C      -1.833455      2.616873      1.433085
  C      -0.671410      2.355666      2.174283
  C      -0.638772      1.257636      3.046880
  C      -1.753436      0.448465      3.178449
  C      -2.905847      0.717007      2.440380
  H      -3.839101      2.010021      0.997564
  H      -3.772853      0.077983      2.545903
  H      -1.852680      3.459066      0.752977
  H       0.249155      1.023759      3.619871
  H      -1.727586     -0.395497      3.854620
  C       0.445706      3.260888      1.995718
  N       1.556704      3.270223      2.796882
  H       1.627094      2.630038      3.578251
  H       2.052974      4.145265      2.918215
  H       0.259514      4.185059      1.462614
  H       1.242348      2.289722     -0.377344
  Cu      1.928447      2.480067      0.925896
18
Coordinates from ORCA-job ./orca E -1967.139764433167
  C      -2.944360      1.802732      1.569029
  C      -1.833369      2.617233      1.433151
  C      -0.671158      2.355511      2.173968
  C      -0.638324      1.257074      3.046157
  C      -1.753056      0.448124      3.177837
  C      -2.905731      0.717280      2.440293
  H      -3.839270      2.010852      0.998161
  H      -3.772871      0.078466      2.545972
  H      -1.852704      3.459633      0.753310
  H       0.249897      1.022587      3.618443
  H      -1.727067     -0.396171      3.853587
  C       0.445641      3.260819      1.995871
  N       1.556475      3.271358      2.797855
  H       1.626759      2.632060      3.579982
  H       2.052827      4.146450      2.918478
  H       0.259051      4.184007      1.461186
  H       1.240661      2.287743     -0.376952
  Cu      1.929058      2.478701      0.926713
18
Coordinates from ORCA-job ./orca E -1967.139447569931
  C      -2.943098      1.802094      1.567341
  C      -1.831867      2.616236      1.431270
  C      -0.670028      2.354856      2.172792
  C      -0.637826      1.257149      3.045924
  C      -1.752794      0.448556      3.177790
  C      -2.905087      0.717353      2.439519
  H      -3.837716      2.009944      0.995918
  H      -3.772415      0.078821      2.545352
  H      -1.850724      3.458084      0.750731
  H       0.250090      1.022948      3.618801
  H      -1.727289     -0.395179      3.854258
  C       0.447030      3.259800      1.994470
  N       1.558348      3.270895      2.797970
  H       1.628748      2.632353      3.580705
  H       2.055080      4.145855      2.917983
  H       0.261036      4.182645      1.458985
  H       1.224343      2.294301     -0.364729
  Cu      1.926627      2.477749      0.927962
18
Coordinates from ORCA-job ./orca E -1967.139461394623
  C      -2.943189      1.802130      1.567660
  C      -1.831985      2.616326      1.431506
  C      -0.669950      2.354820      2.172591
  C      -0.637772      1.257268      3.045838
  C      -1.752736      0.448596      3.177852
  C      -2.905083      0.717314      2.439730
  H      -3.837892      2.010014      0.996364
  H      -3.772386      0.078750      2.545638
  H      -1.850937      3.458164      0.750955
  H       0.250219      1.023211      3.618649
  H      -1.727157     -0.395115      3.854352
  C       0.447464      3.259579      1.993843
  N       1.557786      3.270626      2.797874
  H       1.627219      2.632126      3.580649
  H       2.054151      4.145667      2.918316
  H       0.261781      4.182724      1.458879
  H       1.225339      2.294873     -0.365495
  Cu      1.927587      2.477387      0.927838
18
Coordinates from ORCA-job ./orca E -1967.139124938799
  C      -2.941946      1.801494      1.565987
  C      -1.830504      2.615330      1.429632
  C      -0.668833      2.354164      2.171410
  C      -0.637280      1.257340      3.045594
  C      -1.752480      0.449026      3.177802
  C      -2.904452      0.717388      2.438966
  H      -3.836364      2.009110      0.994145
  H      -3.771943      0.079106      2.545035
  H      -1.848983      3.456617      0.748386
  H       0.250411      1.023567      3.618987
  H      -1.727379     -0.394128      3.855016
  C       0.448839      3.258558      1.992429
  N       1.559659      3.270157      2.797964
  H       1.629216      2.632412      3.581343
  H       2.056403      4.145068      2.917793
  H       0.263746      4.181359      1.456668
  H       1.209185      2.301454     -0.353174
  Cu      1.925165      2.476439      0.929058
18
Coordinates from ORCA-job ./orca E -1967.139147534178
  C      -2.942284      1.801703      1.566705
  C      -1.830709      2.615305      1.429805
  C      -0.668708      2.353886      2.170820
  C      -0.637058      1.257207      3.045014
  C      -1.752390      0.449014      3.177795
  C      -2.904643      0.717523      2.439586
  H      -3.836947      2.009571      0.995324
  H      -3.772199      0.079394      2.546045
  H      -1.849352      3.456567      0.748523
  H       0.250877      1.023335      3.617996
  H      -1.727094     -0.394129      3.855024
  C       0.449587      3.258010      1.991137
  N       1.558754      3.269958      2.797968
  H       1.626642      2.632357      3.581530
  H       2.054530      4.145234      2.918690
  H       0.264533      4.181339      1.456370
  H       1.211599      2.302022     -0.354379
  Cu      1.927322      2.476163      0.929089
18
Coordinates from ORCA-job ./orca E -1967.139156832847
  C      -2.943341      1.802654      1.568766
  C      -1.831080      2.615041      1.429775
  C      -0.668315      2.352886      2.168950
  C      -0.636081      1.256068      3.042553
  C      -1.751975      0.448702      3.177302
  C      -2.905317      0.718293      2.441421
  H      -3.838837      2.011608      0.999068
  H      -3.773241      0.080901      2.549255
  H      -1.850189      3.456376      0.748568
  H       0.252752      1.021209      3.613789
  H      -1.726064     -0.394601      3.854315
  C       0.451283      3.256556      1.987962
  N       1.556456      3.270460      2.798763
  H       1.620340      2.633703      3.583312
  H       2.049699      4.146904      2.921343
  H       0.265644      4.180639      1.454734
  H       1.217334      2.301923     -0.356791
  Cu      1.933390      2.475137      0.929953
18
Coordinates from ORCA-job ./orca E -1967.139158556026
  C      -2.943510      1.803056      1.569169
  C      -1.831106      2.615217      1.429854
  C      -0.668163      2.352659      2.168558
  C      -0.635744      1.255638      3.041881
  C      -1.751763      0.448508      3.176960
  C      -2.905384      0.718550      2.441646
  H      -3.839172      2.012310      0.999844
  H      -3.773429      0.081370      2.549740
  H      -1.850297      3.456623      0.748740
  H       0.253376      1.020219      3.612448
  H      -1.725667     -0.395025      3.853684
  C       0.451510      3.256264      1.987542
  N       1.556088      3.271138      2.799367
  H       1.619375      2.634941      3.584415
  H       2.048930      4.147800      2.921880
  H       0.265394      4.179997      1.453857
  H       1.217318      2.300825     -0.356962
  Cu      1.934704      2.474370      0.930417
18
Coordinates from ORCA-job ./orca E -1967.139261491197
  C      -2.943482      1.803614      1.569377
  C      -1.830963      2.615633      1.429955
  C      -0.667879      2.352500      2.168293
  C      -0.635261      1.255027      3.041162
  C      -1.751363      0.448136      3.176302
  C      -2.905237      0.718840      2.441498
  H      -3.839275      2.013209      1.000395
  H      -3.773429      0.081878      2.549714
  H      -1.850241      3.457263      0.749135
  H       0.254139      1.018906      3.611000
  H      -1.725138     -0.395767      3.852556
  C       0.451438      3.256196      1.987787
  N       1.555838      3.272456      2.800477
  H       1.619088      2.637214      3.586323
  H       2.048827      4.149151      2.922108
  H       0.264780      4.178819      1.452360
  H       1.215111      2.298651     -0.356554
  Cu      1.935505      2.472734      0.931152
18
Coordinates from ORCA-job ./orca E -1967.139160414202
  C      -2.943329      1.803705      1.569271
  C      -1.830855      2.615817      1.430042
  C      -0.667795      2.352577      2.168412
  C      -0.635194      1.254960      3.041182
  C      -1.751220      0.447998      3.176079
  C      -2.905055      0.718803      2.441209
  H      -3.839105      2.013327      1.000275
  H      -3.773234      0.081799      2.549278
  H      -1.850152      3.457575      0.749392
  H       0.254205      1.018835      3.611011
  H      -1.725029     -0.396017      3.852185
  C       0.451254      3.256404      1.988267
  N       1.555776      3.272898      2.800852
  H       1.619341      2.637936      3.586947
  H       2.049328      4.149408      2.921793
  H       0.264830      4.178485      1.451781
  H       1.213503      2.298131     -0.356240
  Cu      1.935191      2.471820      0.931303
18
Coordinates from ORCA-job ./orca E -1967.138821377753
  C      -2.942109      1.803073      1.567612
  C      -1.829396      2.614822      1.428177
  C      -0.666693      2.351916      2.167230
  C      -0.634707      1.255023      3.040932
  C      -1.750970      0.448421      3.176029
  C      -2.904438      0.718877      2.440455
  H      -3.837605      2.012431      0.998078
  H      -3.772804      0.082156      2.548689
  H      -1.848228      3.456031      0.746835
  H       0.254397      1.019175      3.611334
  H      -1.725250     -0.395040      3.852846
  C       0.452614      3.255376      1.986844
  N       1.557642      3.272432      2.800917
  H       1.621338      2.638225      3.587611
  H       2.051571      4.148815      2.921242
  H       0.266770      4.177114      1.449567
  H       1.197518      2.304753     -0.343834
  Cu      1.932809      2.470862      0.932476
18
Coordinates from ORCA-job ./orca E -1967.138832228285
  C      -2.942245      1.803070      1.567987
  C      -1.829549      2.614844      1.428400
  C      -0.666629      2.351861      2.166999
  C      -0.634674      1.255183      3.040865
  C      -1.750953      0.448508      3.176180
  C      -2.904486      0.718836      2.440776
  H      -3.837833      2.012448      0.998590
  H      -3.772821      0.082087      2.549126
  H      -1.848469      3.455994      0.746971
  H       0.254502      1.019523      3.611236
  H      -1.725154     -0.394888      3.853089
  C       0.453136      3.255103      1.986070
  N       1.556968      3.272007      2.800724
  H       1.619540      2.637742      3.587327
  H       2.050426      4.148460      2.921636
  H       0.267660      4.177301      1.449633
  H       1.199050      2.305745     -0.344800
  Cu      1.933992      2.470636      0.932230
18
Coordinates from ORCA-job ./orca E -1967.138839076792
  C      -2.942497      1.803160      1.568533
  C      -1.829639      2.614633      1.428378
  C      -0.666551      2.351659      2.166582
  C      -0.634507      1.255098      3.040423
  C      -1.750915      0.448556      3.176277
  C      -2.904669      0.718950      2.441361
  H      -3.838277      2.012735      0.999500
  H      -3.773042      0.082302      2.550023
  H      -1.848662      3.455714      0.746849
  H       0.254842      1.019443      3.610546
  H      -1.724987     -0.394761      3.853283
  C       0.453774      3.254731      1.985109
  N       1.556095      3.271764      2.800792
  H       1.617302      2.637444      3.587425
  H       2.048984      4.148435      2.922378
  H       0.268501      4.177448      1.449548
  H       1.200859      2.306836     -0.345982
  Cu      1.935852      2.470313      0.932014
18
Coordinates from ORCA-job ./orca E -1967.138846685220
  C      -2.942618      1.803289      1.568796
  C      -1.829640      2.614548      1.428324
  C      -0.666480      2.351485      2.166314
  C      -0.634354      1.254920      3.040076
  C      -1.750860      0.448526      3.176228
  C      -2.904768      0.719084      2.441643
  H      -3.838503      2.013021      0.999984
  H      -3.773208      0.082570      2.550523
  H      -1.848692      3.455599      0.746759
  H       0.255123      1.019074      3.609933
  H      -1.724845     -0.394818      3.853203
  C       0.454030      3.254533      1.984731
  N       1.555680      3.271931      2.801090
  H       1.616365      2.637699      3.587824
  H       2.048356      4.148694      2.922808
  H       0.268636      4.177306      1.449306
  H       1.201292      2.307024     -0.346460
  Cu      1.936944      2.469975      0.931958
18
Coordinates from ORCA-job ./orca E -1967.138843342023
  C      -2.942664      1.803534      1.569010
  C      -1.829540      2.614554      1.428264
  C      -0.666324      2.351261      2.166042
  C      -0.634096      1.254581      3.039630
  C      -1.750729      0.448404      3.176029
  C      -2.904809      0.719293      2.441823
  H      -3.838643      2.013485      1.000429
  H      -3.773369      0.082991      2.550931
  H      -1.848592      3.455608      0.746702
  H       0.255533      1.018307      3.609080
  H      -1.724626     -0.395054      3.852855
  C       0.454212      3.254356      1.984590
  N       1.555235      3.272549      2.801818
  H       1.615639      2.638587      3.588794
  H       2.047920      4.149341      2.923244
  H       0.268456      4.176822      1.448744
  H       1.200604      2.306683     -0.346813
  Cu      1.938252      2.469157      0.931869
18
Coordinates from ORCA-job ./orca E -1967.138492820736
  C      -2.941466      1.802905      1.567367
  C      -1.828103      2.613560      1.426407
  C      -0.665237      2.350599      2.164854
  C      -0.633616      1.254640      3.039369
  C      -1.750485      0.448824      3.175977
  C      -2.904206      0.719368      2.441079
  H      -3.837170      2.012597      0.998256
  H      -3.772953      0.083351      2.550359
  H      -1.846695      3.454068      0.744157
  H       0.255725      1.018639      3.609383
  H      -1.724847     -0.394081      3.853510
  C       0.455558      3.253324      1.983154
  N       1.557099      3.272080      2.801858
  H       1.617641      2.638873      3.589430
  H       2.050156      4.148749      2.922663
  H       0.270375      4.175447      1.446522
  H       1.184795      2.313323     -0.334310
  Cu      1.935889      2.468194      0.933005
18
Coordinates from ORCA-job ./orca E -1967.138498121471
  C      -2.941619      1.803057      1.567747
  C      -1.828232      2.613674      1.426601
  C      -0.665137      2.350455      2.164535
  C      -0.633491      1.254583      3.039099
  C      -1.750401      0.448787      3.175921
  C      -2.904251      0.719423      2.441327
  H      -3.837447      2.012871      0.998869
  H      -3.773034      0.083478      2.550783
  H      -1.846924      3.454202      0.744379
  H       0.255960      1.018528      3.608910
  H      -1.724662     -0.394140      3.853429
  C       0.455907      3.253018      1.982513
  N       1.556590      3.272035      2.801874
  H       1.616328      2.638956      3.589548
  H       2.049169      4.148866      2.923035
  H       0.270718      4.175306      1.446254
  H       1.185994      2.313413     -0.334844
  Cu      1.936992      2.467947      0.933059
18
Coordinates from ORCA-job ./orca E -1967.138513944637
  C      -2.942228      1.803768      1.569043
  C      -1.828481      2.613753      1.426771
  C      -0.664824      2.349859      2.163404
  C      -0.632844      1.253815      3.037568
  C      -1.750049      0.448466      3.175435
  C      -2.904559      0.719874      2.442279
  H      -3.838589      2.014294      1.001253
  H      -3.773575      0.084367      2.552498
  H      -1.847519      3.454466      0.744786
  H       0.257118      1.017152      3.606330
  H      -1.723945     -0.394640      3.852716
  C       0.456814      3.252141      1.980729
  N       1.555057      3.272596      2.802423
  H       1.612579      2.640175      3.590744
  H       2.046238      4.150082      2.924323
  H       0.271275      4.174568      1.444900
  H       1.189383      2.312705     -0.335913
  Cu      1.940610      2.467020      0.933751
18
Coordinates from ORCA-job ./orca E -1967.138514292634
  C      -2.942340      1.804020      1.569294
  C      -1.828511      2.613877      1.426845
  C      -0.664755      2.349761      2.163224
  C      -0.632654      1.253534      3.037154
  C      -1.749929      0.448326      3.175202
  C      -2.904605      0.720021      2.442393
  H      -3.838798      2.014728      1.001724
  H      -3.773676      0.084618      2.552727
  H      -1.847596      3.454646      0.744924
  H       0.257501      1.016509      3.605485
  H      -1.723706     -0.394948      3.852265
  C       0.456930      3.252020      1.980550
  N       1.554817      3.273084      2.802806
  H       1.612061      2.641010      3.591432
  H       2.045863      4.150668      2.924533
  H       0.271165      4.174181      1.444315
  H       1.189329      2.311924     -0.335878
  Cu      1.941363      2.466481      0.934045
18
Coordinates from ORCA-job ./orca E -1967.138150117228
  C      -2.941162      1.803395      1.567665
  C      -1.827094      2.612885      1.424995
  C      -0.663681      2.349096      2.162034
  C      -0.632179      1.253586      3.036886
  C      -1.749689      0.448742      3.175148
  C      -2.904013      0.720096      2.441658
  H      -3.837351      2.013846      0.999575
  H      -3.773271      0.084980      2.552170
  H      -1.845725      3.453110      0.742390
  H       0.257694      1.016832      3.605771
  H      -1.723925     -0.393981      3.852914
  C       0.458261      3.250983      1.979104
  N       1.556678      3.272614      2.802822
  H       1.614066      2.641293      3.592042
  H       2.048096      4.150076      2.923927
  H       0.273063      4.172804      1.442088
  H       1.173674      2.318584     -0.323295
  Cu      1.939018      2.465517      0.935146
18
Coordinates from ORCA-job ./orca E -1967.138167586870
  C      -2.941382      1.803575      1.568103
  C      -1.827241      2.612928      1.425112
  C      -0.663607      2.348913      2.161645
  C      -0.632010      1.253439      3.036460
  C      -1.749596      0.448691      3.175067
  C      -2.904119      0.720203      2.442004
  H      -3.837732      2.014208      1.000331
  H      -3.773432      0.085212      2.552784
  H      -1.845986      3.453168      0.742522
  H       0.258044      1.016545      3.605012
  H      -1.723695     -0.394073      3.852784
  C       0.458628      3.250675      1.978399
  N       1.556133      3.272639      2.802912
  H       1.612631      2.641493      3.592283
  H       2.047044      4.150285      2.924400
  H       0.273410      4.172658      1.441735
  H       1.175078      2.318675     -0.323840
  Cu      1.940294      2.465227      0.935327
18
Coordinates from ORCA-job ./orca E -1967.138173081089
  C      -2.942112      1.804371      1.569559
  C      -1.827546      2.612964      1.425227
  C      -0.663330      2.348245      2.160346
  C      -0.631253      1.252547      3.034635
  C      -1.749197      0.448376      3.174548
  C      -2.904516      0.720767      2.443170
  H      -3.839046      2.015793      1.002994
  H      -3.774096      0.086299      2.554892
  H      -1.846653      3.453339      0.742801
  H       0.259485      1.014822      3.601783
  H      -1.722819     -0.394633      3.851946
  C       0.459665      3.249725      1.976358
  N       1.554457      3.273324      2.803650
  H       1.608330      2.642990      3.593821
  H       2.043831      4.151685      2.926021
  H       0.273981      4.171874      1.440198
  H       1.178747      2.317961     -0.325155
  Cu      1.944531      2.464008      0.936244
18
Coordinates from ORCA-job ./orca E -1967.138175092554
  C      -2.942245      1.804692      1.569879
  C      -1.827565      2.613102      1.425286
  C      -0.663206      2.348078      2.160053
  C      -0.630987      1.252168      3.034083
  C      -1.749019      0.448174      3.174217
  C      -2.904554      0.720950      2.443305
  H      -3.839323      2.016377      1.003642
  H      -3.774221      0.086648      2.555223
  H      -1.846763      3.453588      0.742999
  H       0.259953      1.014056      3.600771
  H      -1.722522     -0.395013      3.851390
  C       0.459776      3.249576      1.976132
  N       1.554123      3.273911      2.804094
  H       1.607649      2.644026      3.594640
  H       2.043306      4.152397      2.926267
  H       0.273843      4.171391      1.439460
  H       1.178770      2.317002     -0.325080
  Cu      1.945444      2.463336      0.936679
18
Coordinates from ORCA-job ./orca E -1967.137798794517
  C      -2.941086      1.804071      1.568264
  C      -1.826169      2.612112      1.423445
  C      -0.662145      2.347410      2.158860
  C      -0.630517      1.252214      3.033807
  C      -1.748784      0.448585      3.174162
  C      -2.903975      0.721026      2.442580
  H      -3.837901      2.015503      1.001516
  H      -3.773828      0.087011      2.554680
  H      -1.844919      3.452057      0.740478
  H       0.260147      1.014368      3.601040
  H      -1.722740     -0.394054      3.852034
  C       0.461094      3.248535      1.974676
  N       1.555980      3.273441      2.804088
  H       1.609657      2.644308      3.595224
  H       2.045533      4.151807      2.925636
  H       0.275720      4.170011      1.437229
  H       1.163271      2.323684     -0.312423
  Cu      1.943120      2.462371      0.937743
18
Coordinates from ORCA-job ./orca E -1967.137802265309
  C      -2.941296      1.804283      1.568733
  C      -1.826324      2.612226      1.423633
  C      -0.662036      2.347227      2.158462
  C      -0.630337      1.252068      3.033393
  C      -1.748664      0.448504      3.174040
  C      -2.904047      0.721120      2.442890
  H      -3.838286      2.015911      1.002322
  H      -3.773951      0.087216      2.555233
  H      -1.845206      3.452217      0.740727
  H       0.260491      1.014096      3.600316
  H      -1.722490     -0.394192      3.851843
  C       0.461447      3.248214      1.973965
  N       1.555373      3.273488      2.804151
  H       1.608152      2.644576      3.595465
  H       2.044416      4.152040      2.926022
  H       0.276093      4.169803      1.436792
  H       1.164728      2.323681     -0.312923
  Cu      1.944396      2.461981      0.937977
18
Coordinates from ORCA-job ./orca E -1967.137819494374
  C      -2.941735      1.804825      1.569784
  C      -1.826522      2.612360      1.423896
  C      -0.661780      2.346846      2.157691
  C      -0.629827      1.251495      3.032263
  C      -1.748426      0.448305      3.173742
  C      -2.904271      0.721475      2.443663
  H      -3.839077      2.016952      1.004133
  H      -3.774308      0.087862      2.556517
  H      -1.845641      3.452423      0.741061
  H       0.261464      1.012945      3.598269
  H      -1.721950     -0.394565      3.851305
  C       0.462366      3.247496      1.972448
  N       1.554097      3.273933      2.804615
  H       1.604765      2.645641      3.596533
  H       2.041973      4.153030      2.927125
  H       0.276639      4.169263      1.435788
  H       1.167002      2.323389     -0.314196
  Cu      1.947690      2.460784      0.938403
18
Coordinates from ORCA-job ./orca E -1967.137819310848
  C      -2.942016      1.805327      1.570387
  C      -1.826552      2.612418      1.423873
  C      -0.661580      2.346477      2.157074
  C      -0.629396      1.250897      3.031291
  C      -1.748128      0.447993      3.173241
  C      -2.904389      0.721776      2.444023
  H      -3.839669      2.017958      1.005386
  H      -3.774605      0.088464      2.557322
  H      -1.845847      3.452674      0.741296
  H       0.262176      1.011869      3.596623
  H      -1.721452     -0.395081      3.850563
  C       0.462583      3.247192      1.971915
  N       1.553402      3.274692      2.805219
  H       1.603346      2.647005      3.597646
  H       2.040852      4.154023      2.927620
  H       0.276575      4.168588      1.434691
  H       1.167810      2.322305     -0.314231
  Cu      1.949350      2.459885      0.939101
18
Coordinates from ORCA-job ./orca E -1967.137436967926
  C      -2.940877      1.804710      1.568787
  C      -1.825176      2.611430      1.422041
  C      -0.660533      2.345807      2.155878
  C      -0.628931      1.250936      3.031007
  C      -1.747897      0.448399      3.173184
  C      -2.903821      0.721852      2.443308
  H      -3.838273      2.017091      1.003283
  H      -3.774224      0.088829      2.556793
  H      -1.844029      3.451146      0.738787
  H       0.262371      1.012171      3.596875
  H      -1.721668     -0.394130      3.851202
  C       0.463887      3.246147      1.970450
  N       1.555255      3.274220      2.805191
  H       1.605357      2.647285      3.598203
  H       2.043075      4.153434      2.926963
  H       0.278430      4.167204      1.432456
  H       1.152471      2.329011     -0.301496
  Cu      1.947046      2.458917      0.940127
18
Coordinates from ORCA-job ./orca E -1967.137455424480
  C      -2.941171      1.804974      1.569335
  C      -1.825388      2.611529      1.422193
  C      -0.660448      2.345572      2.155364
  C      -0.628701      1.250706      3.030412
  C      -1.747745      0.448291      3.173007
  C      -2.903943      0.721995      2.443708
  H      -3.838786      2.017606      1.004274
  H      -3.774419      0.089139      2.557545
  H      -1.844401      3.451306      0.739011
  H       0.262834      1.011736      3.595834
  H      -1.721328     -0.394326      3.850911
  C       0.464216      3.245812      1.969670
  N       1.554564      3.274349      2.805327
  H       1.603721      2.647684      3.598559
  H       2.041872      4.153755      2.927407
  H       0.278807      4.166940      1.431854
  H       1.154298      2.328908     -0.301915
  Cu      1.948478      2.458486      0.940543
18
Coordinates from ORCA-job ./orca E -1967.137459354755
  C      -2.942207      1.806138      1.571264
  C      -1.825963      2.611845      1.422529
  C      -0.660172      2.344816      2.153717
  C      -0.627704      1.249453      3.027897
  C      -1.747122      0.447705      3.172047
  C      -2.904417      0.722682      2.445046
  H      -3.840632      2.019833      1.007877
  H      -3.775202      0.090459      2.560063
  H      -1.845528      3.451957      0.739762
  H       0.264767      1.009307      3.591371
  H      -1.720018     -0.395420      3.849301
  C       0.465158      3.244826      1.967344
  N       1.552354      3.275573      2.806232
  H       1.598623      2.650191      3.600616
  H       2.038119      4.155747      2.928791
  H       0.279554      4.165741      1.429324
  H       1.159494      2.326995     -0.302570
  Cu      1.953355      2.456609      0.942428
18
Coordinates from ORCA-job ./orca E -1967.137464152849
  C      -2.942468      1.806645      1.571814
  C      -1.826099      2.612140      1.422739
  C      -0.660060      2.344648      2.153333
  C      -0.627338      1.248923      3.027060
  C      -1.746838      0.447361      3.171478
  C      -2.904470      0.722899      2.445203
  H      -3.841128      2.020736      1.008964
  H      -3.775342      0.090851      2.560456
  H      -1.845851      3.452493      0.740276
  H       0.265443      1.008225      3.589820
  H      -1.719525     -0.396071      3.848337
  C       0.465264      3.244670      1.966975
  N       1.551807      3.276450      2.806741
  H       1.597569      2.651776      3.601702
  H       2.037360      4.156783      2.928889
  H       0.279489      4.165092      1.428138
  H       1.160050      2.325257     -0.302160
  Cu      1.954596      2.455583      0.943274
18
Coordinates from ORCA-job ./orca E -1967.137064326726
  C      -2.941348      1.806032      1.570229
  C      -1.824742      2.611154      1.420917
  C      -0.659025      2.343974      2.152138
  C      -0.626877      1.248954      3.026770
  C      -1.746611      0.447760      3.171421
  C      -2.903913      0.722975      2.444498
  H      -3.839756      2.019878      1.006883
  H      -3.774972      0.091218      2.559941
  H      -1.844058      3.450971      0.737780
  H       0.265639      1.008513      3.590060
  H      -1.719739     -0.395130      3.848973
  C       0.466556      3.243619      1.965504
  N       1.553656      3.275979      2.806692
  H       1.599584      2.652056      3.602235
  H       2.039577      4.156196      2.928210
  H       0.281326      4.163704      1.425903
  H       1.144854      2.331995     -0.289375
  Cu      1.952309      2.454614      0.944262
18
Coordinates from ORCA-job ./orca E -1967.137083461480
  C      -2.941598      1.806284      1.570759
  C      -1.824926      2.611282      1.421117
  C      -0.658920      2.343776      2.151702
  C      -0.626666      1.248742      3.026263
  C      -1.746471      0.447639      3.171241
  C      -2.904000      0.723086      2.444830
  H      -3.840213      2.020377      1.007822
  H      -3.775116      0.091453      2.560544
  H      -1.844410      3.451196      0.738103
  H       0.266041      1.008141      3.589188
  H      -1.719454     -0.395325      3.848704
  C       0.466906      3.243291      1.964744
  N       1.552990      3.276096      2.806764
  H       1.597967      2.652453      3.602525
  H       2.038396      4.156509      2.928553
  H       0.281697      4.163458      1.425360
  H       1.146549      2.331848     -0.289804
  Cu      1.953691      2.454155      0.944625
18
Coordinates from ORCA-job ./orca E -1967.137085902887
  C      -2.942455      1.807335      1.572498
  C      -1.825380      2.611620      1.421536
  C      -0.658612      2.343142      2.150362
  C      -0.625790      1.247607      3.024125
  C      -1.745933      0.447078      3.170362
  C      -2.904364      0.723654      2.445917
  H      -3.841771      2.022420      1.011039
  H      -3.775724      0.092511      2.562534
  H      -1.845381      3.451917      0.739004
  H       0.267672      1.006042      3.585451
  H      -1.718375     -0.396314      3.847281
  C       0.467851      3.242382      1.962638
  N       1.551007      3.277196      2.807450
  H       1.593273      2.654769      3.604275
  H       2.034951      4.158343      2.929604
  H       0.282326      4.162406      1.423208
  H       1.151010      2.330005     -0.290469
  Cu      1.958155      2.452346      0.946224
18
Coordinates from ORCA-job ./orca E -1967.137083661871
  C      -2.942747      1.807868      1.573102
  C      -1.825521      2.611893      1.421736
  C      -0.658487      2.342923      2.149912
  C      -0.625401      1.247028      3.023211
  C      -1.745645      0.446725      3.169786
  C      -2.904447      0.723904      2.446144
  H      -3.842317      2.023387      1.012224
  H      -3.775910      0.092971      2.563054
  H      -1.845709      3.452425      0.739497
  H       0.268406      1.004873      3.583758
  H      -1.717858     -0.396984      3.846296
  C       0.467989      3.242185      1.962198
  N       1.550395      3.278094      2.807976
  H       1.592048      2.656408      3.605405
  H       2.034073      4.159427      2.929750
  H       0.282246      4.161724      1.421985
  H       1.151767      2.328321     -0.290117
  Cu      1.959580      2.451287      0.947123
18
Coordinates from ORCA-job ./orca E -1967.136696706228
  C      -2.941646      1.807258      1.571532
  C      -1.824184      2.610909      1.419922
  C      -0.657464      2.342245      2.148716
  C      -0.624945      1.247051      3.022915
  C      -1.745422      0.447119      3.169729
  C      -2.903902      0.723980      2.445449
  H      -3.840969      2.022538      1.010166
  H      -3.775550      0.093339      2.562553
  H      -1.843941      3.450907      0.737013
  H       0.268603      1.005148      3.583984
  H      -1.718070     -0.396053      3.846927
  C       0.469268      3.241129      1.960720
  N       1.552240      3.277623      2.807908
  H       1.594065      2.656689      3.605914
  H       2.036284      4.158842      2.929048
  H       0.284064      4.160331      1.419749
  H       1.136718      2.335091     -0.277277
  Cu      1.957311      2.450317      0.948073
18
Coordinates from ORCA-job ./orca E -1967.136694222151
  C      -2.941935      1.807512      1.572082
  C      -1.824385      2.610986      1.420060
  C      -0.657373      2.341993      2.148188
  C      -0.624714      1.246813      3.022321
  C      -1.745276      0.447015      3.169567
  C      -2.904029      0.724128      2.445869
  H      -3.841479      2.023049      1.011164
  H      -3.775760      0.093669      2.563352
  H      -1.844300      3.451044      0.737223
  H       0.269060      1.004713      3.582950
  H      -1.717748     -0.396228      3.846674
  C       0.469601      3.240776      1.959921
  N       1.551529      3.277725      2.808028
  H       1.592372      2.657060      3.606241
  H       2.035052      4.159137      2.929491
  H       0.284427      4.160063      1.419169
  H       1.138639      2.335123     -0.277758
  Cu      1.958779      2.449882      0.948498
18
Coordinates from ORCA-job ./orca E -1967.136702442673
  C      -2.943029      1.808776      1.574156
  C      -1.824995      2.611333      1.420431
  C      -0.657072      2.341171      2.146437
  C      -0.623657      1.245418      3.019619
  C      -1.744614      0.446340      3.168483
  C      -2.904517      0.724855      2.447261
  H      -3.843432      2.025485      1.015060
  H      -3.776577      0.095087      2.566016
  H      -1.845509      3.451802      0.738105
  H       0.271068      1.002062      3.578201
  H      -1.716389     -0.397439      3.844902
  C       0.470553      3.239747      1.957492
  N       1.549169      3.279071      2.808907
  H       1.586984      2.659855      3.608349
  H       2.031072      4.161293      2.930760
  H       0.285140      4.158784      1.416484
  H       1.144339      2.332956     -0.278301
  Cu      1.963926      2.447864      0.950679
18
Coordinates from ORCA-job ./orca E -1967.136699891283
  C      -2.943343      1.809358      1.574802
  C      -1.825171      2.611684      1.420702
  C      -0.656954      2.340981      2.146000
  C      -0.623238      1.244790      3.018630
  C      -1.744300      0.445943      3.167831
  C      -2.904598      0.725108      2.447467
  H      -3.844013      2.026525      1.016320
  H      -3.776760      0.095543      2.566503
  H      -1.845899      3.452431      0.738729
  H       0.271856      1.000772      3.576357
  H      -1.715824     -0.398208      3.843771
  C       0.470665      3.239574      1.957052
  N       1.548529      3.280078      2.809431
  H       1.585733      2.661702      3.609553
  H       2.030181      4.162491      2.930798
  H       0.285073      4.158051      1.415133
  H       1.145172      2.330923     -0.277768
  Cu      1.965351      2.446715      0.951730
18
Coordinates from ORCA-job ./orca E -1967.136302543176
  C      -2.942259      1.808752      1.573247
  C      -1.823852      2.610702      1.418899
  C      -0.655942      2.340299      2.144804
  C      -0.622786      1.244803      3.018329
  C      -1.744081      0.446329      3.167774
  C      -2.904063      0.725184      2.446782
  H      -3.842689      2.025685      1.014283
  H      -3.776411      0.095912      2.566015
  H      -1.844155      3.450919      0.736259
  H       0.272056      1.001031      3.576570
  H      -1.716034     -0.397288      3.844399
  C       0.471931      3.238512      1.955568
  N       1.550370      3.279607      2.809343
  H       1.587753      2.661983      3.610039
  H       2.032386      4.161909      2.930073
  H       0.286872      4.156653      1.412898
  H       1.130263      2.337726     -0.264885
  Cu      1.963098      2.445744      0.952642
18
Coordinates from ORCA-job ./orca E -1967.136301410687
  C      -2.942549      1.809047      1.573839
  C      -1.824062      2.610843      1.419112
  C      -0.655837      2.340066      2.144308
  C      -0.622543      1.244534      3.017726
  C      -1.743918      0.446181      3.167552
  C      -2.904166      0.725318      2.447154
  H      -3.843212      2.026270      1.015354
  H      -3.776583      0.096200      2.566708
  H      -1.844556      3.451186      0.736630
  H       0.272518      1.000559      3.575534
  H      -1.715703     -0.397531      3.844059
  C       0.472275      3.238154      1.954752
  N       1.549630      3.279775      2.809431
  H       1.585998      2.662497      3.610383
  H       2.031110      4.162288      2.930401
  H       0.287250      4.156344      1.412237
  H       1.132220      2.337514     -0.265280
  Cu      1.964590      2.445213      0.953142
18
Coordinates from ORCA-job ./orca E -1967.136305852301
  C      -2.943719      1.810506      1.576148
  C      -1.824736      2.611378      1.419705
  C      -0.655486      2.339245      2.142531
  C      -0.621399      1.242953      3.014805
  C      -1.743165      0.445320      3.166196
  C      -2.904625      0.726054      2.448482
  H      -3.845332      2.029094      1.019715
  H      -3.777352      0.097602      2.569242
  H      -1.845946      3.452342      0.737997
  H       0.274660      0.997634      3.570454
  H      -1.714220     -0.399043      3.841872
  C       0.473253      3.237093      1.952190
  N       1.547072      3.281421      2.810263
  H       1.580212      2.665897      3.612658
  H       2.026840      4.164818      2.931363
  H       0.288011      4.154864      1.409123
  H       1.138389      2.334400     -0.265458
  Cu      1.970003      2.442881      0.955752
18
Coordinates from ORCA-job ./orca E -1967.136305741226
  C      -2.944083      1.811161      1.576873
  C      -1.824963      2.611804      1.420047
  C      -0.655381      2.339053      2.142068
  C      -0.620946      1.242260      3.013706
  C      -1.742818      0.444879      3.165472
  C      -2.904720      0.726325      2.448706
  H      -3.845985      2.030246      1.021107
  H      -3.777548      0.098064      2.569756
  H      -1.846405      3.453078      0.738735
  H       0.275530      0.996203      3.568374
  H      -1.713580     -0.399915      3.840592
  C       0.473351      3.236914      1.951710
  N       1.546371      3.282536      2.810798
  H       1.578835      2.667966      3.613953
  H       2.025892      4.166140      2.931321
  H       0.287952      4.154047      1.407600
  H       1.139444      2.332074     -0.264775
  Cu      1.971513      2.441626      0.956998
18
Coordinates from ORCA-job ./orca E -1967.135895000038
  C      -2.943017      1.810559      1.575332
  C      -1.823662      2.610824      1.418254
  C      -0.654380      2.338366      2.140873
  C      -0.620497      1.242263      3.013401
  C      -1.742602      0.445257      3.165416
  C      -2.904195      0.726399      2.448031
  H      -3.844683      2.029415      1.019092
  H      -3.777207      0.098433      2.569282
  H      -1.844685      3.451572      0.736279
  H       0.275732      0.996446      3.568576
  H      -1.713787     -0.399007      3.841217
  C       0.474606      3.235846      1.950222
  N       1.548208      3.282066      2.810692
  H       1.580859      2.668249      3.614416
  H       2.028092      4.165560      2.930576
  H       0.289733      4.152643      1.405367
  H       1.124669      2.338914     -0.251858
  Cu      1.969276      2.440655      0.957872
18
Coordinates from ORCA-job ./orca E -1967.135898065472
  C      -2.943346      1.810868      1.575963
  C      -1.823895      2.610933      1.418420
  C      -0.654285      2.338084      2.140281
  C      -0.620226      1.241953      3.012693
  C      -1.742424      0.445113      3.165191
  C      -2.904331      0.726572      2.448487
  H      -3.845266      2.030030      1.020251
  H      -3.777438      0.098819      2.570170
  H      -1.845114      3.451784      0.736574
  H       0.276261      0.995898      3.567355
  H      -1.713418     -0.399241      3.840877
  C       0.474936      3.235461      1.949352
  N       1.547401      3.282231      2.810822
  H       1.578981      2.668759      3.614803
  H       2.026741      4.165937      2.930987
  H       0.290104      4.152297      1.404639
  H       1.126898      2.338826     -0.252288
  Cu      1.970880      2.440137      0.958463
18
Coordinates from ORCA-job ./orca E -1967.135904497019
  C      -2.944642      1.812403      1.578427
  C      -1.824638      2.611409      1.418914
  C      -0.653943      2.337119      2.138231
  C      -0.618979      1.240205      3.009434
  C      -1.741629      0.444225      3.163788
  C      -2.904901      0.727434      2.450072
  H      -3.847575      2.032993      1.024916
  H      -3.778395      0.100516      2.573260
  H      -1.846603      3.452855      0.737814
  H       0.278639      0.992620      3.561621
  H      -1.711827     -0.400809      3.838597
  C       0.475900      3.234320      1.946612
  N       1.544636      3.283954      2.811768
  H       1.572779      2.672325      3.617227
  H       2.022190      4.168565      2.932132
  H       0.290851      4.150701      1.401290
  H       1.133890      2.335816     -0.252471
  Cu      1.976707      2.437809      0.961408
18
Coordinates from ORCA-job ./orca E -1967.135901487945
  C      -2.945082      1.813181      1.579313
  C      -1.824925      2.611914      1.419317
  C      -0.653822      2.336895      2.137653
  C      -0.618446      1.239405      3.008126
  C      -1.741207      0.443702      3.162917
  C      -2.904994      0.727743      2.450334
  H      -3.848375      2.034367      1.026631
  H      -3.778599      0.101053      2.573880
  H      -1.847185      3.453743      0.738702
  H       0.279649      0.990990      3.559184
  H      -1.711064     -0.401834      3.837082
  C       0.476011      3.234108      1.946008
  N       1.543773      3.285221      2.812341
  H       1.571072      2.674699      3.618680
  H       2.021020      4.170081      2.932064
  H       0.290830      4.149766      1.399505
  H       1.135325      2.333016     -0.251619
  Cu      1.978479      2.436411      0.962922
18
Coordinates from ORCA-job ./orca E -1967.135484385912
  C      -2.944033      1.812584      1.577787
  C      -1.823640      2.610936      1.417535
  C      -0.652832      2.336203      2.136460
  C      -0.618000      1.239398      3.007818
  C      -1.740993      0.444071      3.162862
  C      -2.904479      0.727817      2.449669
  H      -3.847095      2.033546      1.024638
  H      -3.778268      0.101424      2.573419
  H      -1.845488      3.452243      0.736260
  H       0.279854      0.991216      3.559376
  H      -1.711267     -0.400939      3.837704
  C       0.477255      3.233032      1.944516
  N       1.545605      3.284752      2.812219
  H       1.573098      2.674983      3.619122
  H       2.023214      4.169503      2.931300
  H       0.292594      4.148356      1.397277
  H       1.120677      2.339894     -0.238678
  Cu      1.976257      2.435439      0.963756
18
Coordinates from ORCA-job ./orca E -1967.135483447988
  C      -2.944339      1.812889      1.578406
  C      -1.823868      2.611087      1.417760
  C      -0.652730      2.335953      2.135933
  C      -0.617746      1.239103      3.007173
  C      -1.740826      0.443918      3.162635
  C      -2.904590      0.727962      2.450067
  H      -3.847642      2.034153      1.025762
  H      -3.778451      0.101736      2.574167
  H      -1.845915      3.452526      0.736650
  H       0.280338      0.990708      3.558273
  H      -1.710929     -0.401184      3.837362
  C       0.477598      3.232655      1.943668
  N       1.544822      3.284920      2.812299
  H       1.571244      2.675520      3.619458
  H       2.021891      4.169880      2.931618
  H       0.292977      4.148020      1.396565
  H       1.122808      2.339722     -0.239082
  Cu      1.977820      2.434893      0.964325
18
Coordinates from ORCA-job ./orca E -1967.135490584102
  C      -2.945610      1.814480      1.580921
  C      -1.824635      2.611708      1.418434
  C      -0.652390      2.335073      2.134007
  C      -0.616518      1.237356      3.003961
  C      -1.740006      0.442968      3.161132
  C      -2.905073      0.728766      2.451507
  H      -3.849930      2.037218      1.030516
  H      -3.779257      0.103264      2.576935
  H      -1.847463      3.453853      0.738221
  H       0.282652      0.987492      3.552660
  H      -1.709328     -0.402854      3.834928
  C       0.478573      3.231528      1.940945
  N       1.542032      3.286717      2.813129
  H       1.564941      2.679299      3.621836
  H       2.017341      4.172589      2.932476
  H       0.293787      4.146375      1.393110
  H       1.129737      2.336233     -0.239068
  Cu      1.983610      2.432394      0.967391
18
Coordinates from ORCA-job ./orca E -1967.135487750877
  C      -2.946084      1.815288      1.581861
  C      -1.824938      2.612211      1.418829
  C      -0.652260      2.334810      2.133351
  C      -0.615948      1.236507      3.002553
  C      -1.739562      0.442427      3.160235
  C      -2.905191      0.729105      2.451831
  H      -3.850785      2.038659      1.032347
  H      -3.779504      0.103860      2.577679
  H      -1.848079      3.454758      0.739118
  H       0.283736      0.985794      3.550053
  H      -1.708524     -0.403904      3.833375
  C       0.478687      3.231290      1.940284
  N       1.541089      3.288007      2.813719
  H       1.563050      2.681731      3.623318
  H       2.016065      4.174136      2.932442
  H       0.293779      4.145389      1.391235
  H       1.131408      2.333403     -0.238197
  Cu      1.985522      2.430989      0.969008
18
Coordinates from ORCA-job ./orca E -1967.135058678259
  C      -2.945051      1.814695      1.580350
  C      -1.823671      2.611236      1.417058
  C      -0.651280      2.334113      2.132160
  C      -0.615504      1.236489      3.002242
  C      -1.739351      0.442788      3.160181
  C      -2.904685      0.729179      2.451177
  H      -3.849527      2.037848      1.030375
  H      -3.779182      0.104232      2.577231
  H      -1.846404      3.453263      0.736690
  H       0.283943      0.986003      3.550235
  H      -1.708723     -0.403022      3.833994
  C       0.479920      3.230208      1.938789
  N       1.542917      3.287539      2.813580
  H       1.565078      2.682017      3.623739
  H       2.018253      4.173560      2.931660
  H       0.295525      4.143972      1.389010
  H       1.116885      2.340320     -0.225235
  Cu      1.983316      2.430018      0.969803
18
Coordinates from ORCA-job ./orca E -1967.135061110729
  C      -2.945372      1.814996      1.580980
  C      -1.823900      2.611339      1.417221
  C      -0.651188      2.333824      2.131563
  C      -0.615242      1.236183      3.001543
  C      -1.739179      0.442654      3.159975
  C      -2.904820      0.729356      2.451644
  H      -3.850094      2.038448      1.031528
  H      -3.779411      0.104626      2.578136
  H      -1.846827      3.453465      0.736980
  H       0.284457      0.985471      3.549027
  H      -1.708368     -0.403237      3.833685
  C       0.480247      3.229812      1.937917
  N       1.542098      3.287675      2.813691
  H       1.563163      2.682483      3.624077
  H       2.016893      4.173903      2.932065
  H       0.295887      4.143625      1.388296
  H       1.119174      2.340312     -0.225688
  Cu      1.984941      2.429524      0.970401
18
Coordinates from ORCA-job ./orca E -1967.135065048379
  C      -2.946684      1.816579      1.583544
  C      -1.824663      2.611827      1.417707
  C      -0.650840      2.332808      2.129392
  C      -0.613967      1.234384      2.998163
  C      -1.738355      0.441765      3.158552
  C      -2.905378      0.730261      2.453311
  H      -3.852438      2.041493      1.036380
  H      -3.780357      0.106404      2.581392
  H      -1.848363      3.454569      0.738239
  H       0.286880      0.982165      3.543112
  H      -1.706743     -0.404804      3.831380
  C       0.481205      3.228619      1.935092
  N       1.539175      3.289365      2.814597
  H       1.556590      2.686025      3.626398
  H       2.012148      4.176496      2.933226
  H       0.296634      4.141974      1.384872
  H       1.126593      2.337270     -0.225832
  Cu      1.991022      2.427259      0.973516
18
Coordinates from ORCA-job ./orca E -1967.135064719030
  C      -2.947160      1.817403      1.584507
  C      -1.824987      2.612368      1.418126
  C      -0.650724      2.332582      2.128740
  C      -0.613392      1.233553      2.996734
  C      -1.737885      0.441219      3.157619
  C      -2.905469      0.730597      2.453620
  H      -3.853310      2.042952      1.038259
  H      -3.780562      0.106985      2.582117
  H      -1.849017      3.455517      0.739184
  H       0.287977      0.980485      3.540449
  H      -1.705904     -0.405875      3.829771
  C       0.481319      3.228392      1.934422
  N       1.538202      3.290664      2.815178
  H       1.554612      2.688481      3.627871
  H       2.010859      4.178046      2.933181
  H       0.296653      4.140991      1.382963
  H       1.128279      2.334263     -0.224884
  Cu      1.992969      2.425835      0.975183
18
Coordinates from ORCA-job ./orca E -1967.134626853560
  C      -2.946143      1.816815      1.583011
  C      -1.823736      2.611395      1.416366
  C      -0.649754      2.331880      2.127551
  C      -0.612951      1.233524      2.996420
  C      -1.737675      0.441572      3.157566
  C      -2.904972      0.730670      2.452975
  H      -3.852072      2.042152      1.036310
  H      -3.780248      0.107359      2.581681
  H      -1.847363      3.454029      0.736770
  H       0.288187      0.980677      3.540621
  H      -1.706100     -0.405005      3.830388
  C       0.482541      3.227304      1.932924
  N       1.540025      3.290197      2.815024
  H       1.556643      2.688769      3.628272
  H       2.013041      4.177474      2.932382
  H       0.298383      4.139570      1.380743
  H       1.113878      2.341214     -0.211903
  Cu      1.990777      2.424864      0.975939
18
Coordinates from ORCA-job ./orca E -1967.134661568885
  C      -2.946434      1.817099      1.583614
  C      -1.823960      2.611537      1.416588
  C      -0.649659      2.331628      2.127027
  C      -0.612713      1.233253      2.995807
  C      -1.737518      0.441440      3.157373
  C      -2.905074      0.730810      2.453377
  H      -3.852591      2.042719      1.037399
  H      -3.780419      0.107664      2.582433
  H      -1.847779      3.454295      0.737147
  H       0.288639      0.980234      3.539589
  H      -1.705787     -0.405206      3.830104
  C       0.482883      3.226914      1.932073
  N       1.539238      3.290307      2.815075
  H       1.554764      2.689204      3.628529
  H       2.011716      4.177785      2.932710
  H       0.298761      4.139249      1.380080
  H       1.116041      2.341170     -0.212361
  Cu      1.992353      2.424358      0.976475
18
Coordinates from ORCA-job ./orca E -1967.134633063617
  C      -2.947944      1.818953      1.586618
  C      -1.824827      2.612104      1.417186
  C      -0.649220      2.330400      2.124493
  C      -0.611259      1.231121      2.991905
  C      -1.736561      0.440324      3.155642
  C      -2.905677      0.731820      2.455229
  H      -3.855335      2.046380      1.043188
  H      -3.781451      0.109660      2.586064
  H      -1.849577      3.455714      0.738827
  H       0.291331      0.976518      3.532928
  H      -1.703961     -0.407070      3.827407
  C       0.483988      3.225506      1.928807
  N       1.535814      3.292280      2.815996
  H       1.547134      2.693347      3.631033
  H       2.006102      4.180820      2.933874
  H       0.299710      4.137293      1.376041
  H       1.124850      2.337463     -0.212385
  Cu      1.999341      2.421826      0.980189
18
Coordinates from ORCA-job ./orca E -1967.134633482768
  C      -2.948195      1.819493      1.587141
  C      -1.825058      2.612615      1.417565
  C      -0.649199      2.330413      2.124243
  C      -0.610899      1.230672      2.991078
  C      -1.736230      0.440009      3.155031
  C      -2.905663      0.732012      2.455289
  H      -3.855770      2.047217      1.044151
  H      -3.781462      0.109903      2.586245
  H      -1.849983      3.456451      0.739493
  H       0.292071      0.975469      3.531227
  H      -1.703361     -0.407809      3.826238
  C       0.483962      3.225478      1.928572
  N       1.535316      3.293200      2.816420
  H       1.546121      2.695046      3.632082
  H       2.005622      4.181836      2.933727
  H       0.299614      4.136632      1.374779
  H       1.125249      2.335047     -0.211500
  Cu      2.000328      2.420776      0.981257
18
Coordinates from ORCA-job ./orca E -1967.134636240618
  C      -2.948620      1.820575      1.588099
  C      -1.825403      2.613582      1.418207
  C      -0.649095      2.330398      2.123748
  C      -0.610160      1.229696      2.989453
  C      -1.735486      0.439225      3.153626
  C      -2.905549      0.732335      2.455225
  H      -3.856592      2.048989      1.046077
  H      -3.781418      0.110370      2.586422
  H      -1.850733      3.458063      0.740961
  H       0.293480      0.973485      3.528058
  H      -1.702186     -0.409409      3.823768
  C       0.483658      3.225593      1.928505
  N       1.534307      3.295251      2.817412
  H       1.544405      2.698803      3.634375
  H       2.005132      4.183840      2.933135
  H       0.299450      4.135054      1.371851
  H       1.125367      2.330257     -0.209392
  Cu      2.001902      2.418351      0.983511
18
Coordinates from ORCA-job ./orca E -1967.134634433838
  C      -2.948589      1.820595      1.588085
  C      -1.825390      2.613648      1.418265
  C      -0.649074      2.330419      2.123800
  C      -0.610144      1.229646      2.989475
  C      -1.735439      0.439148      3.153546
  C      -2.905495      0.732301      2.455122
  H      -3.856565      2.049030      1.046080
  H      -3.781346      0.110297      2.586244
  H      -1.850742      3.458201      0.741116
  H       0.293504      0.973484      3.528082
  H      -1.702167     -0.409546      3.823619
  C       0.483512      3.225735      1.928755
  N       1.534186      3.295442      2.817535
  H       1.544397      2.699141      3.634608
  H       2.005462      4.183850      2.932854
  H       0.299610      4.134855      1.371455
  H       1.124933      2.330315     -0.209195
  Cu      2.001805      2.417899      0.983595
18
Coordinates from ORCA-job ./orca E -1967.134188816342
  C      -2.947588      1.820011      1.586605
  C      -1.824156      2.612676      1.416517
  C      -0.648114      2.329711      2.122615
  C      -0.609705      1.229603      2.989160
  C      -1.735231      0.439488      3.153496
  C      -2.905006      0.732371      2.454488
  H      -3.855349      2.048240      1.044152
  H      -3.781039      0.110669      2.585822
  H      -1.849112      3.456720      0.738719
  H       0.293717      0.973653      3.528246
  H      -1.702359     -0.408695      3.824235
  C       0.484724      3.224640      1.927256
  N       1.536002      3.294977      2.817364
  H       1.546426      2.699431      3.634987
  H       2.007636      4.183279      2.932038
  H       0.301323      4.133424      1.369243
  H       1.110660      2.337332     -0.196211
  Cu      1.999631      2.416929      0.984306
18
Coordinates from ORCA-job ./orca E -1967.134191293534
  C      -2.947819      1.819934      1.587077
  C      -1.824331      2.612452      1.416555
  C      -0.648033      2.329358      2.122063
  C      -0.609682      1.229657      2.988989
  C      -1.735300      0.439639      3.153839
  C      -2.905193      0.732427      2.455128
  H      -3.855734      2.048255      1.044902
  H      -3.781291      0.110906      2.586898
  H      -1.849393      3.456380      0.738609
  H       0.293784      0.973950      3.528105
  H      -1.702391     -0.408292      3.824906
  C       0.485310      3.224071      1.926127
  N       1.535127      3.294247      2.817097
  H       1.544202      2.698446      3.634441
  H       2.006030      4.182724      2.932717
  H       0.302095      4.133577      1.369396
  H       1.113675      2.339769     -0.197877
  Cu      2.001402      2.416960      0.984067
18
Coordinates from ORCA-job ./orca E -1967.134192178402
  C      -2.948213      1.820124      1.587815
  C      -1.824482      2.612118      1.416371
  C      -0.647951      2.328931      2.121320
  C      -0.609432      1.229296      2.988156
  C      -1.735273      0.439649      3.153898
  C      -2.905509      0.732724      2.456008
  H      -3.856407      2.048783      1.046240
  H      -3.781738      0.111537      2.588426
  H      -1.849691      3.455975      0.738328
  H       0.294265      0.973398      3.526795
  H      -1.702205     -0.408172      3.825104
  C       0.485936      3.223505      1.924891
  N       1.534089      3.294018      2.817128
  H       1.541685      2.698166      3.634422
  H       2.004056      4.182870      2.933601
  H       0.302584      4.133696      1.369368
  H       1.116874      2.340879     -0.199048
  Cu      2.003873      2.416960      0.984216
18
Coordinates from ORCA-job ./orca E -1967.134202850805
  C      -2.948472      1.820439      1.588304
  C      -1.824601      2.612140      1.416360
  C      -0.647886      2.328689      2.120830
  C      -0.609171      1.228926      2.987429
  C      -1.735129      0.439511      3.153644
  C      -2.905652      0.732969      2.456416
  H      -3.856863      2.049391      1.047183
  H      -3.781987      0.112013      2.589228
  H      -1.849924      3.456053      0.738386
  H       0.294765      0.972640      3.525502
  H      -1.701883     -0.408429      3.824690
  C       0.486171      3.223233      1.924307
  N       1.533513      3.294360      2.817387
  H       1.540417      2.698767      3.634872
  H       2.003006      4.183439      2.934008
  H       0.302528      4.133479      1.368955
  H       1.118232      2.340143     -0.199104
  Cu      2.005396      2.416695      0.984643
18
Coordinates from ORCA-job ./orca E -1967.134196365697
  C      -2.948828      1.821089      1.589035
  C      -1.824796      2.612468      1.416527
  C      -0.647763      2.328408      2.120168
  C      -0.608688      1.228255      2.986234
  C      -1.734776      0.439148      3.152978
  C      -2.905746      0.733318      2.456766
  H      -3.857527      2.050541      1.048643
  H      -3.782226      0.112666      2.590046
  H      -1.850335      3.456623      0.738864
  H       0.295649      0.971238      3.523309
  H      -1.701231     -0.409140      3.823568
  C       0.486323      3.222945      1.923726
  N       1.532702      3.295356      2.817983
  H       1.538823      2.700489      3.636020
  H       2.001780      4.184697      2.934298
  H       0.302209      4.132751      1.367781
  H       1.119428      2.337813     -0.198524
  Cu      2.007460      2.415794      0.985619
18
Coordinates from ORCA-job ./orca E -1967.133739647785
  C      -2.947844      1.820511      1.587570
  C      -1.823580      2.611501      1.414789
  C      -0.646814      2.327698      2.118982
  C      -0.608253      1.228207      2.985911
  C      -1.734570      0.439485      3.152925
  C      -2.905267      0.733391      2.456140
  H      -3.856332      2.049762      1.046739
  H      -3.781929      0.113042      2.589637
  H      -1.848728      3.455150      0.736481
  H       0.295864      0.971398      3.523457
  H      -1.701420     -0.408295      3.824177
  C       0.487522      3.221848      1.922220
  N       1.534514      3.294891      2.817795
  H       1.540855      2.700778      3.636378
  H       2.003947      4.184129      2.933461
  H       0.303903      4.131321      1.365567
  H       1.105293      2.344822     -0.185482
  Cu      2.005298      2.414822      0.986293
18
Coordinates from ORCA-job ./orca E -1967.133732717927
  C      -2.948071      1.820640      1.588088
  C      -1.823776      2.611560      1.415005
  C      -0.646717      2.327434      2.118500
  C      -0.608118      1.228097      2.985553
  C      -1.734508      0.439480      3.152972
  C      -2.905371      0.733476      2.456583
  H      -3.856725      2.050050      1.047591
  H      -3.782087      0.113268      2.590400
  H      -1.849078      3.455243      0.736740
  H       0.296120      0.971317      3.522912
  H      -1.701266     -0.408238      3.824305
  C       0.487955      3.221368      1.921290
  N       1.533743      3.294642      2.817689
  H       1.538896      2.700638      3.636272
  H       2.002556      4.184063      2.933898
  H       0.304388      4.131116      1.365204
  H       1.107665      2.345845     -0.186467
  Cu      2.006854      2.414461      0.986507
18
Coordinates from ORCA-job ./orca E -1967.133741589440
  C      -2.948704      1.821319      1.589447
  C      -1.824109      2.611625      1.415178
  C      -0.646505      2.326850      2.117345
  C      -0.607528      1.227284      2.983959
  C      -1.734185      0.439177      3.152537
  C      -2.905687      0.733946      2.457643
  H      -3.857863      2.051425      1.050083
  H      -3.782593      0.114190      2.592307
  H      -1.849793      3.455531      0.737197
  H       0.297210      0.969983      3.520242
  H      -1.700605     -0.408686      3.823684
  C       0.488744      3.220532      1.919503
  N       1.532077      3.295022      2.817922
  H       1.534821      2.701669      3.636939
  H       1.999550      4.185020      2.934853
  H       0.304948      4.130483      1.363914
  H       1.112161      2.345603     -0.187408
  Cu      2.010523      2.413486      0.987695
18
Coordinates from ORCA-job ./orca E -1967.133744360578
  C      -2.949124      1.821990      1.590345
  C      -1.824342      2.611912      1.415368
  C      -0.646364      2.326530      2.116583
  C      -0.607014      1.226577      2.982647
  C      -1.733805      0.438796      3.151867
  C      -2.905811      0.734314      2.458133
  H      -3.858648      2.052662      1.051838
  H      -3.782856      0.114872      2.593331
  H      -1.850301      3.456088      0.737733
  H       0.298175      0.968638      3.517898
  H      -1.699913     -0.409403      3.822568
  C       0.489003      3.220185      1.918678
  N       1.531100      3.295890      2.818378
  H       1.532627      2.703316      3.637966
  H       1.997966      4.186211      2.935251
  H       0.304959      4.129760      1.362541
  H       1.114131      2.343605     -0.187040
  Cu      2.012676      2.412518      0.988952
18
Coordinates from ORCA-job ./orca E -1967.133745820254
  C      -2.949562      1.822897      1.591319
  C      -1.824609      2.612473      1.415701
  C      -0.646197      2.326247      2.115797
  C      -0.606347      1.225659      2.981058
  C      -1.733242      0.438214      3.150833
  C      -2.905845      0.734722      2.458445
  H      -3.859502      2.054261      1.053816
  H      -3.783037      0.115598      2.594147
  H      -1.850903      3.457086      0.738627
  H       0.299415      0.966861      3.514968
  H      -1.698971     -0.410545      3.820801
  C       0.489026      3.219999      1.918133
  N       1.530066      3.297357      2.819122
  H       1.530558      2.705968      3.639597
  H       1.996663      4.187914      2.935375
  H       0.304807      4.128609      1.360433
  H       1.115391      2.340161     -0.185858
  Cu      2.014747      2.410977      0.990726
18
Coordinates from ORCA-job ./orca E -1967.133284364502
  C      -2.948594      1.822324      1.589869
  C      -1.823409      2.611509      1.413974
  C      -0.645259      2.325534      2.114612
  C      -0.605915      1.225602      2.980731
  C      -1.733039      0.438544      3.150780
  C      -2.905375      0.734794      2.457830
  H      -3.858329      2.053493      1.051934
  H      -3.782749      0.115976      2.593751
  H      -1.849319      3.455620      0.736258
  H       0.299632      0.967006      3.515103
  H      -1.699156     -0.409712      3.821405
  C       0.490214      3.218897      1.916623
  N       1.531872      3.296893      2.818918
  H       1.532591      2.706257      3.639935
  H       1.998824      4.187348      2.934520
  H       0.306483      4.127176      1.358222
  H       1.101387      2.347194     -0.172786
  Cu      2.012600      2.410003      0.991361
18
Coordinates from ORCA-job ./orca E -1967.133286213997
  C      -2.948789      1.822356      1.590282
  C      -1.823593      2.611498      1.414127
  C      -0.645199      2.325310      2.114196
  C      -0.605841      1.225591      2.980506
  C      -1.733028      0.438612      3.150933
  C      -2.905481      0.734848      2.458258
  H      -3.858649      2.053609      1.052585
  H      -3.782892      0.116146      2.594480
  H      -1.849617      3.455574      0.736363
  H       0.299796      0.967084      3.514765
  H      -1.699080     -0.409534      3.821705
  C       0.490635      3.218479      1.915764
  N       1.531182      3.296504      2.818768
  H       1.530812      2.705824      3.639679
  H       1.997590      4.187103      2.934981
  H       0.307002      4.127162      1.358122
  H       1.103565      2.348489     -0.173843
  Cu      2.014047      2.409803      0.991368
18
Coordinates from ORCA-job ./orca E -1967.133286586145
  C      -2.949287      1.822763      1.591292
  C      -1.823851      2.611390      1.414113
  C      -0.645076      2.324848      2.113251
  C      -0.605424      1.225070      2.979333
  C      -1.732829      0.438498      3.150762
  C      -2.905758      0.735219      2.459205
  H      -3.859522      2.054487      1.054422
  H      -3.783311      0.116893      2.596174
  H      -1.850145      3.455524      0.736425
  H       0.300587      0.966261      3.512824
  H      -1.698643     -0.409645      3.821535
  C       0.491304      3.217833      1.914293
  N       1.529818      3.296515      2.818898
  H       1.527477      2.706079      3.639944
  H       1.995165      4.187537      2.935934
  H       0.307540      4.126983      1.357536
  H       1.107250      2.348920     -0.174876
  Cu      2.017165      2.409285      0.991977
18
Coordinates from ORCA-job ./orca E -1967.133288683061
  C      -2.949607      1.823238      1.591960
  C      -1.824026      2.611552      1.414201
  C      -0.644981      2.324586      2.112640
  C      -0.605042      1.224560      2.978349
  C      -1.732563      0.438260      3.150326
  C      -2.905870      0.735517      2.459641
  H      -3.860109      2.055364      1.055720
  H      -3.783534      0.117446      2.597059
  H      -1.850513      3.455844      0.736713
  H       0.301311      0.965276      3.511053
  H      -1.698145     -0.410104      3.820809
  C       0.491523      3.217553      1.913631
  N       1.529030      3.297086      2.819245
  H       1.525711      2.707148      3.640641
  H       1.993891      4.188348      2.936334
  H       0.307533      4.126535      1.356667
  H       1.108808      2.347636     -0.174724
  Cu      2.019042      2.408616      0.992775
18
Coordinates from ORCA-job ./orca E -1967.133291292233
  C      -2.949985      1.824019      1.592809
  C      -1.824245      2.612007      1.414455
  C      -0.644834      2.324312      2.111925
  C      -0.604468      1.223775      2.976978
  C      -1.732083      0.437778      3.149469
  C      -2.905908      0.735892      2.459955
  H      -3.860847      2.056742      1.057437
  H      -3.783711      0.118115      2.597843
  H      -1.851009      3.456654      0.737427
  H       0.302370      0.963743      3.508528
  H      -1.697338     -0.411048      3.819344
  C       0.491554      3.217352      1.913144
  N       1.528070      3.298327      2.819919
  H       1.523805      2.709368      3.642035
  H       1.992677      4.189795      2.936505
  H       0.307320      4.125543      1.354928
  H       1.109909      2.344838     -0.173811
  Cu      2.021181      2.407248      0.994151
18
Coordinates from ORCA-job ./orca E -1967.132835027590
  C      -2.949035      1.823452      1.591374
  C      -1.823064      2.611047      1.412738
  C      -0.643908      2.323596      2.110739
  C      -0.604039      1.223710      2.976644
  C      -1.731882      0.438102      3.149414
  C      -2.905447      0.735966      2.459348
  H      -3.859696      2.055985      1.055578
  H      -3.783430      0.118495      2.597459
  H      -1.849449      3.455195      0.735073
  H       0.302589      0.963875      3.508648
  H      -1.697520     -0.410224      3.819942
  C       0.492730      3.216247      1.911628
  N       1.529870      3.297863      2.819696
  H       1.525839      2.709656      3.642352
  H       1.994831      4.189232      2.935631
  H       0.308976      4.124108      1.352718
  H       1.096046      2.351881     -0.160691
  Cu      2.019047      2.406273      0.994747
18
Coordinates from ORCA-job ./orca E -1967.132821911455
  C      -2.949186      1.823451      1.591721
  C      -1.823215      2.611042      1.412906
  C      -0.643848      2.323403      2.110410
  C      -0.604000      1.223733      2.976519
  C      -1.731901      0.438185      3.149605
  C      -2.905543      0.735997      2.459725
  H      -3.859937      2.056026      1.056086
  H      -3.783555      0.118612      2.598069
  H      -1.849692      3.455146      0.735178
  H       0.302678      0.964017      3.508490
  H      -1.697496     -0.410019      3.820293
  C       0.493145      3.215839      1.910844
  N       1.529275      3.297449      2.819517
  H       1.524244      2.709176      3.642045
  H       1.993695      4.188959      2.936041
  H       0.309426      4.124102      1.352714
  H       1.097991      2.353253     -0.161771
  Cu      2.020378      2.406088      0.994647
18
Coordinates from ORCA-job ./orca E -1967.132827240074
  C      -2.949617      1.823847      1.592684
  C      -1.823432      2.610969      1.412958
  C      -0.643718      2.322987      2.109587
  C      -0.603630      1.223251      2.975457
  C      -1.731728      0.438071      3.149443
  C      -2.905784      0.736331      2.460582
  H      -3.860708      2.056864      1.057807
  H      -3.783920      0.119287      2.599573
  H      -1.850160      3.455148      0.735327
  H       0.303369      0.963259      3.506757
  H      -1.697108     -0.410128      3.820134
  C       0.493834      3.215186      1.909443
  N       1.527998      3.297458      2.819589
  H       1.521060      2.709449      3.642248
  H       1.991305      4.189416      2.936892
  H       0.309883      4.123903      1.352221
  H       1.101409      2.353656     -0.162812
  Cu      2.023408      2.405506      0.995152
18
Coordinates from ORCA-job ./orca E -1967.132825533394
  C      -2.949887      1.824263      1.593260
  C      -1.823567      2.611101      1.413021
  C      -0.643616      2.322744      2.109047
  C      -0.603293      1.222796      2.974603
  C      -1.731503      0.437869      3.149080
  C      -2.905885      0.736598      2.460968
  H      -3.861207      2.057634      1.058928
  H      -3.784125      0.119781      2.600349
  H      -1.850458      3.455411      0.735552
  H       0.303998      0.962391      3.505235
  H      -1.696686     -0.410512      3.819529
  C       0.494055      3.214928      1.908870
  N       1.527322      3.297956      2.819900
  H       1.519504      2.710368      3.642858
  H       1.990150      4.190151      2.937289
  H       0.309816      4.123507      1.351503
  H       1.102693      2.352575     -0.162731
  Cu      2.025148      2.404896      0.995777
18
Coordinates from ORCA-job ./orca E -1967.132828239415
  C      -2.950218      1.824977      1.594023
  C      -1.823730      2.611467      1.413173
  C      -0.643450      2.322444      2.108330
  C      -0.602744      1.222045      2.973312
  C      -1.731058      0.437435      3.148307
  C      -2.905923      0.736977      2.461297
  H      -3.861870      2.058908      1.060510
  H      -3.784313      0.120476      2.601165
  H      -1.850869      3.456080      0.736096
  H       0.304989      0.960958      3.502882
  H      -1.695949     -0.411343      3.818237
  C       0.494086      3.214739      1.908457
  N       1.526428      3.299094      2.820572
  H       1.517723      2.712378      3.644159
  H       1.988983      4.191486      2.937569
  H       0.309546      4.122579      1.349933
  H       1.103604      2.350148     -0.161952
  Cu      2.027226      2.403611      0.996968
18
Coordinates from ORCA-job ./orca E -1967.132235565094
  C      -2.949285      1.824415      1.592603
  C      -1.822567      2.610510      1.411466
  C      -0.642535      2.321727      2.107144
  C      -0.602320      1.221974      2.972971
  C      -1.730861      0.437754      3.148250
  C      -2.905472      0.737051      2.460699
  H      -3.860742      2.058161      1.058675
  H      -3.784041      0.120859      2.600795
  H      -1.849333      3.454629      0.733757
  H       0.305209      0.961080      3.502986
  H      -1.696128     -0.410527      3.818829
  C       0.495249      3.213631      1.906935
  N       1.528223      3.298631      2.820330
  H       1.519758      2.712664      3.644454
  H       1.991129      4.190925      2.936674
  H       0.311181      4.121144      1.347723
  H       1.089888      2.357198     -0.148777
  Cu      2.025107      2.402635      0.997526
18
Coordinates from ORCA-job ./orca E -1967.132306309016
  C      -2.949489      1.824526      1.593072
  C      -1.822774      2.610613      1.411734
  C      -0.642490      2.321571      2.106799
  C      -0.602233      1.221966      2.972731
  C      -1.730804      0.437763      3.148301
  C      -2.905548      0.737085      2.461061
  H      -3.861082      2.058382      1.059400
  H      -3.784136      0.120964      2.601391
  H      -1.849670      3.454745      0.734039
  H       0.305397      0.961120      3.502593
  H      -1.695974     -0.410484      3.818935
  C       0.495657      3.213227      1.906080
  N       1.527497      3.298350      2.820152
  H       1.517948      2.712452      3.644215
  H       1.989850      4.190786      2.936981
  H       0.311711      4.121073      1.347516
  H       1.092047      2.358042     -0.149644
  Cu      2.026550      2.402281      0.997684
18
Coordinates from ORCA-job ./orca E -1967.132356080992
  C      -2.950064      1.824986      1.594261
  C      -1.823114      2.610497      1.411770
  C      -0.642353      2.320978      2.105651
  C      -0.601777      1.221298      2.971318
  C      -1.730606      0.437624      3.148073
  C      -2.905862      0.737517      2.462143
  H      -3.862089      2.059407      1.061591
  H      -3.784594      0.121865      2.603346
  H      -1.850343      3.454744      0.734237
  H       0.306264      0.960098      3.500322
  H      -1.695512     -0.410606      3.818693
  C       0.496414      3.212469      1.904346
  N       1.525916      3.298413      2.820274
  H       1.514158      2.712738      3.644544
  H       1.987035      4.191443      2.938047
  H       0.312321      4.120837      1.346741
  H       1.096503      2.358444     -0.150784
  Cu      2.030163      2.401709      0.998467
18
Coordinates from ORCA-job ./orca E -1967.132361709438
  C      -2.950243      1.825357      1.594662
  C      -1.823204      2.610709      1.411871
  C      -0.642299      2.320914      2.105355
  C      -0.601492      1.220997      2.970689
  C      -1.730376      0.437451      3.147729
  C      -2.905893      0.737715      2.462347
  H      -3.862422      2.060018      1.062338
  H      -3.784696      0.122165      2.603763
  H      -1.850540      3.455069      0.734470
  H       0.306806      0.959428      3.499095
  H      -1.695101     -0.411001      3.818081
  C       0.496513      3.212361      1.904043
  N       1.525460      3.298898      2.820547
  H       1.513121      2.713649      3.645005
  H       1.986265      4.191998      2.938257
  H       0.312187      4.120531      1.346205
  H       1.097038      2.357027     -0.150415
  Cu      2.031336      2.401173      0.998998
18
Coordinates from ORCA-job ./orca E -1967.131884864252
  C      -2.949326      1.824801      1.593256
  C      -1.822059      2.609757      1.410173
  C      -0.641395      2.320196      2.104167
  C      -0.601072      1.220922      2.970340
  C      -1.730182      0.437767      3.147669
  C      -2.905452      0.737791      2.461758
  H      -3.861315      2.059279      1.060525
  H      -3.784434      0.122550      2.603405
  H      -1.849027      3.453624      0.732144
  H       0.307027      0.959540      3.499182
  H      -1.695278     -0.410192      3.818665
  C       0.497663      3.211251      1.902513
  N       1.527250      3.298434      2.820287
  H       1.515160      2.713933      3.645281
  H       1.988406      4.191439      2.937342
  H       0.313804      4.119096      1.343992
  H       1.083465      2.364075     -0.137181
  Cu      2.029225      2.400197      0.999523
18
Coordinates from ORCA-job ./orca E -1967.131869982296
  C      -2.949488      1.824889      1.593594
  C      -1.822198      2.609800      1.410301
  C      -0.641344      2.320018      2.103807
  C      -0.600975      1.220877      2.970069
  C      -1.730149      0.437818      3.147747
  C      -2.905546      0.737883      2.462110
  H      -3.861571      2.059451      1.061056
  H      -3.784573      0.122760      2.604020
  H      -1.849256      3.453636      0.732227
  H       0.307231      0.959451      3.498705
  H      -1.695155     -0.410088      3.818808
  C       0.498050      3.210881      1.901777
  N       1.526771      3.298214      2.820216
  H       1.513743      2.713696      3.645145
  H       1.987284      4.191441      2.937842
  H       0.313924      4.119122      1.344059
  H       1.085018      2.364537     -0.137928
  Cu      2.030693      2.400074      0.999483
18
Coordinates from ORCA-job ./orca E -1967.131880234029
  C      -2.950182      1.825752      1.595155
  C      -1.822499      2.609810      1.410302
  C      -0.641074      2.319258      2.102260
  C      -0.600204      1.219904      2.968006
  C      -1.729749      0.437577      3.147273
  C      -2.905914      0.738601      2.463486
  H      -3.862836      2.061145      1.063953
  H      -3.785225      0.124176      2.606601
  H      -1.849974      3.453805      0.732429
  H       0.308627      0.957689      3.495219
  H      -1.694336     -0.410425      3.818202
  C       0.499145      3.209765      1.899503
  N       1.524928      3.298595      2.820556
  H       1.508767      2.714619      3.645772
  H       1.983131      4.192788      2.939608
  H       0.313724      4.118719      1.343430
  H       1.089890      2.363404     -0.139104
  Cu      2.036242      2.399280      1.000388
18
Coordinates from ORCA-job ./orca E -1967.131888661554
  C      -2.950360      1.826154      1.595594
  C      -1.822586      2.610027      1.410407
  C      -0.640971      2.319078      2.101858
  C      -0.599912      1.219500      2.967324
  C      -1.729518      0.437359      3.146888
  C      -2.905941      0.738830      2.463698
  H      -3.863186      2.061840      1.064821
  H      -3.785335      0.124574      2.607067
  H      -1.850191      3.454163      0.732714
  H       0.309163      0.956893      3.493940
  H      -1.693940     -0.410871      3.817515
  C       0.499213      3.209599      1.899219
  N       1.524488      3.299182      2.820887
  H       1.507701      2.715697      3.646460
  H       1.982366      4.193558      2.939852
  H       0.313465      4.118175      1.342602
  H       1.090433      2.362176     -0.138809
  Cu      2.037572      2.398528      1.001004
18
Coordinates from ORCA-job ./orca E -1967.131884089513
  C      -2.950536      1.826829      1.596185
  C      -1.822659      2.610506      1.410658
  C      -0.640775      2.318886      2.101410
  C      -0.599420      1.218787      2.966325
  C      -1.729068      0.436874      3.146100
  C      -2.905846      0.739118      2.463750
  H      -3.863618      2.062996      1.066080
  H      -3.785346      0.125071      2.607360
  H      -1.850462      3.454992      0.733419
  H       0.310028      0.955613      3.492050
  H      -1.693294     -0.411818      3.816123
  C       0.498987      3.209612      1.899329
  N       1.523802      3.300457      2.821562
  H       1.506420      2.718037      3.647904
  H       1.981810      4.194878      2.939777
  H       0.313206      4.116901      1.340611
  H       1.090206      2.360043     -0.137805
  Cu      2.039025      2.396680      1.002201
18
Coordinates from ORCA-job ./orca E -1967.131408646861
  C      -2.949637      1.826277      1.594794
  C      -1.821533      2.609557      1.408971
  C      -0.639884      2.318167      2.100222
  C      -0.599003      1.218704      2.965969
  C      -1.728876      0.437183      3.146038
  C      -2.905414      0.739194      2.463170
  H      -3.862534      2.062266      1.064292
  H      -3.785091      0.125456      2.607014
  H      -1.848976      3.453555      0.731108
  H       0.310251      0.955713      3.492120
  H      -1.693466     -0.411020      3.816700
  C       0.500123      3.208501      1.897793
  N       1.525584      3.299994      2.821282
  H       1.508457      2.718319      3.648155
  H       1.983942      4.194321      2.938844
  H       0.314800      4.115467      1.338399
  H       1.076787      2.367104     -0.124516
  Cu      2.036933      2.395703      1.002684
18
Coordinates from ORCA-job ./orca E -1967.131398165438
  C      -2.949758      1.826147      1.595082
  C      -1.821706      2.609517      1.409199
  C      -0.639879      2.318071      2.100031
  C      -0.599059      1.218911      2.966056
  C      -1.728954      0.437356      3.146375
  C      -2.905502      0.739135      2.463538
  H      -3.862699      2.062076      1.064608
  H      -3.785162      0.125400      2.607536
  H      -1.849220      3.453415      0.731205
  H       0.310195      0.956196      3.492329
  H      -1.693531     -0.410646      3.817304
  C       0.500614      3.208136      1.896944
  N       1.524943      3.299297      2.820923
  H       1.506745      2.717384      3.647501
  H       1.982776      4.193716      2.939227
  H       0.315544      4.115772      1.338735
  H       1.078835      2.368994     -0.125858
  Cu      2.038277      2.395580      1.002305
18
Coordinates from ORCA-job ./orca E -1967.131399539540
  C      -2.950029      1.826251      1.595644
  C      -1.821850      2.609307      1.409137
  C      -0.639861      2.317877      2.099566
  C      -0.598896      1.218773      2.965500
  C      -1.728908      0.437415      3.146449
  C      -2.905681      0.739301      2.464169
  H      -3.863160      2.062381      1.065569
  H      -3.785382      0.125735      2.608585
  H      -1.849511      3.453170      0.731098
  H       0.310520      0.956060      3.491508
  H      -1.693370     -0.410456      3.817546
  C       0.501159      3.207787      1.895950
  N       1.524026      3.298957      2.820807
  H       1.504496      2.716901      3.647225
  H       1.981107      4.193638      2.939907
  H       0.316136      4.116147      1.338976
  H       1.081186      2.369817     -0.126821
  Cu      2.040477      2.395399      1.002224
18
Coordinates from ORCA-job ./orca E -1967.131445968598
  C      -2.950220      1.826468      1.596019
  C      -1.821951      2.609309      1.409117
  C      -0.639831      2.317722      2.099189
  C      -0.598701      1.218557      2.964966
  C      -1.728788      0.437360      3.146302
  C      -2.905773      0.739482      2.464511
  H      -3.863492      2.062795      1.066272
  H      -3.785531      0.126065      2.609226
  H      -1.849707      3.453198      0.731111
  H       0.310900      0.955618      3.490561
  H      -1.693111     -0.410577      3.817311
  C       0.501356      3.207616      1.895494
  N       1.523485      3.299128      2.820968
  H       1.503291      2.717182      3.647443
  H       1.980188      4.193967      2.940308
  H       0.316158      4.116122      1.338809
  H       1.082181      2.369405     -0.126947
  Cu      2.042006      2.395042      1.002379
18
Coordinates from ORCA-job ./orca E -1967.131400825184
  C      -2.950633      1.827149      1.596889
  C      -1.822122      2.609437      1.409071
  C      -0.639670      2.317231      2.098229
  C      -0.598148      1.217739      2.963528
  C      -1.728407      0.436984      3.145640
  C      -2.905932      0.739965      2.465136
  H      -3.864277      2.064093      1.068068
  H      -3.785892      0.127020      2.610595
  H      -1.850106      3.453543      0.731347
  H       0.311890      0.954097      3.488040
  H      -1.692438     -0.411242      3.816261
  C       0.501470      3.207309      1.894862
  N       1.522304      3.300122      2.821625
  H       1.501086      2.718771      3.648519
  H       1.978474      4.195252      2.940908
  H       0.315876      4.115406      1.337580
  H       1.083909      2.367663     -0.126520
  Cu      2.045075      2.393923      1.003261
18
Coordinates from ORCA-job ./orca E -1967.130925632657
  C      -2.949752      1.826603      1.595514
  C      -1.821016      2.608494      1.407394
  C      -0.638791      2.316512      2.097038
  C      -0.597736      1.217651      2.963163
  C      -1.728218      0.437291      3.145575
  C      -2.905509      0.740043      2.464565
  H      -3.863216      2.063373      1.066304
  H      -3.785645      0.127408      2.610262
  H      -1.848646      3.452114      0.729051
  H       0.312114      0.954189      3.488092
  H      -1.692606     -0.410450      3.816829
  C       0.502592      3.206197      1.893318
  N       1.524080      3.299658      2.821327
  H       1.503123      2.719049      3.648749
  H       1.980598      4.194698      2.939954
  H       0.317449      4.113975      1.335365
  H       1.070645      2.374713     -0.113166
  Cu      2.042994      2.392944      1.003706
18
Coordinates from ORCA-job ./orca E -1967.130914996801
  C      -2.949812      1.826578      1.595707
  C      -1.821183      2.608708      1.407759
  C      -0.638787      2.316535      2.096995
  C      -0.597770      1.217851      2.963305
  C      -1.728247      0.437415      3.145784
  C      -2.905506      0.739974      2.464687
  H      -3.863273      2.063247      1.066436
  H      -3.785603      0.127265      2.610360
  H      -1.848869      3.452277      0.729340
  H       0.312095      0.954505      3.488259
  H      -1.692594     -0.410274      3.817110
  C       0.502941      3.205891      1.892728
  N       1.523733      3.299273      2.821089
  H       1.502010      2.718606      3.648362
  H       1.979821      4.194394      2.940151
  H       0.317710      4.114003      1.335516
  H       1.071796      2.375527     -0.113992
  Cu      2.043998      2.392686      1.003441
18
Coordinates from ORCA-job ./orca E -1967.130420280142
  C      -2.948949      1.826035      1.594345
  C      -1.820096      2.607768      1.406088
  C      -0.637923      2.315817      2.095800
  C      -0.597363      1.217761      2.962930
  C      -1.728062      0.437719      3.145716
  C      -2.905093      0.740052      2.464124
  H      -3.862235      2.062532      1.064694
  H      -3.785366      0.127653      2.610041
  H      -1.847433      3.450854      0.727054
  H       0.312317      0.954593      3.488292
  H      -1.692762     -0.409487      3.817670
  C       0.504048      3.204779      1.891173
  N       1.525506      3.298806      2.820769
  H       1.504053      2.718880      3.648568
  H       1.981943      4.193838      2.939173
  H       0.319261      4.112573      1.333295
  H       1.058697      2.382576     -0.100553
  Cu      2.041918      2.391711      1.003861
18
Coordinates from ORCA-job ./orca E -1967.130414109964
  C      -2.949248      1.826176      1.594992
  C      -1.820358      2.607809      1.406347
  C      -0.637884      2.315615      2.095310
  C      -0.597244      1.217737      2.962505
  C      -1.728043      0.437807      3.145845
  C      -2.905266      0.740171      2.464735
  H      -3.862706      2.062825      1.065685
  H      -3.785569      0.127899      2.611014
  H      -1.847874      3.450867      0.727271
  H       0.312582      0.954556      3.487610
  H      -1.692590     -0.409292      3.817936
  C       0.504822      3.204152      1.889766
  N       1.524634      3.298323      2.820464
  H       1.501506      2.718290      3.648051
  H       1.979815      4.193776      2.939937
  H       0.319655      4.112865      1.333656
  H       1.061721      2.383237     -0.101863
  Cu      2.044507      2.391646      1.003778
18
Coordinates from ORCA-job ./orca E -1967.130428297407
  C      -2.950099      1.827124      1.596834
  C      -1.820773      2.607765      1.406385
  C      -0.637672      2.314877      2.093670
  C      -0.596462      1.216747      2.960185
  C      -1.727672      0.437603      3.145349
  C      -2.905741      0.740944      2.466346
  H      -3.864202      2.064714      1.069046
  H      -3.786294      0.129347      2.613889
  H      -1.848797      3.451033      0.727571
  H       0.314011      0.952766      3.483830
  H      -1.691711     -0.409555      3.817348
  C       0.506279      3.202847      1.886860
  N       1.522567      3.298514      2.820509
  H       1.495819      2.718800      3.648170
  H       1.974656      4.195240      2.941936
  H       0.319500      4.112944      1.333583
  H       1.067979      2.381419     -0.103208
  Cu      2.051071      2.391327      1.004738
18
Coordinates from ORCA-job ./orca E -1967.130428821266
  C      -2.950433      1.827730      1.597578
  C      -1.820929      2.607987      1.406466
  C      -0.637524      2.314495      2.092906
  C      -0.596016      1.216091      2.959035
  C      -1.727379      0.437324      3.144846
  C      -2.905863      0.741345      2.466830
  H      -3.864823      2.065813      1.070512
  H      -3.786574      0.130105      2.614908
  H      -1.849154      3.451436      0.727879
  H       0.314830      0.951499      3.481759
  H      -1.691165     -0.410094      3.816506
  C       0.506521      3.202425      1.886128
  N       1.521874      3.299234      2.820889
  H       1.494011      2.720084      3.648924
  H       1.973002      4.196410      2.942560
  H       0.318957      4.112272      1.332647
  H       1.069626      2.379658     -0.102990
  Cu      2.053498      2.390646      1.005658
18
Coordinates from ORCA-job ./orca E -1967.130432076123
  C      -2.950805      1.828721      1.598578
  C      -1.821075      2.608525      1.406694
  C      -0.637241      2.313970      2.091919
  C      -0.595298      1.214976      2.957384
  C      -1.726821      0.436722      3.143884
  C      -2.905893      0.741907      2.467256
  H      -3.865600      2.067552      1.072563
  H      -3.786846      0.131167      2.615986
  H      -1.849581      3.452365      0.728615
  H       0.316113      0.949460      3.478691
  H      -1.690296     -0.411232      3.814850
  C       0.506438      3.202052      1.885715
  N       1.520932      3.300770      2.821688
  H       1.491816      2.722877      3.650592
  H       1.971299      4.198382      2.943037
  H       0.318118      4.110561      1.330251
  H       1.070807      2.376888     -0.102052
  Cu      2.056393      2.388797      1.007387
18
Coordinates from ORCA-job ./orca E -1967.130451402042
  C      -2.950799      1.828973      1.598753
  C      -1.821061      2.608786      1.406857
  C      -0.637133      2.313929      2.091842
  C      -0.595095      1.214664      2.957084
  C      -1.726599      0.436468      3.143544
  C      -2.905778      0.741983      2.467163
  H      -3.865672      2.067961      1.072952
  H      -3.786768      0.131302      2.615913
  H      -1.849639      3.452801      0.729009
  H       0.316462      0.949025      3.478073
  H      -1.690065     -0.411688      3.814249
  C       0.506138      3.202211      1.886102
  N       1.520629      3.301371      2.821994
  H       1.491353      2.724037      3.651300
  H       1.971381      4.198871      2.942826
  H       0.318187      4.109756      1.328986
  H       1.070158      2.376452     -0.101517
  Cu      2.056761      2.387558      1.007909
18
Coordinates from ORCA-job ./orca E -1967.129944885985
  C      -2.949952      1.828436      1.597407
  C      -1.819992      2.607851      1.405199
  C      -0.636280      2.313209      2.090649
  C      -0.594690      1.214565      2.956702
  C      -1.726414      0.436764      3.143473
  C      -2.905373      0.742061      2.466609
  H      -3.864654      2.067259      1.071235
  H      -3.786536      0.131690      2.615605
  H      -1.848228      3.451388      0.726741
  H       0.316689      0.949098      3.478091
  H      -1.690225     -0.410913      3.814801
  C       0.507232      3.201097      1.884545
  N       1.522392      3.300907      2.821658
  H       1.493387      2.724309      3.651486
  H       1.973493      4.198319      2.941836
  H       0.319717      4.108329      1.326770
  H       1.057192      2.383508     -0.088047
  Cu      2.054703      2.386580      1.008280
18
Coordinates from ORCA-job ./orca E -1967.129936400279
  C      -2.950061      1.828267      1.597656
  C      -1.820204      2.607877      1.405521
  C      -0.636320      2.313250      2.090597
  C      -0.594799      1.214914      2.956925
  C      -1.726498      0.436970      3.143820
  C      -2.905431      0.741934      2.466897
  H      -3.864780      2.066964      1.071438
  H      -3.786525      0.131465      2.615935
  H      -1.848522      3.451323      0.726939
  H       0.316563      0.949786      3.478493
  H      -1.690283     -0.410529      3.815380
  C       0.507764      3.200819      1.883680
  N       1.521774      3.300125      2.821181
  H       1.491691      2.723224      3.650657
  H       1.972360      4.197608      2.942139
  H       0.320610      4.108880      1.327333
  H       1.059056      2.385096     -0.089312
  Cu      2.056063      2.386486      1.007761
18
Coordinates from ORCA-job ./orca E -1967.129943050271
  C      -2.950281      1.828302      1.598088
  C      -1.820358      2.607711      1.405520
  C      -0.636365      2.313217      2.090347
  C      -0.594727      1.214946      2.956584
  C      -1.726488      0.437076      3.143918
  C      -2.905566      0.742003      2.467365
  H      -3.865129      2.067108      1.072130
  H      -3.786635      0.131568      2.616645
  H      -1.848808      3.451135      0.726908
  H       0.316744      0.949911      3.478034
  H      -1.690177     -0.410301      3.815634
  C       0.508278      3.200620      1.882808
  N       1.521016      3.299708      2.820932
  H       1.489807      2.722549      3.650162
  H       1.970922      4.197415      2.942680
  H       0.321251      4.109566      1.327921
  H       1.060857      2.385479     -0.090065
  Cu      2.058118      2.386447      1.007428
18
Coordinates from ORCA-job ./orca E -1967.129920105271
  C      -2.950433      1.828412      1.598334
  C      -1.820446      2.607656      1.405466
  C      -0.636379      2.313117      2.090085
  C      -0.594623      1.214849      2.956241
  C      -1.726439      0.437093      3.143881
  C      -2.905657      0.742125      2.467646
  H      -3.865370      2.067330      1.072581
  H      -3.786751      0.131782      2.617149
  H      -1.848953      3.451067      0.726831
  H       0.316965      0.949699      3.477444
  H      -1.690032     -0.410287      3.815585
  C       0.508439      3.200514      1.882451
  N       1.520606      3.299725      2.820991
  H       1.488920      2.722503      3.650159
  H       1.970166      4.197560      2.943061
  H       0.321264      4.109751      1.328074
  H       1.061588      2.385285     -0.090225
  Cu      2.059595      2.386278      1.007285
18
Coordinates from ORCA-job ./orca E -1967.129943899735
  C      -2.950678      1.828741      1.598754
  C      -1.820552      2.607659      1.405352
  C      -0.636355      2.312849      2.089566
  C      -0.594360      1.214482      2.955521
  C      -1.726275      0.436979      3.143631
  C      -2.905779      0.742415      2.468050
  H      -3.865792      2.067942      1.073437
  H      -3.786978      0.132327      2.617994
  H      -1.849145      3.451103      0.726756
  H       0.317458      0.948947      3.476140
  H      -1.689704     -0.410514      3.815186
  C       0.508433      3.200354      1.882194
  N       1.519908      3.300193      2.821384
  H       1.487736      2.723105      3.650632
  H       1.969117      4.198181      2.943581
  H       0.320868      4.109491      1.327740
  H       1.062312      2.384693     -0.090099
  Cu      2.062244      2.385514      1.007223
18
Coordinates from ORCA-job ./orca E -1967.129951948588
  C      -2.950667      1.828891      1.598795
  C      -1.820518      2.607777      1.405376
  C      -0.636302      2.312763      2.089512
  C      -0.594264      1.214258      2.955373
  C      -1.726200      0.436845      3.143476
  C      -2.905747      0.742500      2.468004
  H      -3.865803      2.068175      1.073564
  H      -3.787002      0.132506      2.617998
  H      -1.849100      3.451275      0.726859
  H       0.317605      0.948533      3.475802
  H      -1.689631     -0.410759      3.814890
  C       0.508169      3.200406      1.882570
  N       1.519717      3.300670      2.821694
  H       1.487777      2.723797      3.651110
  H       1.969209      4.198579      2.943458
  H       0.320515      4.108922      1.327154
  H       1.061715      2.384590     -0.089753
  Cu      2.062987      2.384732      1.007159
18
Coordinates from ORCA-job ./orca E -1967.129456518527
  C      -2.949839      1.828361      1.597465
  C      -1.819470      2.606848      1.403728
  C      -0.635462      2.312045      2.088315
  C      -0.593864      1.214157      2.954980
  C      -1.726018      0.437139      3.143400
  C      -2.905351      0.742580      2.467458
  H      -3.864810      2.067482      1.071873
  H      -3.786779      0.132896      2.617704
  H      -1.847718      3.449872      0.724606
  H       0.317832      0.948600      3.475798
  H      -1.689786     -0.409990      3.815432
  C       0.509247      3.199295      1.881003
  N       1.521471      3.300205      2.821336
  H       1.489807      2.724063      3.651271
  H       1.971311      4.198028      2.942447
  H       0.322021      4.107501      1.324934
  H       1.048928      2.391628     -0.076200
  Cu      2.060941      2.383752      1.007489
18
Coordinates from ORCA-job ./orca E -1967.129448224139
  C      -2.949954      1.828364      1.597784
  C      -1.819662      2.607012      1.404108
  C      -0.635443      2.312019      2.088197
  C      -0.593892      1.214305      2.955025
  C      -1.726047      0.437206      3.143551
  C      -2.905395      0.742524      2.467675
  H      -3.864977      2.067477      1.072262
  H      -3.786800      0.132815      2.617975
  H      -1.848012      3.450035      0.724980
  H       0.317821      0.948875      3.475860
  H      -1.689762     -0.409864      3.815661
  C       0.509710      3.198948      1.880205
  N       1.520937      3.299804      2.821011
  H       1.488357      2.723574      3.650755
  H       1.970172      4.197779      2.942645
  H       0.322471      4.107644      1.325117
  H       1.050670      2.392361     -0.077091
  Cu      2.062265      2.383582      1.007318
18
Coordinates from ORCA-job ./orca E -1967.129447857882
  C      -2.950240      1.828669      1.598471
  C      -1.819839      2.607062      1.404284
  C      -0.635378      2.311853      2.087765
  C      -0.593683      1.214039      2.954350
  C      -1.725950      0.437124      3.143401
  C      -2.905539      0.742704      2.468171
  H      -3.865478      2.068088      1.073448
  H      -3.786988      0.133145      2.618778
  H      -1.848393      3.450205      0.725309
  H       0.318210      0.948456      3.474817
  H      -1.689509     -0.409959      3.815491
  C       0.510312      3.198518      1.879122
  N       1.520064      3.299809      2.820883
  H       1.486191      2.723600      3.650557
  H       1.968254      4.198200      2.943150
  H       0.322675      4.107774      1.325146
  H       1.053029      2.391787     -0.077627
  Cu      2.064721      2.383386      1.007523
18
Coordinates from ORCA-job ./orca E -1967.129464000727
  C      -2.950435      1.828974      1.598897
  C      -1.819927      2.607136      1.404332
  C      -0.635317      2.311657      2.087382
  C      -0.593469      1.213706      2.953736
  C      -1.725826      0.436996      3.143170
  C      -2.905637      0.742913      2.468477
  H      -3.865825      2.068659      1.074261
  H      -3.787162      0.133526      2.619355
  H      -1.848590      3.450373      0.725471
  H       0.318610      0.947838      3.473752
  H      -1.689251     -0.410196      3.815118
  C       0.510515      3.198280      1.878656
  N       1.519584      3.300149      2.821042
  H       1.485116      2.724104      3.650806
  H       1.967225      4.198784      2.943490
  H       0.322448      4.107548      1.324810
  H       1.054120      2.390911     -0.077584
  Cu      2.066281      2.383103      1.007869
18
Coordinates from ORCA-job ./orca E -1967.129453582874
  C      -2.950647      1.829426      1.599388
  C      -1.819995      2.607292      1.404362
  C      -0.635212      2.311371      2.086885
  C      -0.593155      1.213178      2.952923
  C      -1.725617      0.436755      3.142775
  C      -2.905719      0.743214      2.468779
  H      -3.866221      2.069473      1.075249
  H      -3.787365      0.134091      2.620012
  H      -1.848772      3.450663      0.725665
  H       0.319191      0.946857      3.472265
  H      -1.688882     -0.410645      3.814449
  C       0.510556      3.198057      1.878386
  N       1.519038      3.300865      2.821449
  H       1.484064      2.725165      3.651462
  H       1.966250      4.199731      2.943842
  H       0.321922      4.106896      1.323979
  H       1.054880      2.389673     -0.077234
  Cu      2.068143      2.382398      1.008404
18
Coordinates from ORCA-job ./orca E -1967.128962066431
  C      -2.949835      1.828900      1.598073
  C      -1.818966      2.606369      1.402723
  C      -0.634385      2.310654      2.085686
  C      -0.592759      1.213073      2.952521
  C      -1.725437      0.437045      3.142696
  C      -2.905331      0.743294      2.468243
  H      -3.865249      2.068787      1.073582
  H      -3.787148      0.134481      2.619730
  H      -1.847414      3.449269      0.723427
  H       0.319419      0.946916      3.472243
  H      -1.689033     -0.409885      3.814982
  C       0.511620      3.196946      1.876811
  N       1.520785      3.300400      2.821073
  H       1.486091      2.725426      3.651601
  H       1.968346      4.199181      2.942815
  H       0.323407      4.105478      1.321757
  H       1.042244      2.396706     -0.063621
  Cu      2.066105      2.381419      1.008699
18
Coordinates from ORCA-job ./orca E -1967.128948465280
  C      -2.950031      1.828985      1.598491
  C      -1.819200      2.606508      1.403011
  C      -0.634371      2.310560      2.085372
  C      -0.592693      1.213126      2.952302
  C      -1.725391      0.437088      3.142746
  C      -2.905402      0.743318      2.468576
  H      -3.865563      2.068955      1.074228
  H      -3.787223      0.134561      2.620292
  H      -1.847792      3.449427      0.723741
  H       0.319577      0.947013      3.471865
  H      -1.688878     -0.409805      3.815081
  C       0.512066      3.196579      1.875889
  N       1.520133      3.300072      2.820828
  H       1.484377      2.725060      3.651191
  H       1.966970      4.199053      2.943198
  H       0.323842      4.105645      1.321863
  H       1.044294      2.397041     -0.064394
  Cu      2.067745      2.381275      1.008760
18
Coordinates from ORCA-job ./orca E -1967.128953623093
  C      -2.950529      1.829513      1.599531
  C      -1.819541      2.606633      1.403193
  C      -0.634321      2.310272      2.084544
  C      -0.592285      1.212663      2.951069
  C      -1.725144      0.436944      3.142397
  C      -2.905609      0.743659      2.469362
  H      -3.866424      2.069973      1.076107
  H      -3.787511      0.135189      2.621715
  H      -1.848456      3.449733      0.724151
  H       0.320352      0.946194      3.469831
  H      -1.688339     -0.410043      3.814604
  C       0.512762      3.195992      1.874315
  N       1.518871      3.300197      2.820752
  H       1.481194      2.725381      3.651125
  H       1.964185      4.199773      2.944071
  H       0.324097      4.105767      1.321660
  H       1.047805      2.395671     -0.064871
  Cu      2.071352      2.380950      1.009486
18
Coordinates from ORCA-job ./orca E -1967.128959131727
  C      -2.950811      1.829933      1.600111
  C      -1.819691      2.606757      1.403250
  C      -0.634252      2.309998      2.083978
  C      -0.591981      1.212198      2.950205
  C      -1.724949      0.436758      3.142052
  C      -2.905729      0.743946      2.469772
  H      -3.866919      2.070747      1.077224
  H      -3.787728      0.135712      2.622529
  H      -1.848764      3.449998      0.724390
  H       0.320924      0.945341      3.468321
  H      -1.687966     -0.410390      3.814049
  C       0.512929      3.195691      1.873720
  N       1.518272      3.300645      2.820946
  H       1.479764      2.726152      3.651514
  H       1.962858      4.200547      2.944510
  H       0.323850      4.105389      1.321037
  H       1.049326      2.394502     -0.064733
  Cu      2.073324      2.380538      1.010165
18
Coordinates from ORCA-job ./orca E -1967.128972442241
  C      -2.951061      1.830460      1.600678
  C      -1.819803      2.607002      1.403338
  C      -0.634147      2.309696      2.083425
  C      -0.591618      1.211576      2.949276
  C      -1.724689      0.436466      3.141581
  C      -2.905799      0.744279      2.470078
  H      -3.867380      2.071668      1.078353
  H      -3.787922      0.136319      2.623217
  H      -1.849019      3.450425      0.724712
  H       0.321606      0.944208      3.466591
  H      -1.687540     -0.410943      3.813235
  C       0.512862      3.195466      1.873481
  N       1.517746      3.301433      2.821326
  H       1.478566      2.727499      3.652293
  H       1.961794      4.201633      2.944834
  H       0.323312      4.104520      1.319860
  H       1.050190      2.393110     -0.064231
  Cu      2.075361      2.379644      1.010994
18
Coordinates from ORCA-job ./orca E -1967.128468670644
  C      -2.950265      1.829940      1.599378
  C      -1.818791      2.606084      1.401709
  C      -0.633331      2.308979      2.082224
  C      -0.591224      1.211465      2.948867
  C      -1.724509      0.436751      3.141499
  C      -2.905419      0.744359      2.469549
  H      -3.866430      2.070992      1.076709
  H      -3.787710      0.136710      2.622947
  H      -1.847686      3.449040      0.722489
  H       0.321837      0.944257      3.466552
  H      -1.687685     -0.410192      3.813760
  C       0.513912      3.194355      1.871901
  N       1.519486      3.300968      2.820934
  H       1.480590      2.727756      3.652412
  H       1.963884      4.201084      2.943793
  H       0.324776      4.103105      1.317639
  H       1.037691      2.400142     -0.050573
  Cu      2.073333      2.378666      1.011251
18
Coordinates from ORCA-job ./orca E -1967.128461584290
  C      -2.950461      1.830035      1.599817
  C      -1.819029      2.606244      1.402044
  C      -0.633316      2.308912      2.081965
  C      -0.591179      1.211518      2.948681
  C      -1.724470      0.436760      3.141522
  C      -2.905490      0.744364      2.469855
  H      -3.866746      2.071185      1.077388
  H      -3.787778      0.136752      2.623438
  H      -1.848077      3.449250      0.722881
  H       0.321967      0.944359      3.466227
  H      -1.687539     -0.410165      3.813808
  C       0.514376      3.194003      1.870981
  N       1.518835      3.300658      2.820638
  H       1.478863      2.727442      3.651970
  H       1.962481      4.200986      2.944082
  H       0.325251      4.103265      1.317709
  H       1.039763      2.400393     -0.051303
  Cu      2.075009      2.378498      1.011337
18
Coordinates from ORCA-job ./orca E -1967.128465335519
  C      -2.950941      1.830566      1.600851
  C      -1.819364      2.606401      1.402307
  C      -0.633266      2.308669      2.081243
  C      -0.590817      1.211058      2.947519
  C      -1.724250      0.436580      3.141150
  C      -2.905695      0.744665      2.470567
  H      -3.867574      2.072216      1.079249
  H      -3.788051      0.137296      2.624688
  H      -1.848738      3.449625      0.723421
  H       0.322669      0.943578      3.464332
  H      -1.687036     -0.410463      3.813279
  C       0.515064      3.193460      1.869472
  N       1.517625      3.300801      2.820471
  H       1.475787      2.727823      3.651841
  H       1.959731      4.201746      2.944777
  H       0.325527      4.103372      1.317467
  H       1.043184      2.398881     -0.051662
  Cu      2.078605      2.378186      1.012069
18
Coordinates from ORCA-job ./orca E -1967.128482944003
  C      -2.951204      1.830943      1.601375
  C      -1.819521      2.606539      1.402396
  C      -0.633222      2.308442      2.080767
  C      -0.590568      1.210656      2.946773
  C      -1.724091      0.436419      3.140855
  C      -2.905808      0.744908      2.470920
  H      -3.868021      2.072897      1.080240
  H      -3.788239      0.137730      2.625371
  H      -1.849037      3.449891      0.723668
  H       0.323157      0.942837      3.463006
  H      -1.686714     -0.410769      3.812791
  C       0.515217      3.193190      1.868941
  N       1.517119      3.301179      2.820597
  H       1.474510      2.728495      3.652142
  H       1.958509      4.202442      2.945147
  H       0.325266      4.103039      1.316936
  H       1.044562      2.397805     -0.051523
  Cu      2.080544      2.377818      1.012638
18
Coordinates from ORCA-job ./orca E -1967.128468823127
  C      -2.951498      1.831506      1.602002
  C      -1.819659      2.606773      1.402479
  C      -0.633134      2.308103      2.080179
  C      -0.590205      1.209982      2.945784
  C      -1.723843      0.436101      3.140364
  C      -2.905916      0.745273      2.471285
  H      -3.868539      2.073881      1.081468
  H      -3.788479      0.138394      2.626150
  H      -1.849322      3.450315      0.723993
  H       0.323859      0.941624      3.461163
  H      -1.686288     -0.411360      3.811942
  C       0.515130      3.192930      1.868680
  N       1.516580      3.301980      2.820944
  H       1.473232      2.729904      3.652910
  H       1.957293      4.203597      2.945480
  H       0.324652      4.102112      1.315715
  H       1.045646      2.396431     -0.050999
  Cu      2.082952      2.376914      1.013502
18
Coordinates from ORCA-job ./orca E -1967.127978244050
  C      -2.950718      1.830991      1.600717
  C      -1.818665      2.605861      1.400861
  C      -0.632329      2.307386      2.078978
  C      -0.589813      1.209867      2.945367
  C      -1.723664      0.436380      3.140278
  C      -2.905543      0.745353      2.470765
  H      -3.867609      2.073215      1.079849
  H      -3.788273      0.138784      2.625892
  H      -1.848013      3.448939      0.721785
  H       0.324092      0.941664      3.461106
  H      -1.686427     -0.410617      3.812459
  C       0.516168      3.191820      1.867094
  N       1.518312      3.301514      2.820536
  H       1.475250      2.730155      3.653009
  H       1.959377      4.203048      2.944426
  H       0.326096      4.100701      1.313495
  H       1.033287      2.403461     -0.037297
  Cu      2.080934      2.375937      1.013720
18
Coordinates from ORCA-job ./orca E -1967.127965258322
  C      -2.950931      1.831110      1.601180
  C      -1.818922      2.606040      1.401192
  C      -0.632319      2.307309      2.078662
  C      -0.589739      1.209901      2.945107
  C      -1.723596      0.436386      3.140270
  C      -2.905607      0.745371      2.471086
  H      -3.867966      2.073457      1.080603
  H      -3.788341      0.138858      2.626449
  H      -1.848442      3.449188      0.722206
  H       0.324268      0.941726      3.460665
  H      -1.686236     -0.410605      3.812463
  C       0.516611      3.191454      1.866129
  N       1.517604      3.301225      2.820258
  H       1.473443      2.729884      3.652593
  H       1.957908      4.202973      2.944732
  H       0.326570      4.100850      1.313520
  H       1.035482      2.403581     -0.037986
  Cu      2.082673      2.375749      1.013909
18
Coordinates from ORCA-job ./orca E -1967.127941895568
  C      -2.951456      1.831691      1.602269
  C      -1.819305      2.606251      1.401470
  C      -0.632280      2.307068      2.077873
  C      -0.589339      1.209407      2.943834
  C      -1.723336      0.436176      3.139823
  C      -2.905809      0.745686      2.471812
  H      -3.868870      2.074573      1.082592
  H      -3.788609      0.139429      2.627766
  H      -1.849176      3.449651      0.722802
  H       0.325035      0.940858      3.458577
  H      -1.685666     -0.410970      3.811812
  C       0.517273      3.190909      1.864561
  N       1.516336      3.301441      2.820109
  H       1.470280      2.730400      3.652509
  H       1.955077      4.203808      2.945404
  H       0.326856      4.100958      1.313203
  H       1.039073      2.401727     -0.038211
  Cu      2.086378      2.375397      1.014836
18
Coordinates from ORCA-job ./orca E -1967.127975164483
  C      -2.951785      1.832164      1.602932
  C      -1.819506      2.606422      1.401587
  C      -0.632230      2.306790      2.077281
  C      -0.589029      1.208901      2.942891
  C      -1.723127      0.435953      3.139423
  C      -2.905943      0.745981      2.472242
  H      -3.869433      2.075435      1.083853
  H      -3.788833      0.139961      2.628616
  H      -1.849562      3.449997      0.723139
  H       0.325633      0.939936      3.456928
  H      -1.685253     -0.411385      3.811158
  C       0.517432      3.190580      1.863904
  N       1.515684      3.301925      2.820260
  H       1.468714      2.731285      3.652898
  H       1.953603      4.204665      2.945772
  H       0.326626      4.100526      1.312469
  H       1.040884      2.400381     -0.037992
  Cu      2.088585      2.374944      1.015678
18
Coordinates from ORCA-job ./orca E -1967.128000838612
  C      -2.952039      1.832647      1.603464
  C      -1.819657      2.606694      1.401739
  C      -0.632188      2.306536      2.076825
  C      -0.588737      1.208345      2.942074
  C      -1.722919      0.435695      3.139016
  C      -2.906025      0.746275      2.472518
  H      -3.869858      2.076241      1.084852
  H      -3.789008      0.140467      2.629194
  H      -1.849842      3.450434      0.723506
  H       0.326225      0.938911      3.455346
  H      -1.684884     -0.411901      3.810413
  C       0.517317      3.190356      1.863709
  N       1.515269      3.302614      2.820530
  H       1.467655      2.732548      3.653563
  H       1.952631      4.205655      2.945979
  H       0.326062      4.099666      1.311347
  H       1.041805      2.399204     -0.037505
  Cu      2.090654      2.374074      1.016470
18
Coordinates from ORCA-job ./orca E -1967.127488821934
  C      -2.951274      1.832137      1.602194
  C      -1.818680      2.605787      1.400131
  C      -0.631394      2.305819      2.075624
  C      -0.588348      1.208224      2.941650
  C      -1.722740      0.435969      3.138928
  C      -2.905659      0.746355      2.472007
  H      -3.868947      2.075584      1.083256
  H      -3.788807      0.140858      2.628948
  H      -1.848556      3.449068      0.721314
  H       0.326461      0.938941      3.455274
  H      -1.685017     -0.411169      3.810921
  C       0.518342      3.189246      1.862118
  N       1.516992      3.302149      2.820106
  H       1.469668      2.732794      3.653643
  H       1.954709      4.205106      2.944914
  H       0.327486      4.098259      1.309128
  H       1.029580      2.406235     -0.023765
  Cu      2.088644      2.373097      1.016649
18
Coordinates from ORCA-job ./orca E -1967.127482363002
  C      -2.951520      1.832295      1.602712
  C      -1.818944      2.605947      1.400434
  C      -0.631372      2.305711      2.075253
  C      -0.588252      1.208195      2.941304
  C      -1.722660      0.435928      3.138860
  C      -2.905746      0.746399      2.472364
  H      -3.869364      2.075922      1.084143
  H      -3.788913      0.140996      2.629587
  H      -1.849014      3.449331      0.721742
  H       0.326676      0.938909      3.454703
  H      -1.684806     -0.411209      3.810855
  C       0.518808      3.188870      1.861106
  N       1.516254      3.301918      2.819838
  H       1.467782      2.732606      3.653250
  H       1.953129      4.205126      2.945235
  H       0.327938      4.098394      1.309106
  H       1.031929      2.406172     -0.024395
  Cu      2.090535      2.372948      1.016942
18
Coordinates from ORCA-job ./orca E -1967.127487655982
  C      -2.952120      1.832991      1.603964
  C      -1.819380      2.606202      1.400745
  C      -0.631323      2.305416      2.074328
  C      -0.587795      1.207584      2.939812
  C      -1.722354      0.435652      3.138302
  C      -2.905977      0.746770      2.473173
  H      -3.870403      2.077255      1.086455
  H      -3.789228      0.141675      2.631070
  H      -1.849858      3.449898      0.722451
  H       0.327560      0.937850      3.452245
  H      -1.684145     -0.411690      3.810028
  C       0.519520      3.188257      1.859368
  N       1.514857      3.302241      2.819689
  H       1.464289      2.733324      3.653214
  H       1.949956      4.206164      2.945936
  H       0.328179      4.098412      1.308613
  H       1.036006      2.403876     -0.024514
  Cu      2.094677      2.372581      1.018160
18
Coordinates from ORCA-job ./orca E -1967.127529611194
  C      -2.952415      1.833414      1.604547
  C      -1.819572      2.606388      1.400888
  C      -0.631296      2.305181      2.073843
  C      -0.587539      1.207129      2.939004
  C      -1.722189      0.435451      3.137957
  C      -2.906104      0.747031      2.473542
  H      -3.870893      2.078009      1.087541
  H      -3.789429      0.142128      2.631771
  H      -1.850200      3.450236      0.722787
  H       0.328079      0.937009      3.450787
  H      -1.683799     -0.412080      3.809432
  C       0.519646      3.187957      1.858809
  N       1.514348      3.302687      2.819794
  H       1.462965      2.734161      3.653551
  H       1.948673      4.206961      2.946220
  H       0.327880      4.097976      1.307935
  H       1.037591      2.402675     -0.024297
  Cu      2.096715      2.372148      1.018929
18
Coordinates from ORCA-job ./orca E -1967.127491200329
  C      -2.952871      1.834259      1.605544
  C      -1.819803      2.606757      1.401126
  C      -0.631187      2.304677      2.073015
  C      -0.587040      1.206112      2.937533
  C      -1.721836      0.434917      3.137166
  C      -2.906276      0.747512      2.474052
  H      -3.871694      2.079529      1.089477
  H      -3.789784      0.143029      2.632870
  H      -1.850666      3.450951      0.723476
  H       0.329037      0.935236      3.448110
  H      -1.683190     -0.413031      3.808097
  C       0.519544      3.187523      1.858313
  N       1.513531      3.303851      2.820148
  H       1.461050      2.736340      3.654568
  H       1.946806      4.208670      2.946419
  H       0.327207      4.096604      1.306032
  H       1.039719      2.400564     -0.023478
  Cu      2.099915      2.370961      1.020569
18
Coordinates from ORCA-job ./orca E -1967.127005790958
  C      -2.952119      1.833755      1.604290
  C      -1.818842      2.605856      1.399530
  C      -0.630403      2.303960      2.071815
  C      -0.586653      1.205984      2.937102
  C      -1.721657      0.435184      3.137075
  C      -2.905915      0.747592      2.473549
  H      -3.870802      2.078882      1.087905
  H      -3.789587      0.143420      2.632636
  H      -1.849402      3.449595      0.721300
  H       0.329276      0.935254      3.448023
  H      -1.683316     -0.412310      3.808598
  C       0.520556      3.186413      1.856719
  N       1.515246      3.303385      2.819711
  H       1.463057      2.736581      3.654630
  H       1.948878      4.208121      2.945345
  H       0.328612      4.095200      1.303817
  H       1.027617      2.407600     -0.009712
  Cu      2.097915      2.369985      1.020708
18
Coordinates from ORCA-job ./orca E -1967.126999480742
  C      -2.952333      1.833836      1.604719
  C      -1.819143      2.606086      1.399902
  C      -0.630416      2.303959      2.071538
  C      -0.586597      1.206098      2.936901
  C      -1.721593      0.435239      3.137112
  C      -2.905961      0.747580      2.473842
  H      -3.871144      2.079028      1.088583
  H      -3.789607      0.143415      2.633125
  H      -1.849894      3.449893      0.721748
  H       0.329441      0.935432      3.447655
  H      -1.683119     -0.412242      3.808652
  C       0.521018      3.186084      1.855721
  N       1.514556      3.303002      2.819381
  H       1.461219      2.736164      3.654118
  H       1.947430      4.207937      2.945654
  H       0.329144      4.095461      1.303935
  H       1.029790      2.407665     -0.010409
  Cu      2.099672      2.369824      1.020862
18
Coordinates from ORCA-job ./orca E -1967.127003190714
  C      -2.952842      1.834371      1.605743
  C      -1.819563      2.606345      1.400215
  C      -0.630432      2.303847      2.070859
  C      -0.586256      1.205731      2.935750
  C      -1.721343      0.435075      3.136693
  C      -2.906127      0.747841      2.474480
  H      -3.871993      2.080002      1.090413
  H      -3.789787      0.143834      2.634246
  H      -1.850678      3.450403      0.722380
  H       0.330132      0.934761      3.445743
  H      -1.682555     -0.412564      3.808022
  C       0.521644      3.185629      1.854210
  N       1.513411      3.303123      2.819155
  H       1.458224      2.736554      3.653925
  H       1.944803      4.208632      2.946227
  H       0.329466      4.095702      1.303726
  H       1.033151      2.405674     -0.010530
  Cu      2.103207      2.369502      1.021781
18
Coordinates from ORCA-job ./orca E -1967.127011308511
  C      -2.953121      1.834729      1.606261
  C      -1.819760      2.606505      1.400344
  C      -0.630439      2.303664      2.070439
  C      -0.586050      1.205362      2.935047
  C      -1.721207      0.434917      3.136408
  C      -2.906248      0.748056      2.474813
  H      -3.872445      2.080643      1.091373
  H      -3.789961      0.144200      2.634872
  H      -1.851022      3.450695      0.722678
  H       0.330568      0.934074      3.444475
  H      -1.682251     -0.412879      3.807530
  C       0.521766      3.185364      1.853675
  N       1.512974      3.303459      2.819200
  H       1.457011      2.737220      3.654157
  H       1.943633      4.209293      2.946487
  H       0.329207      4.095394      1.303211
  H       1.034644      2.404648     -0.010369
  Cu      2.105159      2.369114      1.022438
18
Coordinates from ORCA-job ./orca E -1967.127007226045
  C      -2.953465      1.835330      1.606964
  C      -1.819940      2.606757      1.400485
  C      -0.630391      2.303299      2.069836
  C      -0.585710      1.204631      2.933989
  C      -1.720978      0.434554      3.135876
  C      -2.906396      0.748419      2.475205
  H      -3.873028      2.081717      1.092734
  H      -3.790240      0.144866      2.635700
  H      -1.851362      3.451180      0.723118
  H       0.331242      0.932797      3.442536
  H      -1.681842     -0.413523      3.806629
  C       0.521640      3.185046      1.853354
  N       1.512481      3.304248      2.819408
  H       1.455668      2.738746      3.654836
  H       1.942223      4.210529      2.946685
  H       0.328497      4.094411      1.301952
  H       1.036156      2.403261     -0.009792
  Cu      2.107904      2.368192      1.023524
18
Coordinates from ORCA-job ./orca E -1967.126527196034
  C      -2.952728      1.834831      1.605725
  C      -1.818995      2.605861      1.398899
  C      -0.629617      2.302582      2.068636
  C      -0.585325      1.204499      2.933551
  C      -1.720799      0.434817      3.135783
  C      -2.906042      0.748500      2.474711
  H      -3.872155      2.081080      1.091185
  H      -3.790048      0.145257      2.635477
  H      -1.850122      3.449834      0.720958
  H       0.331484      0.932806      3.442432
  H      -1.681962     -0.412811      3.807122
  C       0.522640      3.183936      1.851755
  N       1.514188      3.303782      2.818955
  H       1.457669      2.738981      3.654878
  H       1.944289      4.209981      2.945600
  H       0.329883      4.093010      1.299738
  H       1.024188      2.410299      0.004011
  Cu      2.105913      2.367217      1.023624
18
Coordinates from ORCA-job ./orca E -1967.126515225704
  C      -2.953016      1.835042      1.606322
  C      -1.819313      2.606088      1.399264
  C      -0.629601      2.302470      2.068207
  C      -0.585205      1.204440      2.933114
  C      -1.720689      0.434752      3.135658
  C      -2.906130      0.748557      2.475093
  H      -3.872642      2.081507      1.092226
  H      -3.790152      0.145419      2.636180
  H      -1.850669      3.450196      0.721494
  H       0.331752      0.932688      3.441683
  H      -1.681682     -0.412921      3.806938
  C       0.523122      3.183526      1.850633
  N       1.513357      3.303598      2.818674
  H       1.455596      2.738907      3.654504
  H       1.942546      4.210082      2.945884
  H       0.330375      4.093116      1.299603
  H       1.026837      2.409996      0.003433
  Cu      2.107974      2.366997      1.024129
18
Coordinates from ORCA-job ./orca E -1967.126509993915
  C      -2.953676      1.835851      1.607697
  C      -1.819830      2.606480      1.399701
  C      -0.629578      2.302210      2.067267
  C      -0.584711      1.203755      2.931470
  C      -1.720334      0.434395      3.134945
  C      -2.906356      0.748941      2.475887
  H      -3.873769      2.083007      1.094757
  H      -3.790449      0.146100      2.637652
  H      -1.851635      3.450971      0.722423
  H       0.332711      0.931443      3.438936
  H      -1.680912     -0.413587      3.805819
  C       0.523818      3.182903      1.848805
  N       1.511901      3.304094      2.818499
  H       1.451975      2.739986      3.654541
  H       1.939231      4.211338      2.946397
  H       0.330632      4.093055      1.298885
  H       1.031194      2.407041      0.003586
  Cu      2.112248      2.366479      1.025772
18
Coordinates from ORCA-job ./orca E -1967.126509710039
  C      -2.954066      1.836412      1.608482
  C      -1.820091      2.606737      1.399925
  C      -0.629547      2.301911      2.066645
  C      -0.584390      1.203154      2.930405
  C      -1.720114      0.434098      3.134449
  C      -2.906515      0.749250      2.476338
  H      -3.874417      2.084017      1.096221
  H      -3.790692      0.146641      2.638518
  H      -1.852108      3.451469      0.722951
  H       0.333350      0.930359      3.437056
  H      -1.680455     -0.414144      3.804982
  C       0.523965      3.182510      1.848073
  N       1.511232      3.304697      2.818599
  H       1.450288      2.741172      3.654980
  H       1.937599      4.212382      2.946606
  H       0.330363      4.092445      1.297894
  H       1.033406      2.405452      0.003927
  Cu      2.114651      2.365898      1.026989
18
Coordinates from ORCA-job ./orca E -1967.126472485109
  C      -2.954432      1.837082      1.609255
  C      -1.820321      2.607136      1.400215
  C      -0.629509      2.301587      2.066068
  C      -0.584025      1.202386      2.929283
  C      -1.719846      0.433692      3.133840
  C      -2.906636      0.749595      2.476680
  H      -3.875026      2.085163      1.097664
  H      -3.790922      0.147235      2.639229
  H      -1.852527      3.452149      0.723606
  H       0.334089      0.929001      3.434948
  H      -1.679974     -0.414909      3.803905
  C       0.523825      3.182189      1.847741
  N       1.510725      3.305604      2.818808
  H       1.448874      2.742973      3.655768
  H       1.936221      4.213742      2.946647
  H       0.329735      4.091287      1.296314
  H       1.035016      2.403727      0.004671
  Cu      2.117195      2.364821      1.028396
18
Coordinates from ORCA-job ./orca E -1967.126055090209
  C      -2.953708      1.836589      1.608031
  C      -1.819391      2.606245      1.398641
  C      -0.628745      2.300870      2.064869
  C      -0.583642      1.202247      2.928840
  C      -1.719666      0.433947      3.133745
  C      -2.906287      0.749675      2.476194
  H      -3.874171      2.084535      1.096139
  H      -3.790733      0.147625      2.639018
  H      -1.851307      3.450813      0.721462
  H       0.334333      0.928998      3.434831
  H      -1.680088     -0.414208      3.804391
  C       0.524814      3.181078      1.846140
  N       1.512423      3.305137      2.818342
  H       1.450870      2.743203      3.655793
  H       1.938282      4.213193      2.945555
  H       0.331103      4.089889      1.294104
  H       1.023164      2.410777      0.018488
  Cu      2.115211      2.363846      1.028457
18
Coordinates from ORCA-job ./orca E -1967.126051068490
  C      -2.953992      1.836773      1.608605
  C      -1.819720      2.606468      1.398990
  C      -0.628749      2.300801      2.064459
  C      -0.583533      1.202235      2.928430
  C      -1.719552      0.433901      3.133631
  C      -2.906364      0.749718      2.476566
  H      -3.874654      2.084923      1.097158
  H      -3.790815      0.147762      2.639710
  H      -1.851882      3.451181      0.721992
  H       0.334592      0.928974      3.434131
  H      -1.679807     -0.414279      3.804245
  C       0.525307      3.180689      1.844992
  N       1.511609      3.304887      2.818029
  H       1.448760      2.743025      3.655343
  H       1.936541      4.213214      2.945870
  H       0.331611      4.090087      1.294059
  H       1.025792      2.410436      0.017904
  Cu      2.117316      2.363665      1.028927
18
Coordinates from ORCA-job ./orca E -1967.126057275417
  C      -2.954660      1.837539      1.609951
  C      -1.820266      2.606856      1.399410
  C      -0.628768      2.300601      2.063532
  C      -0.583073      1.201635      2.926829
  C      -1.719202      0.433591      3.132962
  C      -2.906584      0.750083      2.477358
  H      -3.875782      2.086343      1.099642
  H      -3.791079      0.148381      2.641165
  H      -1.852896      3.451956      0.722912
  H       0.335523      0.927882      3.431442
  H      -1.679041     -0.414874      3.803201
  C       0.526013      3.180087      1.843115
  N       1.510208      3.305262      2.817786
  H       1.445085      2.743927      3.655252
  H       1.933228      4.214347      2.946432
  H       0.331869      4.090165      1.293485
  H       1.030167      2.407478      0.018032
  Cu      2.121718      2.363201      1.030532
18
Coordinates from ORCA-job ./orca E -1967.126040575320
  C      -2.955004      1.838007      1.610614
  C      -1.820514      2.607096      1.399633
  C      -0.628782      2.300379      2.063058
  C      -0.582842      1.201153      2.925982
  C      -1.719044      0.433350      3.132570
  C      -2.906730      0.750329      2.477725
  H      -3.876328      2.087161      1.100840
  H      -3.791280      0.148792      2.641841
  H      -1.853318      3.452380      0.723370
  H       0.336027      0.926993      3.429896
  H      -1.678686     -0.415341      3.802507
  C       0.526127      3.179750      1.842501
  N       1.509738      3.305740      2.817806
  H       1.443708      2.744922      3.655568
  H       1.931864      4.215229      2.946584
  H       0.331549      4.089659      1.292697
  H       1.032044      2.406196      0.018306
  Cu      2.123932      2.362667      1.031543
18
Coordinates from ORCA-job ./orca E -1967.126059138808
  C      -2.955407      1.838750      1.611470
  C      -1.820764      2.607524      1.399961
  C      -0.628756      2.300025      2.062467
  C      -0.582462      1.200286      2.924766
  C      -1.718772      0.432878      3.131890
  C      -2.906876      0.750709      2.478095
  H      -3.876993      2.088439      1.102434
  H      -3.791547      0.149453      2.642608
  H      -1.853764      3.453121      0.724100
  H       0.336801      0.925468      3.427609
  H      -1.678200     -0.416210      3.801311
  C       0.525937      3.179388      1.842161
  N       1.509266      3.306723      2.817943
  H       1.442212      2.746959      3.656370
  H       1.930276      4.216771      2.946551
  H       0.330765      4.088380      1.291019
  H       1.033844      2.404351      0.019149
  Cu      2.126899      2.361445      1.033134
18
Coordinates from ORCA-job ./orca E -1967.126066752487
  C      -2.955370      1.838811      1.611439
  C      -1.820736      2.607641      1.400039
  C      -0.628746      2.300034      2.062576
  C      -0.582457      1.200181      2.924823
  C      -1.718744      0.432782      3.131816
  C      -2.906832      0.750715      2.477972
  H      -3.876930      2.088494      1.102362
  H      -3.791506      0.149436      2.642387
  H      -1.853716      3.453280      0.724240
  H       0.336837      0.925333      3.427590
  H      -1.678217     -0.416392      3.801124
  C       0.525615      3.179533      1.842627
  N       1.509418      3.306911      2.817935
  H       1.442441      2.747453      3.656609
  H       1.930510      4.216978      2.946326
  H       0.330554      4.087917      1.290479
  H       1.033164      2.404530      0.019501
  Cu      2.127178      2.360823      1.033196
18
Coordinates from ORCA-job ./orca E -1967.125598186921
  C      -2.954660      1.838323      1.610231
  C      -1.819823      2.606756      1.398476
  C      -0.627992      2.299316      2.061378
  C      -0.582076      1.200035      2.924374
  C      -1.718565      0.433031      3.131720
  C      -2.906489      0.750793      2.477495
  H      -3.876092      2.087877      1.100860
  H      -3.791322      0.149825      2.642188
  H      -1.852518      3.451955      0.722113
  H       0.337084      0.925319      3.427459
  H      -1.678325     -0.415704      3.801603
  C       0.526591      3.178422      1.841023
  N       1.511106      3.306443      2.817455
  H       1.444431      2.747678      3.656615
  H       1.932564      4.216429      2.945224
  H       0.331903      4.086521      1.288275
  H       1.021439      2.411593      0.033339
  Cu      2.125203      2.359848      1.033214
18
Coordinates from ORCA-job ./orca E -1967.125593750542
  C      -2.954994      1.838497      1.610876
  C      -1.820215      2.606975      1.398854
  C      -0.628005      2.299261      2.060891
  C      -0.581960      1.200084      2.923900
  C      -1.718437      0.433014      3.131603
  C      -2.906582      0.750823      2.477940
  H      -3.876664      2.088275      1.102025
  H      -3.791411      0.149946      2.643019
  H      -1.853203      3.452340      0.722697
  H       0.337350      0.925396      3.426713
  H      -1.677986     -0.415725      3.801479
  C       0.527209      3.178007      1.839625
  N       1.510103      3.306074      2.817068
  H       1.441958      2.747298      3.655991
  H       1.930521      4.216340      2.945610
  H       0.332650      4.086969      1.288393
  H       1.024544      2.411123      0.032646
  Cu      2.127581      2.359764      1.033711
18
Coordinates from ORCA-job ./orca E -1967.125598675597
  C      -2.955590      1.839135      1.612030
  C      -1.820710      2.607266      1.399195
  C      -0.628062      2.299139      2.060122
  C      -0.581596      1.199638      2.922523
  C      -1.718159      0.432784      3.131029
  C      -2.906789      0.751105      2.478619
  H      -3.877650      2.089459      1.104144
  H      -3.791625      0.150395      2.644235
  H      -1.854093      3.452948      0.723448
  H       0.338087      0.924531      3.424458
  H      -1.677312     -0.416200      3.800580
  C       0.527862      3.177528      1.837941
  N       1.508874      3.306371      2.816843
  H       1.438904      2.747952      3.655834
  H       1.927727      4.217252      2.946051
  H       0.333010      4.087291      1.288116
  H       1.028346      2.408345      0.032810
  Cu      2.131235      2.359520      1.035064
18
Coordinates from ORCA-job ./orca E -1967.125605602498
  C      -2.955925      1.839547      1.612636
  C      -1.820964      2.607472      1.399390
  C      -0.628099      2.298948      2.059681
  C      -0.581396      1.199224      2.921738
  C      -1.718026      0.432578      3.130672
  C      -2.906937      0.751316      2.478967
  H      -3.878175      2.090188      1.105249
  H      -3.791818      0.150753      2.644881
  H      -1.854509      3.453322      0.723854
  H       0.338520      0.923733      3.423052
  H      -1.676977     -0.416605      3.799955
  C       0.527998      3.177198      1.837311
  N       1.508418      3.306796      2.816866
  H       1.437679      2.748801      3.656090
  H       1.926479      4.218029      2.946171
  H       0.332763      4.086908      1.287479
  H       1.030226      2.407142      0.033036
  Cu      2.133203      2.359108      1.036012
18
Coordinates from ORCA-job ./orca E -1967.125601817640
  C      -2.956407      1.840342      1.613606
  C      -1.821292      2.607932      1.399770
  C      -0.628107      2.298587      2.059023
  C      -0.581018      1.198343      2.920411
  C      -1.717761      0.432085      3.129938
  C      -2.907130      0.751704      2.479404
  H      -3.878948      2.091556      1.107037
  H      -3.792121      0.151421      2.645745
  H      -1.855063      3.454120      0.724669
  H       0.339291      0.922131      3.420607
  H      -1.676435     -0.417519      3.798673
  C       0.527931      3.176724      1.836720
  N       1.507836      3.307830      2.816992
  H       1.436043      2.750859      3.656838
  H       1.924675      4.219659      2.946102
  H       0.332001      4.085684      1.285865
  H       1.032634      2.404991      0.033854
  Cu      2.136333      2.358012      1.037785
18
Coordinates from ORCA-job ./orca E -1967.125607926909
  C      -2.956428      1.840502      1.613715
  C      -1.821303      2.608107      1.399901
  C      -0.628083      2.298538      2.059017
  C      -0.580950      1.198119      2.920271
  C      -1.717698      0.431932      3.129777
  C      -2.907107      0.751760      2.479349
  H      -3.878993      2.091805      1.107240
  H      -3.792128      0.151519      2.645681
  H      -1.855099      3.454388      0.724928
  H       0.339439      0.921783      3.420251
  H      -1.676387     -0.417791      3.798357
  C       0.527674      3.176760      1.837003
  N       1.507864      3.308129      2.816998
  H       1.435975      2.751536      3.657120
  H       1.924576      4.220069      2.945896
  H       0.331695      4.085112      1.285188
  H       1.032454      2.404813      0.034250
  Cu      2.136958      2.357379      1.038100
18
Coordinates from ORCA-job ./orca E -1967.125151104621
  C      -2.955730      1.840020      1.612521
  C      -1.820404      2.607227      1.398350
  C      -0.627338      2.297820      2.057820
  C      -0.580570      1.197966      2.919817
  C      -1.717518      0.432174      3.129679
  C      -2.906769      0.751838      2.478881
  H      -3.878172      2.091197      1.105761
  H      -3.791947      0.151907      2.645493
  H      -1.853921      3.453073      0.722816
  H       0.339689      0.921757      3.420106
  H      -1.676488     -0.417113      3.798829
  C       0.528639      3.175649      1.835397
  N       1.509544      3.307660      2.816506
  H       1.437959      2.751755      3.657109
  H       1.926625      4.219518      2.944787
  H       0.333027      4.083719      1.282988
  H       1.020845      2.411889      0.048100
  Cu      2.134990      2.356404      1.038078
18
Coordinates from ORCA-job ./orca E -1967.125147174600
  C      -2.956066      1.840232      1.613200
  C      -1.820801      2.607497      1.398766
  C      -0.627343      2.297775      2.057326
  C      -0.580437      1.197994      2.919307
  C      -1.717365      0.432136      3.129522
  C      -2.906850      0.751883      2.479321
  H      -3.878750      2.091648      1.106980
  H      -3.792021      0.152039      2.646313
  H      -1.854626      3.453535      0.723476
  H       0.339998      0.921794      3.419268
  H      -1.676119     -0.417186      3.798626
  C       0.529262      3.175227      1.833974
  N       1.508531      3.307334      2.816113
  H       1.435399      2.751466      3.656497
  H       1.924514      4.219495      2.945151
  H       0.333739      4.084122      1.283031
  H       1.023964      2.411193      0.047484
  Cu      2.137431      2.356277      1.038685
18
Coordinates from ORCA-job ./orca E -1967.125152623525
  C      -2.956705      1.840950      1.614470
  C      -1.821338      2.607865      1.399183
  C      -0.627399      2.297652      2.056505
  C      -0.580040      1.197479      2.917798
  C      -1.717047      0.431853      3.128862
  C      -2.907056      0.752187      2.480028
  H      -3.879813      2.092965      1.109306
  H      -3.792238      0.152523      2.647589
  H      -1.855611      3.454281      0.724379
  H       0.340819      0.920832      3.416770
  H      -1.675381     -0.417759      3.797581
  C       0.529960      3.174698      1.832172
  N       1.507247      3.307704      2.815859
  H       1.432055      2.752316      3.656359
  H       1.921495      4.220549      2.945565
  H       0.334087      4.084348      1.282575
  H       1.028060      2.408108      0.047722
  Cu      2.141365      2.355906      1.040316
18
Coordinates from ORCA-job ./orca E -1967.125139421219
  C      -2.957064      1.841411      1.615143
  C      -1.821614      2.608123      1.399441
  C      -0.627440      2.297457      2.056055
  C      -0.579834      1.197021      2.916959
  C      -1.716904      0.431614      3.128468
  C      -2.907211      0.752409      2.480389
  H      -3.880369      2.093769      1.110512
  H      -3.792430      0.152884      2.648240
  H      -1.856064      3.454730      0.724884
  H       0.341283      0.919963      3.415234
  H      -1.675026     -0.418234      3.796873
  C       0.530109      3.174337      1.831493
  N       1.506792      3.308178      2.815850
  H       1.430699      2.753313      3.656633
  H       1.920134      4.221424      2.945642
  H       0.333815      4.083877      1.281813
  H       1.030094      2.406798      0.047979
  Cu      2.143491      2.355387      1.041432
18
Coordinates from ORCA-job ./orca E -1967.125154765116
  C      -2.957550      1.842247      1.616158
  C      -1.821946      2.608639      1.399886
  C      -0.627448      2.297104      2.055418
  C      -0.579452      1.196104      2.915607
  C      -1.716629      0.431080      3.127690
  C      -2.907399      0.752796      2.480809
  H      -3.881142      2.095200      1.112360
  H      -3.792722      0.153528      2.649054
  H      -1.856630      3.455613      0.725804
  H       0.342083      0.918307      3.412706
  H      -1.674475     -0.419229      3.795490
  C       0.530024      3.173862      1.830914
  N       1.506279      3.309256      2.815919
  H       1.429009      2.755557      3.657400
  H       1.918264      4.223159      2.945493
  H       0.333017      4.082557      1.280061
  H       1.032501      2.404535      0.048870
  Cu      2.146677      2.354144      1.043402
18
Coordinates from ORCA-job ./orca E -1967.125128665530
  C      -2.957551      1.842373      1.616219
  C      -1.821945      2.608791      1.399996
  C      -0.627430      2.297064      2.055440
  C      -0.579404      1.195914      2.915528
  C      -1.716578      0.430951      3.127565
  C      -2.907368      0.752835      2.480730
  H      -3.881154      2.095389      1.112474
  H      -3.792711      0.153595      2.648949
  H      -1.856638      3.455838      0.726020
  H       0.342187      0.918038      3.412466
  H      -1.674456     -0.419455      3.795244
  C       0.529735      3.173924      1.831248
  N       1.506389      3.309484      2.815887
  H       1.429044      2.756153      3.657644
  H       1.918234      4.223502      2.945295
  H       0.332703      4.082011      1.279439
  H       1.032199      2.404542      0.049225
  Cu      2.147203      2.353510      1.043670
18
Coordinates from ORCA-job ./orca E -1967.124718654155
  C      -2.956866      1.841895      1.615040
  C      -1.821060      2.607917      1.398457
  C      -0.626694      2.296345      2.054245
  C      -0.579026      1.195754      2.915069
  C      -1.716398      0.431185      3.127466
  C      -2.907035      0.752912      2.480271
  H      -3.880351      2.094792      1.111018
  H      -3.792534      0.153982      2.648773
  H      -1.855480      3.454532      0.723925
  H       0.342440      0.918000      3.412308
  H      -1.674551     -0.418789      3.795710
  C       0.530690      3.172812      1.829641
  N       1.508060      3.309014      2.815382
  H       1.431022      2.756366      3.657617
  H       1.920278      4.222950      2.944181
  H       0.334018      4.080621      1.277244
  H       1.020704      2.411637      0.063083
  Cu      2.145243      2.352535      1.043608
18
Coordinates from ORCA-job ./orca E -1967.124716494456
  C      -2.957216      1.842119      1.615731
  C      -1.821476      2.608198      1.398868
  C      -0.626708      2.296319      2.053733
  C      -0.578881      1.195787      2.914520
  C      -1.716229      0.431142      3.127274
  C      -2.907113      0.752962      2.480713
  H      -3.880957      2.095269      1.112288
  H      -3.792606      0.154127      2.649620
  H      -1.856220      3.455022      0.724593
  H       0.342766      0.918029      3.411420
  H      -1.674150     -0.418873      3.795461
  C       0.531316      3.172399      1.828177
  N       1.507032      3.308692      2.814979
  H       1.428430      2.756082      3.656978
  H       1.918109      4.222938      2.944550
  H       0.334732      4.081087      1.277320
  H       1.023867      2.410723      0.062542
  Cu      2.147765      2.352439      1.044274
18
Coordinates from ORCA-job ./orca E -1967.124720883078
  C      -2.957874      1.842829      1.616999
  C      -1.822051      2.608587      1.399306
  C      -0.626803      2.296237      2.052941
  C      -0.578512      1.195311      2.913033
  C      -1.715926      0.430872      3.126618
  C      -2.907328      0.753251      2.481411
  H      -3.882035      2.096555      1.114605
  H      -3.792817      0.154571      2.650868
  H      -1.857243      3.455785      0.725517
  H       0.343551      0.917086      3.408932
  H      -1.673410     -0.419449      3.794400
  C       0.532006      3.171866      1.826348
  N       1.505795      3.309043      2.814682
  H       1.425138      2.756925      3.656793
  H       1.915097      4.223981      2.944917
  H       0.335069      4.081358      1.276905
  H       1.028035      2.407592      0.062810
  Cu      2.151767      2.352059      1.045958
18
Coordinates from ORCA-job ./orca E -1967.124678036663
  C      -2.958225      1.843266      1.617642
  C      -1.822333      2.608845      1.399573
  C      -0.626866      2.296070      2.052534
  C      -0.578335      1.194900      2.912256
  C      -1.715804      0.430653      3.126253
  C      -2.907481      0.753453      2.481748
  H      -3.882567      2.097300      1.115734
  H      -3.792996      0.154880      2.651448
  H      -1.857692      3.456223      0.726017
  H       0.343964      0.916290      3.407510
  H      -1.673079     -0.419894      3.793731
  C       0.532134      3.171515      1.825692
  N       1.505412      3.309465      2.814628
  H       1.423892      2.757853      3.657006
  H       1.913786      4.224805      2.944962
  H       0.334766      4.080925      1.276218
  H       1.030012      2.406359      0.063058
  Cu      2.153873      2.351551      1.047030
18
Coordinates from ORCA-job ./orca E -1967.124723346762
  C      -2.958807      1.844246      1.618857
  C      -1.822733      2.609416      1.400077
  C      -0.626887      2.295656      2.051784
  C      -0.577904      1.193822      2.910657
  C      -1.715488      0.430008      3.125312
  C      -2.907707      0.753890      2.482243
  H      -3.883497      2.098998      1.117966
  H      -3.793338      0.155624      2.652415
  H      -1.858380      3.457247      0.727103
  H       0.344852      0.914363      3.404582
  H      -1.672442     -0.421074      3.792088
  C       0.532037      3.170965      1.824977
  N       1.504819      3.310705      2.814654
  H       1.421921      2.760474      3.657851
  H       1.911542      4.226843      2.944721
  H       0.333919      4.079447      1.274187
  H       1.032976      2.403704      0.064126
  Cu      2.157577      2.350125      1.049439
18
Coordinates from ORCA-job ./orca E -1967.124707773477
  C      -2.958736      1.844240      1.618748
  C      -1.822703      2.609550      1.400185
  C      -0.626887      2.295694      2.051943
  C      -0.577934      1.193793      2.910826
  C      -1.715497      0.429980      3.125339
  C      -2.907653      0.753863      2.482083
  H      -3.883370      2.098920      1.117722
  H      -3.793278      0.155549      2.652115
  H      -1.858311      3.457381      0.727223
  H       0.344828      0.914357      3.404748
  H      -1.672517     -0.421137      3.792067
  C       0.531726      3.171094      1.825433
  N       1.505096      3.310745      2.814563
  H       1.422282      2.760743      3.657947
  H       1.911795      4.226927      2.944524
  H       0.333617      4.079048      1.273836
  H       1.032271      2.404108      0.064351
  Cu      2.157732      2.349605      1.049387
18
Coordinates from ORCA-job ./orca E -1967.124306836087
  C      -2.958063      1.843768      1.617585
  C      -1.821832      2.608681      1.398657
  C      -0.626160      2.294974      2.050750
  C      -0.577557      1.193626      2.910362
  C      -1.715316      0.430208      3.125239
  C      -2.907324      0.753940      2.481633
  H      -3.882583      2.098332      1.116289
  H      -3.793104      0.155935      2.651951
  H      -1.857174      3.456086      0.725144
  H       0.345083      0.914306      3.404577
  H      -1.672606     -0.420484      3.792528
  C       0.532670      3.169981      1.823824
  N       1.506758      3.310273      2.814047
  H       1.424253      2.760950      3.657904
  H       1.913833      4.226373      2.943403
  H       0.334915      4.077659      1.271647
  H       1.020889      2.411223      0.078214
  Cu      2.155779      2.348629      1.049284
18
Coordinates from ORCA-job ./orca E -1967.124304301205
  C      -2.958412      1.843995      1.618270
  C      -1.822251      2.608975      1.399071
  C      -0.626179      2.294973      2.050250
  C      -0.577414      1.193665      2.909803
  C      -1.715139      0.430158      3.125025
  C      -2.907397      0.753986      2.482059
  H      -3.883193      2.098821      1.117567
  H      -3.793167      0.156077      2.652787
  H      -1.857926      3.456605      0.725844
  H       0.345410      0.914341      3.403668
  H      -1.672194     -0.420581      3.792252
  C       0.533301      3.169583      1.822351
  N       1.505743      3.309960      2.813629
  H       1.421655      2.760678      3.657244
  H       1.911654      4.226377      2.943755
  H       0.335616      4.078160      1.271741
  H       1.024021      2.410149      0.077737
  Cu      2.158331      2.348539      1.049986
18
Coordinates from ORCA-job ./orca E -1967.124309126315
  C      -2.959064      1.844686      1.619515
  C      -1.822831      2.609373      1.399516
  C      -0.626294      2.294923      2.049494
  C      -0.577074      1.193235      2.908370
  C      -1.714849      0.429908      3.124391
  C      -2.907606      0.754259      2.482737
  H      -3.884249      2.100060      1.119827
  H      -3.793359      0.156480      2.653990
  H      -1.858950      3.457369      0.726767
  H       0.346157      0.913479      3.401262
  H      -1.671472     -0.421128      3.791221
  C       0.533988      3.169056      1.820523
  N       1.504571      3.310255      2.813285
  H       1.418408      2.761444      3.656980
  H       1.908662      4.227367      2.944107
  H       0.335910      4.078477      1.271397
  H       1.028147      2.407041      0.078006
  Cu      2.162363      2.348177      1.051653
18
Coordinates from ORCA-job ./orca E -1967.124250223020
  C      -2.959414      1.845099      1.620136
  C      -1.823123      2.609635      1.399803
  C      -0.626380      2.294785      2.049140
  C      -0.576935      1.192856      2.907657
  C      -1.714755      0.429699      3.124053
  C      -2.907765      0.754435      2.483046
  H      -3.884764      2.100754      1.120895
  H      -3.793531      0.156733      2.654500
  H      -1.859402      3.457807      0.727282
  H       0.346517      0.912736      3.399933
  H      -1.671178     -0.421560      3.790585
  C       0.534114      3.168712      1.819885
  N       1.504272      3.310643      2.813182
  H       1.417251      2.762342      3.657139
  H       1.907398      4.228168      2.944111
  H       0.335581      4.078065      1.270764
  H       1.030086      2.405896      0.078234
  Cu      2.164487      2.347652      1.052694
18
Coordinates from ORCA-job ./orca E -1967.124312313598
  C      -2.960116      1.846262      1.621613
  C      -1.823604      2.610265      1.400369
  C      -0.626412      2.294287      2.048220
  C      -0.576438      1.191585      2.905726
  C      -1.714377      0.428917      3.122905
  C      -2.908038      0.754949      2.483661
  H      -3.885905      2.102808      1.123648
  H      -3.793939      0.157621      2.655710
  H      -1.860238      3.458986      0.728565
  H       0.347542      0.910478      3.396439
  H      -1.670408     -0.422969      3.788605
  C       0.534027      3.168053      1.818982
  N       1.503545      3.312081      2.813176
  H       1.414829      2.765428      3.658097
  H       1.904641      4.230578      2.943800
  H       0.334693      4.076373      1.268351
  H       1.033779      2.402769      0.079496
  Cu      2.168879      2.345989      1.055677
18
Coordinates from ORCA-job ./orca E -1967.124313993469
  C      -2.959945      1.846079      1.621265
  C      -1.823528      2.610363      1.400445
  C      -0.626429      2.294429      2.048550
  C      -0.576551      1.191762      2.906209
  C      -1.714454      0.429027      3.123132
  C      -2.907943      0.754836      2.483384
  H      -3.885591      2.102373      1.122915
  H      -3.793807      0.157373      2.655159
  H      -1.860064      3.458986      0.728516
  H       0.347363      0.910816      3.397142
  H      -1.670605     -0.422818      3.788892
  C       0.533689      3.168292      1.819612
  N       1.504025      3.311891      2.813052
  H       1.415641      2.765261      3.658035
  H       1.905330      4.230307      2.943635
  H       0.334432      4.076194      1.268369
  H       1.032449      2.403649      0.079559
  Cu      2.168447      2.345640      1.055169
18
Coordinates from ORCA-job ./orca E -1967.123916755021
  C      -2.959284      1.845612      1.620117
  C      -1.822672      2.609499      1.398929
  C      -0.625710      2.293709      2.047359
  C      -0.576176      1.191588      2.905741
  C      -1.714273      0.429247      3.123031
  C      -2.907619      0.754912      2.482944
  H      -3.884819      2.101795      1.121506
  H      -3.793636      0.157758      2.655008
  H      -1.858946      3.457701      0.726454
  H       0.347621      0.910754      3.396958
  H      -1.670688     -0.422176      3.789347
  C       0.534621      3.167177      1.818002
  N       1.505677      3.311416      2.812524
  H       1.417606      2.765461      3.657976
  H       1.907363      4.229750      2.942509
  H       0.335714      4.074807      1.266185
  H       1.021179      2.410786      0.093427
  Cu      2.166501      2.344663      1.055025
18
Coordinates from ORCA-job ./orca E -1967.123913961149
  C      -2.959622      1.845828      1.620774
  C      -1.823088      2.609804      1.399338
  C      -0.625740      2.293742      2.046884
  C      -0.576037      1.191659      2.905210
  C      -1.714091      0.429207      3.122814
  C      -2.907680      0.754952      2.483348
  H      -3.885410      2.102256      1.122737
  H      -3.793684      0.157884      2.655812
  H      -1.859697      3.458235      0.727156
  H       0.347937      0.910836      3.396098
  H      -1.670272     -0.422256      3.789074
  C       0.535241      3.166797      1.816534
  N       1.504697      3.311077      2.812086
  H       1.415052      2.765142      3.657275
  H       1.905205      4.229724      2.942854
  H       0.336378      4.075362      1.266345
  H       1.024223      2.409614      0.092992
  Cu      2.169048      2.344597      1.055708
18
Coordinates from ORCA-job ./orca E -1967.123920225254
  C      -2.960266      1.846472      1.621973
  C      -1.823679      2.610194      1.399788
  C      -0.625886      2.293739      2.046194
  C      -0.575751      1.191308      2.903890
  C      -1.713838      0.428996      3.122239
  C      -2.907893      0.755193      2.483995
  H      -3.886429      2.103391      1.124872
  H      -3.793859      0.158213      2.656925
  H      -1.860726      3.458968      0.728058
  H       0.348602      0.910095      3.393872
  H      -1.669595     -0.422751      3.788124
  C       0.535918      3.166286      1.814718
  N       1.503639      3.311281      2.811678
  H       1.411933      2.765775      3.656905
  H       1.902302      4.230616      2.943181
  H       0.336625      4.075759      1.266128
  H       1.028281      2.406674      0.093209
  Cu      2.173082      2.344251      1.057291
18
Coordinates from ORCA-job ./orca E -1967.123931458759
  C      -2.960599      1.846837      1.622537
  C      -1.823962      2.610427      1.400048
  C      -0.625985      2.293619      2.045874
  C      -0.575642      1.190972      2.903242
  C      -1.713770      0.428824      3.121953
  C      -2.908054      0.755358      2.484294
  H      -3.886908      2.104004      1.125837
  H      -3.794030      0.158449      2.657414
  H      -1.861160      3.459352      0.728511
  H       0.348906      0.909434      3.392674
  H      -1.669344     -0.423107      3.787587
  C       0.536027      3.165957      1.814105
  N       1.503429      3.311575      2.811526
  H       1.410880      2.766521      3.656970
  H       1.901062      4.231331      2.943209
  H       0.336228      4.075424      1.265645
  H       1.030147      2.405694      0.093388
  Cu      2.175237      2.343789      1.058224
18
Coordinates from ORCA-job ./orca E -1967.123923350045
  C      -2.960990      1.847434      1.623248
  C      -1.824269      2.610837      1.400406
  C      -0.626093      2.293421      2.045511
  C      -0.575464      1.190346      2.902361
  C      -1.713647      0.428464      3.121449
  C      -2.908230      0.755627      2.484569
  H      -3.887471      2.104968      1.127072
  H      -3.794253      0.158846      2.657885
  H      -1.861629      3.460001      0.729188
  H       0.349354      0.908277      3.390969
  H      -1.669031     -0.423791      3.786652
  C       0.535814      3.165621      1.813781
  N       1.503473      3.312203      2.811308
  H       1.409946      2.768099      3.657314
  H       1.899558      4.232655      2.943031
  H       0.335166      4.074437      1.264550
  H       1.031930      2.404325      0.094094
  Cu      2.178296      2.342688      1.059652
18
Coordinates from ORCA-job ./orca E -1967.124003896782
  C      -2.960970      1.847488      1.623222
  C      -1.824252      2.610939      1.400476
  C      -0.626100      2.293402      2.045606
  C      -0.575482      1.190231      2.902427
  C      -1.713652      0.428382      3.121417
  C      -2.908214      0.755642      2.484472
  H      -3.887426      2.105024      1.127006
  H      -3.794257      0.158863      2.657715
  H      -1.861589      3.460133      0.729296
  H       0.349354      0.908135      3.390984
  H      -1.669090     -0.423929      3.786548
  C       0.535422      3.165737      1.814247
  N       1.503818      3.312255      2.811131
  H       1.410235      2.768515      3.657393
  H       1.899548      4.232879      2.942844
  H       0.334693      4.073966      1.264112
  H       1.031470      2.404798      0.094383
  Cu      2.178953      2.342001      1.059761
18
Coordinates from ORCA-job ./orca E -1967.123545797254
  C      -2.960321      1.847027      1.622090
  C      -1.823410      2.610080      1.398971
  C      -0.625392      2.292681      2.044416
  C      -0.575109      1.190051      2.901953
  C      -1.713472      0.428596      3.121315
  C      -2.907896      0.755717      2.484040
  H      -3.886671      2.104455      1.125619
  H      -3.794090      0.159247      2.657575
  H      -1.860492      3.458858      0.727250
  H       0.349613      0.908063      3.390787
  H      -1.669167     -0.423298      3.786996
  C       0.536343      3.164623      1.812635
  N       1.505460      3.311778      2.810589
  H       1.412193      2.768708      3.657317
  H       1.901576      4.232321      2.941712
  H       0.335956      4.072584      1.261932
  H       1.020324      2.411947      0.108268
  Cu      2.177013      2.341022      1.059576
18
Coordinates from ORCA-job ./orca E -1967.123550210713
  C      -2.960711      1.847334      1.622871
  C      -1.823889      2.610476      1.399477
  C      -0.625429      2.292724      2.043886
  C      -0.574928      1.190071      2.901271
  C      -1.713240      0.428502      3.120981
  C      -2.907954      0.755773      2.484468
  H      -3.887354      2.105069      1.127083
  H      -3.794126      0.159389      2.658431
  H      -1.861342      3.459534      0.728119
  H       0.350014      0.908016      3.389650
  H      -1.668647     -0.423512      3.786502
  C       0.536996      3.164217      1.811036
  N       1.504346      3.311566      2.810156
  H       1.409375      2.768638      3.656677
  H       1.899227      4.232449      2.941981
  H       0.336731      4.073104      1.261902
  H       1.023648      2.410267      0.107993
  Cu      2.179745      2.340844      1.060557
18
Coordinates from ORCA-job ./orca E -1967.123554527904
  C      -2.961415      1.848059      1.624180
  C      -1.824541      2.610949      1.400020
  C      -0.625587      2.292707      2.043148
  C      -0.574610      1.189636      2.899802
  C      -1.712959      0.428222      3.120300
  C      -2.908185      0.756020      2.485132
  H      -3.888462      2.106336      1.129419
  H      -3.794318      0.159724      2.659582
  H      -1.862452      3.460404      0.729179
  H       0.350747      0.907107      3.387157
  H      -1.667900     -0.424143      3.785351
  C       0.537677      3.163670      1.809138
  N       1.503199      3.311933      2.809779
  H       1.406109      2.769585      3.656418
  H       1.896231      4.233515      2.942191
  H       0.337078      4.073380      1.261418
  H       1.027979      2.406986      0.108356
  Cu      2.183868      2.340371      1.062469
18
Coordinates from ORCA-job ./orca E -1967.123565608611
  C      -2.961777      1.848468      1.624805
  C      -1.824856      2.611221      1.400320
  C      -0.625699      2.292591      2.042804
  C      -0.574487      1.189274      2.899084
  C      -1.712871      0.428023      3.119963
  C      -2.908348      0.756190      2.485443
  H      -3.888987      2.107010      1.130485
  H      -3.794484      0.159958      2.660089
  H      -1.862930      3.460851      0.729712
  H       0.351082      0.906391      3.385829
  H      -1.667605     -0.424560      3.784720
  C       0.537788      3.163322      1.808479
  N       1.502941      3.312285      2.809636
  H       1.404960      2.770459      3.656525
  H       1.894928      4.234297      2.942171
  H       0.336735      4.072989      1.260809
  H       1.029996      2.405847      0.108601
  Cu      2.186073      2.339844      1.063565
18
Coordinates from ORCA-job ./orca E -1967.123559452864
  C      -2.962209      1.849124      1.625609
  C      -1.825204      2.611683      1.400728
  C      -0.625819      2.292381      2.042387
  C      -0.574288      1.188598      2.898093
  C      -1.712722      0.427626      3.119388
  C      -2.908530      0.756471      2.485741
  H      -3.889618      2.108076      1.131890
  H      -3.794711      0.160372      2.660603
  H      -1.863468      3.461597      0.730495
  H       0.351577      0.905159      3.383947
  H      -1.667240     -0.425312      3.783670
  C       0.537580      3.162948      1.808071
  N       1.502934      3.312970      2.809406
  H       1.403868      2.772181      3.656889
  H       1.893256      4.235720      2.941946
  H       0.335698      4.071934      1.259574
  H       1.032047      2.404239      0.109398
  Cu      2.189309      2.338695      1.065204
18
Coordinates from ORCA-job ./orca E -1967.123642555273
  C      -2.962193      1.849171      1.625579
  C      -1.825191      2.611779      1.400790
  C      -0.625833      2.292367      2.042482
  C      -0.574310      1.188489      2.898166
  C      -1.712731      0.427548      3.119369
  C      -2.908520      0.756494      2.485660
  H      -3.889580      2.108118      1.131815
  H      -3.794719      0.160400      2.660456
  H      -1.863434      3.461714      0.730592
  H       0.351576      0.905030      3.383957
  H      -1.667306     -0.425436      3.783594
  C       0.537185      3.163058      1.808529
  N       1.503304      3.312982      2.809207
  H       1.404137      2.772549      3.656933
  H       1.893201      4.235927      2.941779
  H       0.335195      4.071471      1.259164
  H       1.031645      2.404772      0.109666
  Cu      2.190032      2.338025      1.065303
18
Coordinates from ORCA-job ./orca E -1967.123209506628
  C      -2.961557      1.848715      1.624463
  C      -1.824364      2.610926      1.399296
  C      -0.625133      2.291646      2.041293
  C      -0.573939      1.188303      2.897686
  C      -1.712550      0.427756      3.119266
  C      -2.908207      0.756568      2.485237
  H      -3.888841      2.107559      1.130452
  H      -3.794555      0.160783      2.660329
  H      -1.862356      3.460449      0.728562
  H       0.351838      0.904948      3.383746
  H      -1.667377     -0.424816      3.784037
  C       0.538095      3.161943      1.806915
  N       1.504936      3.312502      2.808653
  H       1.406089      2.772735      3.656840
  H       1.895224      4.235366      2.940642
  H       0.336442      4.070092      1.256988
  H       1.020615      2.411941      0.123557
  Cu      2.188100      2.337044      1.065076
18
Coordinates from ORCA-job ./orca E -1967.123210049390
  C      -2.961937      1.849001      1.625209
  C      -1.824847      2.611339      1.399813
  C      -0.625184      2.291734      2.040805
  C      -0.573775      1.188369      2.897053
  C      -1.712325      0.427680      3.118944
  C      -2.908256      0.756605      2.485628
  H      -3.889501      2.108126      1.131852
  H      -3.794573      0.160883      2.661120
  H      -1.863214      3.461141      0.729437
  H       0.352215      0.904968      3.382686
  H      -1.666868     -0.425008      3.783561
  C       0.538754      3.161562      1.805316
  N       1.503881      3.312257      2.808186
  H       1.403330      2.772603      3.656137
  H       1.892916      4.235454      2.940897
  H       0.337182      4.070697      1.257063
  H       1.023826      2.410142      0.123324
  Cu      2.190835      2.336906      1.066008
18
Coordinates from ORCA-job ./orca E -1967.123220541694
  C      -2.962629      1.849668      1.626454
  C      -1.825506      2.611798      1.400365
  C      -0.625374      2.291766      2.040160
  C      -0.573521      1.188010      2.895722
  C      -1.712094      0.427441      3.118339
  C      -2.908493      0.756815      2.486255
  H      -3.890565      2.109279      1.134042
  H      -3.794756      0.161141      2.662168
  H      -1.864319      3.461973      0.730472
  H       0.352854      0.904176      3.380399
  H      -1.666188     -0.425578      3.782505
  C       0.539441      3.161024      1.803435
  N       1.502876      3.312527      2.807737
  H       1.400217      2.773411      3.655761
  H       1.890019      4.236419      2.941078
  H       0.337464      4.071055      1.256734
  H       1.028069      2.407054      0.123615
  Cu      2.194965      2.336482      1.067801
18
Coordinates from ORCA-job ./orca E -1967.123232925021
  C      -2.962994      1.850063      1.627069
  C      -1.825825      2.612056      1.400643
  C      -0.625496      2.291658      2.039807
  C      -0.573411      1.187670      2.895010
  C      -1.712013      0.427258      3.118014
  C      -2.908661      0.756985      2.486573
  H      -3.891090      2.109936      1.135097
  H      -3.794924      0.161372      2.662689
  H      -1.864810      3.462401      0.730975
  H       0.353168      0.903514      3.379115
  H      -1.665901     -0.425957      3.781919
  C       0.539549      3.160674      1.802757
  N       1.502668      3.312812      2.807553
  H       1.399068      2.774195      3.655802
  H       1.888668      4.237160      2.941085
  H       0.337061      4.070714      1.256217
  H       1.030119      2.405950      0.123842
  Cu      2.197285      2.335999      1.068873
18
Coordinates from ORCA-job ./orca E -1967.123223498139
  C      -2.963409      1.850664      1.627807
  C      -1.826165      2.612477      1.401016
  C      -0.625635      2.291471      2.039422
  C      -0.573251      1.187062      2.894103
  C      -1.711899      0.426917      3.117513
  C      -2.908848      0.757254      2.486868
  H      -3.891680      2.110895      1.136362
  H      -3.795146      0.161753      2.663181
  H      -1.865322      3.463063      0.731680
  H       0.353594      0.902389      3.377387
  H      -1.665585     -0.426613      3.780996
  C       0.539311      3.160323      1.802387
  N       1.502799      3.313354      2.807251
  H       1.398089      2.775726      3.656052
  H       1.887027      4.238463      2.940896
  H       0.335943      4.069749      1.255159
  H       1.032082      2.404590      0.124570
  Cu      2.200556      2.334924      1.070391
18
Coordinates from ORCA-job ./orca E -1967.123317213776
  C      -2.963393      1.850706      1.627771
  C      -1.826155      2.612569      1.401071
  C      -0.625659      2.291463      2.039532
  C      -0.573287      1.186970      2.894210
  C      -1.711917      0.426846      3.117512
  C      -2.908841      0.757272      2.486779
  H      -3.891633      2.110918      1.136264
  H      -3.795153      0.161768      2.663012
  H      -1.865285      3.463168      0.731751
  H       0.353573      0.902283      3.377447
  H      -1.665664     -0.426727      3.780943
  C       0.538872      3.160448      1.802880
  N       1.503248      3.313313      2.807001
  H       1.398404      2.776075      3.656062
  H       1.886960      4.238645      2.940727
  H       0.335376      4.069288      1.254766
  H       1.031660      2.405239      0.124833
  Cu      2.201356      2.334214      1.070478
18
Coordinates from ORCA-job ./orca E -1967.122906740675
  C      -2.962769      1.850255      1.626670
  C      -1.825342      2.611722      1.399589
  C      -0.624969      2.290742      2.038345
  C      -0.572918      1.186779      2.893726
  C      -1.711736      0.427048      3.117408
  C      -2.908532      0.757345      2.486366
  H      -3.890911      2.110368      1.134924
  H      -3.794993      0.162150      2.662898
  H      -1.864228      3.461914      0.729737
  H       0.353837      0.902190      3.377224
  H      -1.665730     -0.426118      3.781380
  C       0.539770      3.159333      1.801264
  N       1.504870      3.312831      2.806435
  H       1.400348      2.776253      3.655953
  H       1.888977      4.238082      2.939585
  H       0.336607      4.067913      1.252595
  H       1.020750      2.412424      0.138733
  Cu      2.199429      2.333232      1.070210
18
Coordinates from ORCA-job ./orca E -1967.122911393194
  C      -2.963164      1.850566      1.627439
  C      -1.825853      2.612183      1.400146
  C      -0.625032      2.290863      2.037866
  C      -0.572744      1.186840      2.893052
  C      -1.711490      0.426950      3.117033
  C      -2.908575      0.757382      2.486746
  H      -3.891599      2.110974      1.136380
  H      -3.795000      0.162243      2.663678
  H      -1.865130      3.462682      0.730690
  H       0.354236      0.902183      3.376081
  H      -1.665179     -0.426363      3.780804
  C       0.540434      3.158958      1.799628
  N       1.503801      3.312633      2.805957
  H       1.397539      2.776219      3.655255
  H       1.886627      4.238225      2.939787
  H       0.337368      4.068531      1.252627
  H       1.023989      2.410336      0.138614
  Cu      2.202229      2.333056      1.071258
18
Coordinates from ORCA-job ./orca E -1967.122917863777
  C      -2.963894      1.851267      1.628746
  C      -1.826551      2.612676      1.400749
  C      -0.625242      2.290891      2.037200
  C      -0.572491      1.186457      2.891667
  C      -1.711258      0.426687      3.116393
  C      -2.908827      0.757596      2.487391
  H      -3.892716      2.112178      1.138673
  H      -3.795192      0.162500      2.664754
  H      -1.866288      3.463574      0.731819
  H       0.354890      0.901341      3.373691
  H      -1.664482     -0.426987      3.779677
  C       0.541122      3.158382      1.797667
  N       1.502769      3.312935      2.805480
  H       1.394320      2.777126      3.654871
  H       1.883626      4.239244      2.939909
  H       0.337677      4.068844      1.252191
  H       1.028472      2.407167      0.138935
  Cu      2.206525      2.332585      1.073229
18
Coordinates from ORCA-job ./orca E -1967.122931634791
  C      -2.964279      1.851688      1.629395
  C      -1.826896      2.612970      1.401068
  C      -0.625378      2.290798      2.036860
  C      -0.572384      1.186102      2.890931
  C      -1.711177      0.426485      3.116037
  C      -2.908998      0.757757      2.487694
  H      -3.893266      2.112868      1.139781
  H      -3.795355      0.162705      2.665240
  H      -1.866813      3.464062      0.732390
  H       0.355205      0.900646      3.372357
  H      -1.664188     -0.427407      3.779022
  C       0.541222      3.158034      1.796971
  N       1.502588      3.313254      2.805265
  H       1.393162      2.778005      3.654901
  H       1.882232      4.240042      2.939857
  H       0.337269      4.068486      1.251628
  H       1.030572      2.405889      0.139250
  Cu      2.208944      2.332075      1.074394
18
Coordinates from ORCA-job ./orca E -1967.122921438718
  C      -2.964731      1.852309      1.630175
  C      -1.827279      2.613416      1.401464
  C      -0.625544      2.290612      2.036462
  C      -0.572238      1.185476      2.889995
  C      -1.711065      0.426126      3.115515
  C      -2.909201      0.758024      2.488001
  H      -3.893906      2.113860      1.141123
  H      -3.795586      0.163077      2.665747
  H      -1.867383      3.464764      0.733132
  H       0.355626      0.899507      3.370575
  H      -1.663863     -0.428090      3.778067
  C       0.540949      3.157672      1.796579
  N       1.502774      3.313774      2.804900
  H       1.392140      2.779586      3.655115
  H       1.880489      4.241370      2.939630
  H       0.336112      4.067481      1.250501
  H       1.032718      2.404540      0.140022
  Cu      2.212449      2.330954      1.076038
18
Coordinates from ORCA-job ./orca E -1967.122922073735
  C      -2.964721      1.852348      1.630135
  C      -1.827275      2.613504      1.401509
  C      -0.625574      2.290606      2.036565
  C      -0.572280      1.185389      2.890102
  C      -1.711085      0.426058      3.115518
  C      -2.909196      0.758044      2.487915
  H      -3.893866      2.113882      1.141028
  H      -3.795598      0.163093      2.665583
  H      -1.867356      3.464863      0.733195
  H       0.355602      0.899412      3.370635
  H      -1.663941     -0.428197      3.778020
  C       0.540477      3.157815      1.797095
  N       1.503267      3.313697      2.804614
  H       1.392462      2.779921      3.655098
  H       1.880391      4.241543      2.939462
  H       0.335522      4.067027      1.250119
  H       1.032303      2.405220      0.140311
  Cu      2.213328      2.330235      1.076134
18
Coordinates from ORCA-job ./orca E -1967.122646657071
  C      -2.964108      1.851901      1.629050
  C      -1.826475      2.612662      1.400038
  C      -0.624892      2.289885      2.035380
  C      -0.571912      1.185191      2.889613
  C      -1.710903      0.426254      3.115413
  C      -2.908893      0.758116      2.487512
  H      -3.893159      2.113341      1.139713
  H      -3.795440      0.163474      2.665481
  H      -1.866317      3.463619      0.731198
  H       0.355868      0.899309      3.370398
  H      -1.664001     -0.427599      3.778450
  C       0.541364      3.156699      1.795478
  N       1.504878      3.313211      2.804035
  H       1.394399      2.780091      3.654973
  H       1.882402      4.240977      2.938316
  H       0.336736      4.065656      1.247954
  H       1.021508      2.412424      0.154215
  Cu      2.211407      2.329249      1.075823
18
Coordinates from ORCA-job ./orca E -1967.122645918086
  C      -2.964500      1.852207      1.629801
  C      -1.826996      2.613153      1.400619
  C      -0.624970      2.290054      2.034934
  C      -0.571743      1.185291      2.888959
  C      -1.710652      0.426164      3.115030
  C      -2.908928      0.758143      2.487869
  H      -3.893836      2.113921      1.141128
  H      -3.795429      0.163539      2.666223
  H      -1.867234      3.464419      0.732179
  H       0.356264      0.899347      3.369276
  H      -1.663436     -0.427850      3.777852
  C       0.542029      3.156344      1.793826
  N       1.503839      3.313002      2.803534
  H       1.391604      2.780039      3.654235
  H       1.880069      4.241102      2.938496
  H       0.337485      4.066342      1.248040
  H       1.024673      2.410158      0.154165
  Cu      2.214223      2.329085      1.076874
18
Coordinates from ORCA-job ./orca E -1967.122652273069
  C      -2.965246      1.852905      1.631129
  C      -1.827723      2.613660      1.401259
  C      -0.625211      2.290104      2.034297
  C      -0.571521      1.184930      2.887594
  C      -1.710435      0.425900      3.114390
  C      -2.909189      0.758339      2.488508
  H      -3.894965      2.115114      1.143435
  H      -3.795623      0.163758      2.667273
  H      -1.868426      3.465331      0.733362
  H       0.356884      0.898527      3.366900
  H      -1.662749     -0.428477      3.776720
  C       0.542721      3.155740      1.791825
  N       1.502842      3.313283      2.803015
  H       1.388360      2.780962      3.653804
  H       1.877051      4.242104      2.938559
  H       0.337792      4.066648      1.247587
  H       1.029279      2.407048      0.154466
  Cu      2.218616      2.328582      1.078917
18
Coordinates from ORCA-job ./orca E -1967.122668337372
  C      -2.965651      1.853346      1.631804
  C      -1.828090      2.613971      1.401585
  C      -0.625359      2.290019      2.033931
  C      -0.571406      1.184564      2.886807
  C      -1.710344      0.425693      3.114010
  C      -2.909365      0.758513      2.488829
  H      -3.895545      2.115833      1.144595
  H      -3.795788      0.163979      2.667791
  H      -1.868991      3.465850      0.733962
  H       0.357216      0.897808      3.365484
  H      -1.662427     -0.428919      3.776021
  C       0.542816      3.155395      1.791094
  N       1.502667      3.313605      2.802777
  H       1.387140      2.781875      3.653816
  H       1.875579      4.242929      2.938498
  H       0.337365      4.066301      1.247015
  H       1.031464      2.405624      0.154851
  Cu      2.221179      2.328074      1.080170
18
Coordinates from ORCA-job ./orca E -1967.122658014090
  C      -2.966154      1.854022      1.632676
  C      -1.828520      2.614445      1.402007
  C      -0.625535      2.289810      2.033462
  C      -0.571243      1.183883      2.885763
  C      -1.710218      0.425297      3.113432
  C      -2.909587      0.758805      2.489184
  H      -3.896263      2.116923      1.146110
  H      -3.796036      0.164395      2.668390
  H      -1.869637      3.466613      0.734765
  H       0.357679      0.896577      3.363529
  H      -1.662062     -0.429667      3.774964
  C       0.542526      3.155003      1.790633
  N       1.502840      3.314141      2.802369
  H       1.385937      2.783584      3.654022
  H       1.873637      4.244336      2.938236
  H       0.336189      4.065229      1.245759
  H       1.033909      2.404175      0.155695
  Cu      2.224997      2.326889      1.082045
18
Coordinates from ORCA-job ./orca E -1967.122665554105
  C      -2.966165      1.854097      1.632681
  C      -1.828539      2.614567      1.402078
  C      -0.625570      2.289802      2.033541
  C      -0.571265      1.183758      2.885807
  C      -1.710219      0.425206      3.113396
  C      -2.909583      0.758834      2.489108
  H      -3.896259      2.117000      1.146100
  H      -3.796052      0.164425      2.668251
  H      -1.869649      3.466764      0.734882
  H       0.357693      0.896414      3.363467
  H      -1.662107     -0.429821      3.774849
  C       0.542023      3.155153      1.791143
  N       1.503329      3.314092      2.802060
  H       1.386169      2.784035      3.654027
  H       1.873459      4.244566      2.938034
  H       0.335594      4.064726      1.245274
  H       1.033591      2.404752      0.156064
  Cu      2.226010      2.326089      1.082277
18
Coordinates from ORCA-job ./orca E -1967.122425113593
  C      -2.965564      1.853656      1.631612
  C      -1.827753      2.613731      1.400619
  C      -0.624897      2.289081      2.032358
  C      -0.570899      1.183554      2.885313
  C      -1.710037      0.425396      3.113291
  C      -2.909283      0.758905      2.488714
  H      -3.895566      2.116469      1.144808
  H      -3.795898      0.164803      2.668162
  H      -1.868629      3.465530      0.732901
  H       0.357961      0.896300      3.363218
  H      -1.662162     -0.429234      3.775274
  C       0.542899      3.154037      1.789525
  N       1.504928      3.313602      2.801469
  H       1.388097      2.784195      3.653887
  H       1.875466      4.243996      2.936885
  H       0.336792      4.063358      1.243114
  H       1.022909      2.411980      0.169967
  Cu      2.224095      2.325100      1.081922
18
Coordinates from ORCA-job ./orca E -1967.122424760410
  C      -2.965957      1.853954      1.632352
  C      -1.828288      2.614252      1.401242
  C      -0.624994      2.289288      2.031962
  C      -0.570750      1.183682      2.884694
  C      -1.709794      0.425306      3.112900
  C      -2.909317      0.758912      2.489038
  H      -3.896236      2.117025      1.146189
  H      -3.795875      0.164821      2.668834
  H      -1.869557      3.466367      0.733937
  H       0.358336      0.896369      3.362131
  H      -1.661605     -0.429493      3.774653
  C       0.543563      3.153692      1.787865
  N       1.503935      3.313398      2.800938
  H       1.385352      2.784164      3.653114
  H       1.873170      4.244122      2.937006
  H       0.337527      4.064081      1.243227
  H       1.026022      2.409590      0.169974
  Cu      2.226926      2.324929      1.082985
18
Coordinates from ORCA-job ./orca E -1967.122432962887
  C      -2.966735      1.854669      1.633727
  C      -1.829056      2.614795      1.401936
  C      -0.625264      2.289360      2.031337
  C      -0.570549      1.183334      2.883325
  C      -1.709579      0.425025      3.112232
  C      -2.909586      0.759086      2.489667
  H      -3.897408      2.118253      1.148578
  H      -3.796061      0.164998      2.669858
  H      -1.870815      3.467348      0.735215
  H       0.358938      0.895572      3.359738
  H      -1.660904     -0.430157      3.773467
  C       0.544262      3.153053      1.785787
  N       1.502944      3.313679      2.800371
  H       1.382021      2.785146      3.652638
  H       1.870093      4.245135      2.936994
  H       0.337846      4.064366      1.242713
  H       1.030825      2.406426      0.170290
  Cu      2.231486      2.324372      1.085168
18
Coordinates from ORCA-job ./orca E -1967.122449087656
  C      -2.967176      1.855161      1.634474
  C      -1.829453      2.615133      1.402290
  C      -0.625416      2.289261      2.030924
  C      -0.570415      1.182915      2.882440
  C      -1.709472      0.424779      3.111786
  C      -2.909775      0.759277      2.490013
  H      -3.898046      2.119072      1.149885
  H      -3.796240      0.165242      2.670425
  H      -1.871430      3.467928      0.735888
  H       0.359311      0.894765      3.358164
  H      -1.660552     -0.430661      3.772666
  C       0.544354      3.152689      1.784997
  N       1.502742      3.314057      2.800111
  H       1.380677      2.786196      3.652652
  H       1.868481      4.246053      2.936885
  H       0.337410      4.063977      1.242047
  H       1.033198      2.404778      0.170783
  Cu      2.234263      2.323838      1.086610
18
Coordinates from ORCA-job ./orca E -1967.122438466327
  C      -2.967760      1.855950      1.635518
  C      -1.829946      2.615662      1.402773
  C      -0.625600      2.288987      2.030337
  C      -0.570211      1.182094      2.881181
  C      -1.709318      0.424302      3.111103
  C      -2.910035      0.759619      2.490457
  H      -3.898891      2.120368      1.151723
  H      -3.796542      0.165749      2.671187
  H      -1.872175      3.468797      0.736827
  H       0.359868      0.893296      3.355814
  H      -1.660118     -0.431558      3.771419
  C       0.544042      3.152231      1.784422
  N       1.502827      3.314703      2.799670
  H       1.379152      2.788213      3.652905
  H       1.866223      4.247653      2.936528
  H       0.336236      4.062729      1.240492
  H       1.036170      2.403134      0.171757
  Cu      2.238537      2.322534      1.088927
18
Coordinates from ORCA-job ./orca E -1967.122446623640
  C      -2.967810      1.856099      1.635614
  C      -1.830001      2.615847      1.402901
  C      -0.625634      2.288974      2.030368
  C      -0.570193      1.181900      2.881095
  C      -1.709276      0.424149      3.110962
  C      -2.910029      0.759669      2.490396
  H      -3.898960      2.120576      1.151892
  H      -3.796556      0.165812      2.671097
  H      -1.872250      3.469058      0.737063
  H       0.359962      0.893007      3.355515
  H      -1.660089     -0.431830      3.771117
  C       0.543507      3.152384      1.784912
  N       1.503267      3.314755      2.799351
  H       1.379218      2.788921      3.652978
  H       1.865915      4.248027      2.936242
  H       0.335662      4.062126      1.239799
  H       1.035998      2.403388      0.172311
  Cu      2.239729      2.321599      1.089430
18
Coordinates from ORCA-job ./orca E -1967.122252889415
  C      -2.967219      1.855663      1.634560
  C      -1.829227      2.615017      1.401455
  C      -0.624969      2.288253      2.029187
  C      -0.569829      1.181690      2.880597
  C      -1.709094      0.424332      3.110856
  C      -2.909734      0.759739      2.490011
  H      -3.898282      2.120054      1.150623
  H      -3.796404      0.166189      2.671020
  H      -1.871248      3.467835      0.735099
  H       0.360232      0.892881      3.355255
  H      -1.660138     -0.431256      3.771538
  C       0.544373      3.151266      1.783293
  N       1.504854      3.314261      2.798750
  H       1.381137      2.789073      3.652822
  H       1.867916      4.247453      2.935092
  H       0.336846      4.060760      1.237645
  H       1.025423      2.410644      0.186204
  Cu      2.237821      2.320605      1.089031
18
Coordinates from ORCA-job ./orca E -1967.122252997676
  C      -2.967614      1.855953      1.635287
  C      -1.829784      2.615580      1.402119
  C      -0.625090      2.288512      2.028840
  C      -0.569696      1.181858      2.880014
  C      -1.708851      0.424253      3.110467
  C      -2.909757      0.759724      2.490302
  H      -3.898942      2.120569      1.151959
  H      -3.796354      0.166153      2.671622
  H      -1.872202      3.468716      0.736181
  H       0.360587      0.893004      3.354213
  H      -1.659575     -0.431511      3.770908
  C       0.545034      3.150930      1.781618
  N       1.503898      3.314040      2.798189
  H       1.378419      2.789032      3.652014
  H       1.865665      4.247548      2.935164
  H       0.337575      4.061526      1.237781
  H       1.028491      2.408166      0.186251
  Cu      2.240656      2.320406      1.090110
18
Coordinates from ORCA-job ./orca E -1967.122260441956
  C      -2.968426      1.856683      1.636712
  C      -1.830584      2.616121      1.402819
  C      -0.625378      2.288573      2.028180
  C      -0.569502      1.181485      2.878592
  C      -1.708640      0.423961      3.109781
  C      -2.910046      0.759906      2.490965
  H      -3.900162      2.121833      1.154445
  H      -3.796562      0.166351      2.672722
  H      -1.873511      3.469717      0.737502
  H       0.361191      0.892176      3.351740
  H      -1.658868     -0.432190      3.769697
  C       0.545744      3.150254      1.779456
  N       1.502886      3.314310      2.797592
  H       1.374964      2.790042      3.651491
  H       1.862475      4.248565      2.935122
  H       0.337904      4.061798      1.237213
  H       1.033553      2.405034      0.186560
  Cu      2.245422      2.319842      1.092449
18
Coordinates from ORCA-job ./orca E -1967.122278570213
  C      -2.968919      1.857259      1.637577
  C      -1.831038      2.616537      1.403245
  C      -0.625548      2.288483      2.027716
  C      -0.569341      1.181012      2.877571
  C      -1.708494      0.423657      3.109231
  C      -2.910238      0.760110      2.491334
  H      -3.900887      2.122787      1.155971
  H      -3.796737      0.166606      2.673331
  H      -1.874223      3.470429      0.738319
  H       0.361628      0.891260      3.349914
  H      -1.658435     -0.432818      3.768704
  C       0.545841      3.149864      1.778571
  N       1.502621      3.314787      2.797311
  H       1.373392      2.791337      3.651539
  H       1.860697      4.249621      2.934916
  H       0.337496      4.061334      1.236365
  H       1.036185      2.403010      0.187221
  Cu      2.248459      2.319183      1.094204
18
Coordinates from ORCA-job ./orca E -1967.122268889961
  C      -2.969613      1.858215      1.638876
  C      -1.831639      2.617209      1.403897
  C      -0.625752      2.288177      2.027019
  C      -0.569075      1.180029      2.876033
  C      -1.708275      0.423041      3.108342
  C      -2.910517      0.760478      2.491833
  H      -3.901917      2.124383      1.158287
  H      -3.797053      0.167148      2.674196
  H      -1.875157      3.471566      0.739594
  H       0.362325      0.889498      3.347048
  H      -1.657874     -0.433974      3.767083
  C       0.545525      3.149319      1.777824
  N       1.502548      3.315656      2.796833
  H       1.371372      2.793936      3.651906
  H       1.858105      4.251524      2.934320
  H       0.336409      4.059815      1.234296
  H       1.039816      2.400900      0.188431
  Cu      2.253235      2.317536      1.097223
18
Coordinates from ORCA-job ./orca E -1967.122279675201
  C      -2.969748      1.858544      1.639200
  C      -1.831764      2.617520      1.404129
  C      -0.625780      2.288129      2.026915
  C      -0.568966      1.179667      2.875636
  C      -1.708134      0.422753      3.107976
  C      -2.910511      0.760581      2.491830
  H      -3.902143      2.124904      1.158904
  H      -3.797069      0.167292      2.674229
  H      -1.875367      3.472049      0.740064
  H       0.362593      0.888915      3.346198
  H      -1.657677     -0.434499      3.766402
  C       0.544958      3.149438      1.778218
  N       1.502816      3.315950      2.796526
  H       1.371003      2.795209      3.652147
  H       1.857500      4.252213      2.933861
  H       0.335892      4.058976      1.233147
  H       1.040063      2.400535      0.189307
  Cu      2.254793      2.316284      1.098350
18
Coordinates from ORCA-job ./orca E -1967.122136783272
  C      -2.969167      1.858113      1.638163
  C      -1.831002      2.616695      1.402696
  C      -0.625122      2.287407      2.025738
  C      -0.568602      1.179448      2.875137
  C      -1.707950      0.422927      3.107871
  C      -2.910219      0.760649      2.491456
  H      -3.901478      2.124393      1.157659
  H      -3.796919      0.167668      2.674166
  H      -1.874381      3.470837      0.738118
  H       0.362866      0.888776      3.345928
  H      -1.657720     -0.433938      3.766819
  C       0.545815      3.148318      1.776602
  N       1.504391      3.315452      2.795915
  H       1.372913      2.795351      3.651978
  H       1.859497      4.251634      2.932712
  H       0.337063      4.057612      1.231003
  H       1.029584      2.407832      0.203175
  Cu      2.252892      2.315285      1.097904
18
Coordinates from ORCA-job ./orca E -1967.122137333260
  C      -2.969571      1.858390      1.638888
  C      -1.831578      2.617281      1.403405
  C      -0.625258      2.287683      2.025415
  C      -0.568486      1.179623      2.874568
  C      -1.707721      0.422850      3.107489
  C      -2.910252      0.760623      2.491738
  H      -3.902139      2.124878      1.158972
  H      -3.796876      0.167607      2.674744
  H      -1.875353      3.471745      0.739253
  H       0.363208      0.888910      3.344894
  H      -1.657168     -0.434194      3.766188
  C       0.546479      3.147974      1.774899
  N       1.503456      3.315227      2.795331
  H       1.370192      2.795324      3.651137
  H       1.857269      4.251718      2.932733
  H       0.337790      4.058390      1.231122
  H       1.032705      2.405372      0.203227
  Cu      2.255763      2.315060      1.099036
18
Coordinates from ORCA-job ./orca E -1967.122146838924
  C      -2.970431      1.859174      1.640411
  C      -1.832428      2.617874      1.404166
  C      -0.625564      2.287739      2.024707
  C      -0.568277      1.179198      2.873034
  C      -1.707488      0.422507      3.106723
  C      -2.910551      0.760806      2.492421
  H      -3.903435      2.126248      1.161648
  H      -3.797094      0.167816      2.675900
  H      -1.876745      3.472857      0.740716
  H       0.363853      0.888004      3.342228
  H      -1.656411     -0.434958      3.764849
  C       0.547200      3.147256      1.772622
  N       1.502376      3.315565      2.794709
  H       1.366516      2.796520      3.650606
  H       1.853948      4.252814      2.932581
  H       0.338152      4.058600      1.230391
  H       1.038081      2.402053      0.203632
  Cu      2.260760      2.314388      1.101695
18
Coordinates from ORCA-job ./orca E -1967.122149767852
  C      -2.971013      1.859886      1.641488
  C      -1.832954      2.618369      1.404681
  C      -0.625737      2.287601      2.024115
  C      -0.568056      1.178582      2.871754
  C      -1.707288      0.422103      3.106014
  C      -2.910767      0.761058      2.492876
  H      -3.904306      2.127459      1.163576
  H      -3.797298      0.168153      2.676674
  H      -1.877586      3.473728      0.741733
  H       0.364415      0.886844      3.339948
  H      -1.655865     -0.435770      3.763578
  C       0.547318      3.146786      1.771560
  N       1.501938      3.316207      2.794417
  H       1.364498      2.798205      3.650719
  H       1.851841      4.254099      2.932243
  H       0.337799      4.057968      1.229201
  H       1.041291      2.399642      0.204463
  Cu      2.264228      2.313538      1.103999
18
Coordinates from ORCA-job ./orca E -1967.122155297605
  C      -2.971877      1.861153      1.643236
  C      -1.833692      2.619246      1.405545
  C      -0.625933      2.287203      2.023151
  C      -0.567647      1.177282      2.869643
  C      -1.706924      0.421243      3.104741
  C      -2.911075      0.761513      2.493518
  H      -3.905636      2.129634      1.166756
  H      -3.797658      0.168853      2.677847
  H      -1.878776      3.475251      0.743470
  H       0.365400      0.884533      3.336069
  H      -1.655025     -0.437381      3.761285
  C       0.547021      3.146100      1.770516
  N       1.501487      3.317512      2.793961
  H       1.361572      2.801785      3.651320
  H       1.848642      4.256550      2.931308
  H       0.336866      4.056014      1.226296
  H       1.045975      2.396576      0.206136
  Cu      2.269741      2.311391      1.108242
18
Coordinates from ORCA-job ./orca E -1967.122154784729
  C      -2.972138      1.861732      1.643912
  C      -1.833933      2.619753      1.405979
  C      -0.625952      2.287094      2.022864
  C      -0.567418      1.176663      2.868819
  C      -1.706661      0.420748      3.104062
  C      -2.911074      0.761674      2.493598
  H      -3.906087      2.130596      1.168036
  H      -3.797683      0.169091      2.678054
  H      -1.879200      3.476080      0.744344
  H       0.365899      0.883508      3.334444
  H      -1.654610     -0.438289      3.760050
  C       0.546450      3.146131      1.770724
  N       1.501466      3.318182      2.793676
  H       1.360519      2.803906      3.651805
  H       1.847636      4.257706      2.930549
  H       0.336495      4.054782      1.224407
  H       1.046959      2.395466      0.207388
  Cu      2.271792      2.309636      1.110329
18
Coordinates from ORCA-job ./orca E -1967.122116772399
  C      -2.972081      1.861706      1.643852
  C      -1.833953      2.619901      1.406103
  C      -0.625961      2.287241      2.023064
  C      -0.567422      1.176703      2.868998
  C      -1.706557      0.420639      3.103973
  C      -2.910949      0.761568      2.493396
  H      -3.906033      2.130509      1.167945
  H      -3.797520      0.168877      2.677704
  H      -1.879250      3.476282      0.744548
  H       0.365942      0.883665      3.334599
  H      -1.654532     -0.438503      3.759821
  C       0.545915      3.146560      1.771406
  N       1.501624      3.318147      2.793444
  H       1.360538      2.804472      3.651946
  H       1.848108      4.257620      2.930113
  H       0.336784      4.054480      1.223643
  H       1.046109      2.396238      0.207805
  Cu      2.271699      2.308357      1.110680
18
Coordinates from ORCA-job ./orca E -1967.122085782403
  C      -2.971509      1.861280      1.642832
  C      -1.833201      2.619081      1.404684
  C      -0.625309      2.286515      2.021893
  C      -0.567059      1.176474      2.868499
  C      -1.706373      0.420803      3.103871
  C      -2.910660      0.761634      2.493033
  H      -3.905380      2.130010      1.166724
  H      -3.797372      0.169251      2.677654
  H      -1.878278      3.475080      0.742621
  H       0.366216      0.883509      3.334322
  H      -1.654570     -0.437958      3.760237
  C       0.546764      3.145436      1.769794
  N       1.503186      3.317643      2.792825
  H       1.362440      2.804607      3.651765
  H       1.850098      4.257035      2.928964
  H       0.337943      4.053114      1.221511
  H       1.035718      2.403596      0.221627
  Cu      2.269807      2.307350      1.110184
18
Coordinates from ORCA-job ./orca E -1967.122087044690
  C      -2.972005      1.861581      1.643632
  C      -1.833902      2.619742      1.405460
  C      -0.625528      2.286889      2.021523
  C      -0.566945      1.176723      2.867799
  C      -1.706127      0.420761      3.103426
  C      -2.910719      0.761597      2.493345
  H      -3.906160      2.130509      1.168168
  H      -3.797315      0.169132      2.678283
  H      -1.879440      3.476098      0.743874
  H       0.366581      0.883714      3.333107
  H      -1.653927     -0.438191      3.759522
  C       0.547579      3.145050      1.767744
  N       1.502171      3.317424      2.792206
  H       1.359506      2.804496      3.650780
  H       1.847700      4.257120      2.929027
  H       0.338679      4.054219      1.221905
  H       1.039224      2.400317      0.221819
  Cu      2.273088      2.307279      1.111422
18
Coordinates from ORCA-job ./orca E -1967.122097900803
  C      -2.972945      1.862380      1.645229
  C      -1.834795      2.620242      1.406159
  C      -0.625898      2.286853      2.020725
  C      -0.566774      1.176236      2.866165
  C      -1.705962      0.420429      3.102686
  C      -2.911106      0.761808      2.494131
  H      -3.907538      2.131922      1.170964
  H      -3.797623      0.169394      2.679594
  H      -1.880869      3.477107      0.745264
  H       0.367178      0.882681      3.330307
  H      -1.653220     -0.438919      3.758237
  C       0.548401      3.144131      1.765254
  N       1.501030      3.317840      2.791702
  H       1.355856      2.805685      3.650291
  H       1.844418      4.258247      2.928883
  H       0.338910      4.054355      1.221213
  H       1.045203      2.397293      0.221995
  Cu      2.278194      2.306778      1.114239
18
Coordinates from ORCA-job ./orca E -1967.122098857857
  C      -2.973500      1.863171      1.646344
  C      -1.835261      2.620734      1.406625
  C      -0.626018      2.286647      2.020029
  C      -0.566483      1.175499      2.864707
  C      -1.705718      0.419960      3.101853
  C      -2.911303      0.762105      2.494586
  H      -3.908406      2.133298      1.173030
  H      -3.797834      0.169834      2.680430
  H      -1.881647      3.478015      0.746287
  H       0.367803      0.881317      3.327798
  H      -1.652627     -0.439821      3.756805
  C       0.548556      3.143625      1.764189
  N       1.500476      3.318726      2.791576
  H       1.353881      2.807619      3.650567
  H       1.842363      4.259730      2.928458
  H       0.338476      4.053615      1.219946
  H       1.048300      2.394322      0.223077
  Cu      2.281402      2.306064      1.116733
18
Coordinates from ORCA-job ./orca E -1967.122106320337
  C      -2.974525      1.864828      1.648643
  C      -1.836082      2.621809      1.407741
  C      -0.626140      2.285986      2.018685
  C      -0.565889      1.173709      2.861895
  C      -1.705240      0.418797      3.100165
  C      -2.911676      0.762714      2.495458
  H      -3.910038      2.136221      1.177261
  H      -3.798318      0.170849      2.682062
  H      -1.883007      3.479932      0.748546
  H       0.369091      0.878145      3.322714
  H      -1.651564     -0.441954      3.753793
  C       0.548471      3.142530      1.762662
  N       1.499426      3.320690      2.791325
  H       1.349909      2.812331      3.651522
  H       1.838407      4.262951      2.927094
  H       0.337562      4.050931      1.216082
  H       1.054545      2.390353      0.225020
  Cu      2.287528      2.303637      1.122372
18
Coordinates from ORCA-job ./orca E -1967.122104306129
  C      -2.974986      1.865936      1.650014
  C      -1.836468      2.622692      1.408542
  C      -0.626082      2.285741      2.018008
  C      -0.565385      1.172558      2.860153
  C      -1.704722      0.417898      3.098835
  C      -2.911670      0.763026      2.495701
  H      -3.910884      2.138137      1.179881
  H      -3.798372      0.171361      2.682648
  H      -1.883762      3.481449      0.750212
  H       0.370075      0.876223      3.319519
  H      -1.650723     -0.443591      3.751460
  C       0.548055      3.142327      1.762386
  N       1.498771      3.322152      2.791130
  H       1.347460      2.816007      3.652384
  H       1.836382      4.265114      2.925806
  H       0.337346      4.049034      1.213009
  H       1.056880      2.387125      0.227136
  Cu      2.290543      2.301270      1.126213
18
Coordinates from ORCA-job ./orca E -1967.122107315440
  C      -2.975168      1.866347      1.650642
  C      -1.836703      2.623214      1.409125
  C      -0.626064      2.285767      2.017910
  C      -0.565199      1.172145      2.859608
  C      -1.704419      0.417414      3.098229
  C      -2.911573      0.763007      2.495675
  H      -3.911248      2.138843      1.181041
  H      -3.798254      0.171303      2.682636
  H      -1.884212      3.482311      0.751270
  H       0.370538      0.875659      3.318321
  H      -1.650282     -0.444490      3.750292
  C       0.547602      3.142516      1.762614
  N       1.498349      3.322700      2.790852
  H       1.345958      2.818031      3.652831
  H       1.835899      4.265823      2.924842
  H       0.338002      4.047975      1.210844
  H       1.057690      2.386903      0.227986
  Cu      2.291544      2.298992      1.128323
18
Coordinates from ORCA-job ./orca E -1967.122102137031
  C      -2.975119      1.866204      1.650505
  C      -1.836791      2.623351      1.409242
  C      -0.626129      2.286120      2.018178
  C      -0.565226      1.172453      2.859865
  C      -1.704279      0.417425      3.098170
  C      -2.911402      0.762790      2.495404
  H      -3.911197      2.138537      1.180804
  H      -3.797968      0.170845      2.682141
  H      -1.884380      3.482495      0.751464
  H       0.370560      0.876263      3.318673
  H      -1.650106     -0.444545      3.750139
  C       0.547312      3.143084      1.763024
  N       1.498304      3.322581      2.790680
  H       1.345881      2.818208      3.652839
  H       1.836708      4.265429      2.924572
  H       0.338791      4.048354      1.210595
  H       1.056578      2.386943      0.228383
  Cu      2.290922      2.297924      1.128360
18
Coordinates from ORCA-job ./orca E -1967.122102729702
  C      -2.974552      1.865784      1.649504
  C      -1.836045      2.622534      1.407840
  C      -0.625481      2.285387      2.017017
  C      -0.564863      1.172209      2.859370
  C      -1.704094      0.417575      3.098074
  C      -2.911115      0.762853      2.495055
  H      -3.910551      2.138050      1.179606
  H      -3.797821      0.171216      2.682106
  H      -1.883417      3.481304      0.749556
  H       0.370838      0.876084      3.318395
  H      -1.650140     -0.444020      3.750556
  C       0.548157      3.141951      1.761421
  N       1.499854      3.322071      2.790057
  H       1.347774      2.818335      3.652649
  H       1.838692      4.264837      2.923430
  H       0.339943      4.046980      1.208482
  H       1.046243      2.394402      0.242111
  Cu      2.289039      2.296908      1.127812
18
Coordinates from ORCA-job ./orca E -1967.122108241744
  C      -2.975121      1.866103      1.650373
  C      -1.836814      2.623197      1.408650
  C      -0.625765      2.285726      2.016592
  C      -0.564777      1.172428      2.858589
  C      -1.703890      0.417546      3.097637
  C      -2.911241      0.762842      2.495449
  H      -3.911410      2.138577      1.181150
  H      -3.797825      0.171129      2.682853
  H      -1.884656      3.482330      0.750855
  H       0.371187      0.876208      3.317032
  H      -1.649510     -0.444238      3.749851
  C       0.549034      3.141399      1.759153
  N       1.498826      3.321861      2.789439
  H       1.344755      2.818229      3.651620
  H       1.836173      4.264950      2.923489
  H       0.340544      4.048056      1.208881
  H       1.050307      2.391231      0.242183
  Cu      2.292641      2.296887      1.129243
18
Coordinates from ORCA-job ./orca E -1967.122121005429
  C      -2.976186      1.867082      1.652227
  C      -1.837781      2.623735      1.409365
  C      -0.626159      2.285572      2.015550
  C      -0.564541      1.171738      2.856567
  C      -1.703697      0.417126      3.096726
  C      -2.911699      0.763153      2.496391
  H      -3.912978      2.140329      1.184444
  H      -3.798223      0.171570      2.684474
  H      -1.886207      3.483456      0.752366
  H       0.371895      0.874809      3.313621
  H      -1.648712     -0.445104      3.748316
  C       0.549953      3.140243      1.756310
  N       1.497532      3.322492      2.788988
  H       1.340709      2.819753      3.651160
  H       1.832432      4.266388      2.923288
  H       0.340547      4.048016      1.208015
  H       1.057178      2.387627      0.242534
  Cu      2.298398      2.296477      1.132698
18
Coordinates from ORCA-job ./orca E -1967.122121714739
  C      -2.976761      1.867967      1.653468
  C      -1.838247      2.624264      1.409874
  C      -0.626252      2.285270      2.014740
  C      -0.564206      1.170854      2.854931
  C      -1.703433      0.416578      3.095798
  C      -2.911908      0.763499      2.496906
  H      -3.913889      2.141891      1.186759
  H      -3.798470      0.172122      2.685443
  H      -1.886993      3.484437      0.753490
  H       0.372582      0.873215      3.310817
  H      -1.648095     -0.446130      3.746726
  C       0.550134      3.139612      1.755166
  N       1.496882      3.323530      2.788911
  H       1.338513      2.821975      3.651512
  H       1.830199      4.268061      2.922735
  H       0.340050      4.047012      1.206477
  H       1.060634      2.384597      0.243688
  Cu      2.301721      2.295707      1.135599
18
Coordinates from ORCA-job ./orca E -1967.122127096434
  C      -2.977900      1.870025      1.656306
  C      -1.839121      2.625560      1.411226
  C      -0.626287      2.284375      2.013016
  C      -0.563414      1.168568      2.851398
  C      -1.702799      0.415092      3.093646
  C      -2.912288      0.764264      2.497959
  H      -3.915762      2.145566      1.192038
  H      -3.799024      0.173466      2.687489
  H      -1.888502      3.486777      0.756281
  H       0.374188      0.869287      3.304557
  H      -1.646801     -0.448798      3.742942
  C       0.550137      3.138224      1.753305
  N       1.495409      3.326058      2.788730
  H       1.333480      2.827845      3.652696
  H       1.825401      4.272038      2.920923
  H       0.339111      4.043586      1.201615
  H       1.068071      2.379618      0.246160
  Cu      2.308559      2.292907      1.142754
18
Coordinates from ORCA-job ./orca E -1967.122127807516
  C      -2.978413      1.871319      1.657963
  C      -1.839549      2.626605      1.412232
  C      -0.626189      2.284086      2.012223
  C      -0.562824      1.167228      2.849339
  C      -1.702190      0.414030      3.092073
  C      -2.912264      0.764599      2.498243
  H      -3.916722      2.147817      1.195177
  H      -3.799065      0.174016      2.688157
  H      -1.889357      3.488568      0.758316
  H       0.375326      0.867115      3.300819
  H      -1.645819     -0.450737      3.740169
  C       0.549801      3.137936      1.752856
  N       1.494530      3.327798      2.788524
  H       1.330410      2.832154      3.653623
  H       1.823038      4.274544      2.919335
  H       0.339085      4.041382      1.198001
  H       1.070874      2.375772      0.248591
  Cu      2.311787      2.290226      1.147398
18
Coordinates from ORCA-job ./orca E -1967.122130983813
  C      -2.978659      1.871836      1.658793
  C      -1.839857      2.627254      1.412984
  C      -0.626174      2.284123      2.012072
  C      -0.562599      1.166729      2.848607
  C      -1.701818      0.413440      3.091307
  C      -2.912154      0.764564      2.498227
  H      -3.917196      2.148712      1.196698
  H      -3.798912      0.173911      2.688143
  H      -1.889944      3.489646      0.759668
  H       0.375906      0.866503      3.299301
  H      -1.645261     -0.451838      3.738703
  C       0.549364      3.138128      1.752970
  N       1.493981      3.328473      2.788178
  H       1.328424      2.834608      3.654079
  H       1.822363      4.275422      2.918182
  H       0.339973      4.040168      1.195419
  H       1.072004      2.375234      0.249618
  Cu      2.313017      2.287547      1.150092
18
Coordinates from ORCA-job ./orca E -1967.122124214029
  C      -2.978587      1.871595      1.658540
  C      -1.839947      2.627350      1.413034
  C      -0.626262      2.284559      2.012400
  C      -0.562657      1.167177      2.848995
  C      -1.701680      0.413534      3.091332
  C      -2.911959      0.764308      2.497914
  H      -3.917103      2.148215      1.196251
  H      -3.798575      0.173356      2.687559
  H      -1.890118      3.489746      0.759734
  H       0.375893      0.867378      3.299886
  H      -1.645094     -0.451750      3.738711
  C       0.549040      3.138824      1.753431
  N       1.494030      3.328183      2.787962
  H       1.328500      2.834499      3.653985
  H       1.823371      4.274804      2.918060
  H       0.340826      4.040814      1.195421
  H       1.070537      2.375381      0.249962
  Cu      2.312245      2.286488      1.149862
18
Coordinates from ORCA-job ./orca E -1967.122204302118
  C      -2.978022      1.871180      1.657557
  C      -1.839205      2.626536      1.411649
  C      -0.625615      2.283818      2.011250
  C      -0.562292      1.166915      2.848506
  C      -1.701493      0.413669      3.091244
  C      -2.911672      0.764367      2.497578
  H      -3.916461      2.147743      1.195076
  H      -3.798428      0.173726      2.687537
  H      -1.889161      3.488566      0.757848
  H       0.376173      0.867171      3.299609
  H      -1.645124     -0.451248      3.739132
  C       0.549882      3.137680      1.751840
  N       1.495567      3.327666      2.787338
  H       1.330385      2.834620      3.653791
  H       1.825349      4.274204      2.916928
  H       0.341975      4.039431      1.193330
  H       1.060230      2.382955      0.263566
  Cu      2.310373      2.285461      1.149261
18
Coordinates from ORCA-job ./orca E -1967.122210173239
  C      -2.978596      1.871462      1.658386
  C      -1.839986      2.627188      1.412471
  C      -0.625937      2.284189      2.010886
  C      -0.562252      1.167178      2.847794
  C      -1.701329      0.413665      3.090843
  C      -2.911818      0.764342      2.497960
  H      -3.917306      2.148202      1.196535
  H      -3.798445      0.173611      2.688258
  H      -1.890398      3.489568      0.759153
  H       0.376460      0.867335      3.298332
  H      -1.644542     -0.451428      3.738475
  C       0.550761      3.137093      1.749531
  N       1.494610      3.327408      2.786666
  H       1.327475      2.834432      3.652663
  H       1.822885      4.274256      2.916945
  H       0.342516      4.040585      1.193834
  H       1.064334      2.379884      0.263629
  Cu      2.314028      2.285490      1.150678
18
Coordinates from ORCA-job ./orca E -1967.122223308413
  C      -2.979648      1.872365      1.660153
  C      -1.840944      2.627640      1.413105
  C      -0.626368      2.284031      2.009859
  C      -0.562079      1.166541      2.845857
  C      -1.701208      0.413314      3.090027
  C      -2.912307      0.764649      2.498910
  H      -3.918824      2.149815      1.199662
  H      -3.798875      0.174055      2.689894
  H      -1.891901      3.490563      0.760532
  H       0.377058      0.866032      3.295104
  H      -1.643856     -0.452148      3.737131
  C       0.551658      3.135917      1.746683
  N       1.493458      3.327890      2.786154
  H       1.323652      2.835666      3.652020
  H       1.819222      4.275524      2.916795
  H       0.342387      4.040687      1.193230
  H       1.071170      2.376601      0.263926
  Cu      2.319866      2.285319      1.153998
18
Coordinates from ORCA-job ./orca E -1967.122225999104
  C      -2.980185      1.873150      1.661272
  C      -1.841382      2.628078      1.413517
  C      -0.626478      2.283726      2.009061
  C      -0.561798      1.165748      2.844353
  C      -1.701003      0.412860      3.089231
  C      -2.912521      0.764985      2.499423
  H      -3.919658      2.151200      1.201752
  H      -3.799128      0.174604      2.690868
  H      -1.892618      3.491382      0.761467
  H       0.377633      0.864627      3.292585
  H      -1.643345     -0.452987      3.735793
  C       0.551800      3.135307      1.745584
  N       1.492958      3.328706      2.786019
  H       1.321678      2.837469      3.652180
  H       1.817063      4.276960      2.916367
  H       0.341765      4.039837      1.191994
  H       1.074463      2.373994      0.264959
  Cu      2.323217      2.284813      1.156615
18
Coordinates from ORCA-job ./orca E -1967.122233233699
  C      -2.981201      1.874903      1.663718
  C      -1.842167      2.629124      1.414597
  C      -0.626564      2.282886      2.007483
  C      -0.561178      1.163761      2.841283
  C      -1.700545      0.411640      3.087470
  C      -2.912911      0.765701      2.500428
  H      -3.921279      2.154319      1.206283
  H      -3.799682      0.175871      2.692800
  H      -1.893921      3.493246      0.763686
  H       0.378913      0.861286      3.287220
  H      -1.642356     -0.455156      3.732712
  C       0.551686      3.134055      1.743978
  N       1.491993      3.330617      2.785686
  H       1.317430      2.842189      3.652874
  H       1.812617      4.280271      2.914882
  H       0.340524      4.036875      1.188033
  H       1.081151      2.370191      0.267088
  Cu      2.329950      2.282682      1.162820
18
Coordinates from ORCA-job ./orca E -1967.122232352532
  C      -2.981578      1.875886      1.664953
  C      -1.842492      2.629938      1.415358
  C      -0.626501      2.282676      2.006898
  C      -0.560756      1.162738      2.839751
  C      -1.700100      0.410833      3.086286
  C      -2.912886      0.765967      2.500619
  H      -3.921977      2.156004      1.208615
  H      -3.799714      0.176305      2.693267
  H      -1.894557      3.494598      0.765199
  H       0.379748      0.859701      3.284445
  H      -1.641661     -0.456619      3.730619
  C       0.551235      3.133945      1.743822
  N       1.491617      3.331782      2.785336
  H       1.315210      2.845408      3.653380
  H       1.810667      4.282154      2.913620
  H       0.340220      4.035163      1.185314
  H       1.083036      2.367379      0.269173
  Cu      2.332949      2.280600      1.166384
18
Coordinates from ORCA-job ./orca E -1967.122235551294
  C      -2.981684      1.876067      1.665319
  C      -1.842686      2.630342      1.415875
  C      -0.626534      2.282822      2.007060
  C      -0.560728      1.162589      2.839660
  C      -1.699915      0.410504      3.085951
  C      -2.912789      0.765844      2.500488
  H      -3.922174      2.156278      1.209223
  H      -3.799565      0.176046      2.692982
  H      -1.894896      3.495215      0.766020
  H       0.379991      0.859671      3.283990
  H      -1.641420     -0.457244      3.729874
  C       0.550688      3.134311      1.744266
  N       1.491600      3.331882      2.784846
  H       1.314197      2.846774      3.653455
  H       1.810502      4.282400      2.912789
  H       0.340852      4.034453      1.183670
  H       1.083189      2.368032      0.269721
  Cu      2.333834      2.278473      1.167851
18
Coordinates from ORCA-job ./orca E -1967.122229355375
  C      -2.981554      1.875689      1.664856
  C      -1.842732      2.630346      1.415828
  C      -0.626644      2.283327      2.007543
  C      -0.560860      1.163196      2.840321
  C      -1.699847      0.410702      3.086135
  C      -2.912595      0.765543      2.500095
  H      -3.921971      2.155537      1.208387
  H      -3.799224      0.175411      2.692238
  H      -1.894975      3.495156      0.765898
  H       0.379847      0.860784      3.285022
  H      -1.641370     -0.456977      3.730148
  C       0.550302      3.135109      1.744883
  N       1.491891      3.331381      2.784551
  H       1.314747      2.846263      3.653220
  H       1.811729      4.281564      2.912797
  H       0.341577      4.035352      1.184100
  H       1.081194      2.368435      0.269962
  Cu      2.332944      2.277642      1.167058
18
Coordinates from ORCA-job ./orca E -1967.122393303270
  C      -2.980995      1.875281      1.663890
  C      -1.841996      2.629537      1.414459
  C      -0.626000      2.282581      2.006402
  C      -0.560495      1.162921      2.839835
  C      -1.699658      0.410825      3.086051
  C      -2.912309      0.765600      2.499771
  H      -3.921337      2.155079      1.207236
  H      -3.799077      0.175780      2.692230
  H      -1.894027      3.493987      0.764033
  H       0.380130      0.860556      3.284742
  H      -1.641396     -0.456494      3.730569
  C       0.551140      3.133959      1.743300
  N       1.493415      3.330859      2.783922
  H       1.316622      2.846376      3.653018
  H       1.813699      4.280958      2.911672
  H       0.342719      4.033965      1.182025
  H       1.070942      2.376089      0.283484
  Cu      2.331083      2.276602      1.166403
18
Coordinates from ORCA-job ./orca E -1967.122399581240
  C      -2.981587      1.875562      1.664727
  C      -1.842793      2.630188      1.415297
  C      -0.626337      2.282949      2.006036
  C      -0.560474      1.163177      2.839109
  C      -1.699518      0.410822      3.085645
  C      -2.912479      0.765576      2.500162
  H      -3.922200      2.155545      1.208717
  H      -3.799119      0.175674      2.692974
  H      -1.895276      3.494999      0.765373
  H       0.380389      0.860693      3.283450
  H      -1.640839     -0.456669      3.729912
  C       0.552037      3.133321      1.740919
  N       1.492468      3.330598      2.783215
  H       1.313728      2.846175      3.651825
  H       1.811184      4.281013      2.911650
  H       0.343229      4.035143      1.182549
  H       1.075180      2.372974      0.283586
  Cu      2.334867      2.276722      1.167895
18
Coordinates from ORCA-job ./orca E -1967.122412785618
  C      -2.982629      1.876406      1.666420
  C      -1.843741      2.630574      1.415869
  C      -0.626787      2.282762      2.005003
  C      -0.560349      1.162563      2.837222
  C      -1.699460      0.410529      3.084916
  C      -2.912996      0.765888      2.501126
  H      -3.923680      2.157058      1.211709
  H      -3.799586      0.176140      2.694643
  H      -1.896734      3.495891      0.766642
  H       0.380899      0.859439      3.280351
  H      -1.640248     -0.457266      3.728741
  C       0.552913      3.132106      1.738083
  N       1.491422      3.330960      2.782675
  H       1.310106      2.847165      3.651062
  H       1.807548      4.282148      2.911552
  H       0.343005      4.035284      1.182094
  H       1.082006      2.369993      0.283824
  Cu      2.340769      2.276820      1.171108
18
Coordinates from ORCA-job ./orca E -1967.122432200669
  C      -2.983140      1.877122      1.667439
  C      -1.844161      2.630952      1.416213
  C      -0.626917      2.282475      2.004244
  C      -0.560118      1.161837      2.835822
  C      -1.699310      0.410140      3.084211
  C      -2.913221      0.766217      2.501625
  H      -3.924447      2.158301      1.213590
  H      -3.799844      0.176673      2.695574
  H      -1.897395      3.496585      0.767425
  H       0.381379      0.858159      3.278046
  H      -1.639828     -0.457976      3.727578
  C       0.553026      3.131536      1.737046
  N       1.491088      3.331632      2.782499
  H       1.308406      2.848670      3.651089
  H       1.805472      4.283435      2.911205
  H       0.342277      4.034578      1.181117
  H       1.085053      2.367522      0.284856
  Cu      2.344141      2.276602      1.173462
18
Coordinates from ORCA-job ./orca E -1967.122423422798
  C      -2.984065      1.878606      1.669533
  C      -1.844874      2.631753      1.417042
  C      -0.627057      2.281650      2.002804
  C      -0.559667      1.160080      2.833187
  C      -1.699038      0.409150      3.082826
  C      -2.913656      0.766909      2.502617
  H      -3.925864      2.160923      1.217428
  H      -3.800448      0.177919      2.697454
  H      -1.898501      3.498004      0.769124
  H       0.382356      0.855247      3.273482
  H      -1.639151     -0.459689      3.725171
  C       0.552825      3.130361      1.735634
  N       1.490582      3.332984      2.782044
  H       1.304907      2.852312      3.651377
  H       1.801263      4.286169      2.910060
  H       0.340770      4.032002      1.177937
  H       1.091191      2.364815      0.286591
  Cu      2.350886      2.275266      1.178728
18
Coordinates from ORCA-job ./orca E -1967.122437033875
  C      -2.984354      1.879396      1.670475
  C      -1.845135      2.632438      1.417645
  C      -0.627032      2.281534      2.002394
  C      -0.559354      1.159288      2.832009
  C      -1.698699      0.408522      3.081887
  C      -2.913630      0.767137      2.502726
  H      -3.926387      2.162236      1.219197
  H      -3.800471      0.178274      2.697749
  H      -1.898987      3.499087      0.770287
  H       0.382999      0.854028      3.271304
  H      -1.638638     -0.460847      3.723496
  C       0.552269      3.130392      1.735698
  N       1.490614      3.333767      2.781578
  H       1.303340      2.854821      3.651588
  H       1.799543      4.287660      2.909014
  H       0.340216      4.030660      1.175874
  H       1.092315      2.362350      0.288603
  Cu      2.353851      2.273717      1.181516
18
Coordinates from ORCA-job ./orca E -1967.122422708218
  C      -2.984396      1.879364      1.670563
  C      -1.845274      2.632666      1.418000
  C      -0.627098      2.281705      2.002716
  C      -0.559453      1.159327      2.832301
  C      -1.698653      0.408357      3.081844
  C      -2.913570      0.766974      2.502559
  H      -3.926444      2.162153      1.219283
  H      -3.800367      0.177966      2.697372
  H      -1.899187      3.499396      0.770769
  H       0.383034      0.854310      3.271480
  H      -1.638620     -0.461168      3.723242
  C       0.551648      3.130818      1.736313
  N       1.490926      3.333469      2.780981
  H       1.302888      2.855471      3.651421
  H       1.799587      4.287509      2.908420
  H       0.340674      4.030224      1.174782
  H       1.092057      2.363899      0.288757
  Cu      2.354706      2.272018      1.182238
18
Coordinates from ORCA-job ./orca E -1967.122420398921
  C      -2.984231      1.878885      1.669946
  C      -1.845304      2.632625      1.417892
  C      -0.627229      2.282289      2.003310
  C      -0.559634      1.160084      2.833164
  C      -1.698614      0.408641      3.082138
  C      -2.913361      0.766629      2.502100
  H      -3.926175      2.161217      1.218158
  H      -3.799998      0.177242      2.696502
  H      -1.899232      3.499246      0.770519
  H       0.382811      0.855651      3.272841
  H      -1.638618     -0.460761      3.723700
  C       0.551205      3.131705      1.737040
  N       1.491375      3.332785      2.780628
  H       1.303735      2.854664      3.651089
  H       1.801005      4.286464      2.908533
  H       0.341356      4.031327      1.175499
  H       1.089667      2.364482      0.288920
  Cu      2.353704      2.271284      1.181060
18
Coordinates from ORCA-job ./orca E -1967.122676356085
  C      -2.983679      1.878484      1.668998
  C      -1.844576      2.631822      1.416539
  C      -0.626591      2.281541      2.002176
  C      -0.559269      1.159799      2.832678
  C      -1.698424      0.408756      3.082057
  C      -2.913077      0.766685      2.501787
  H      -3.925550      2.160772      1.217032
  H      -3.799852      0.177609      2.696507
  H      -1.898296      3.498089      0.768674
  H       0.383097      0.855408      3.272553
  H      -1.638638     -0.460292      3.724119
  C       0.552036      3.130552      1.735463
  N       1.492884      3.332256      2.779991
  H       1.305598      2.854767      3.650876
  H       1.802967      4.285852      2.907413
  H       0.342488      4.029941      1.173437
  H       1.079488      2.372189      0.302388
  Cu      2.351854      2.270232      1.180351
18
Coordinates from ORCA-job ./orca E -1967.122689305568
  C      -2.984301      1.878790      1.669883
  C      -1.845398      2.632484      1.417397
  C      -0.626941      2.281902      2.001776
  C      -0.559248      1.160021      2.831877
  C      -1.698286      0.408731      3.081608
  C      -2.913268      0.766674      2.502207
  H      -3.926458      2.161293      1.218618
  H      -3.799916      0.177532      2.697312
  H      -1.899583      3.499142      0.770079
  H       0.383364      0.855476      3.271142
  H      -1.638070     -0.460503      3.723395
  C       0.552954      3.129862      1.732976
  N       1.491897      3.332035      2.779262
  H       1.302621      2.854636      3.649649
  H       1.800365      4.285951      2.907331
  H       0.342993      4.031114      1.173913
  H       1.083936      2.368926      0.302571
  Cu      2.355798      2.270393      1.182042
18
Coordinates from ORCA-job ./orca E -1967.122697368862
  C      -2.985355      1.879609      1.671559
  C      -1.846353      2.632818      1.417919
  C      -0.627402      2.281670      2.000700
  C      -0.559152      1.159376      2.829980
  C      -1.698273      0.408454      3.080921
  C      -2.913813      0.766997      2.503199
  H      -3.927936      2.162766      1.221580
  H      -3.800417      0.178040      2.699046
  H      -1.901033      3.499964      0.771279
  H       0.383819      0.854209      3.268080
  H      -1.637552     -0.461041      3.722315
  C       0.553815      3.128619      1.730113
  N       1.490906      3.332344      2.778709
  H       1.299097      2.855507      3.648818
  H       1.796751      4.287015      2.907248
  H       0.342712      4.031260      1.173495
  H       1.090856      2.366181      0.302773
  Cu      2.361792      2.270673      1.185306
18
Coordinates from ORCA-job ./orca E -1967.122717842699
  C      -2.985883      1.880326      1.672587
  C      -1.846797      2.633186      1.418235
  C      -0.627555      2.281383      1.999884
  C      -0.558922      1.158658      2.828516
  C      -1.698123      0.408088      3.080208
  C      -2.914048      0.767347      2.503732
  H      -3.928725      2.164003      1.223488
  H      -3.800687      0.178609      2.700058
  H      -1.901725      3.500637      0.772022
  H       0.384299      0.852942      3.265698
  H      -1.637123     -0.461711      3.721172
  C       0.553915      3.128041      1.729022
  N       1.490598      3.332959      2.778512
  H       1.297374      2.856920      3.648765
  H       1.794592      4.288249      2.906933
  H       0.341927      4.030605      1.172576
  H       1.093981      2.363618      0.303887
  Cu      2.365362      2.270599      1.187744
18
Coordinates from ORCA-job ./orca E -1967.122708119055
  C      -2.986814      1.881736      1.674618
  C      -1.847522      2.633917      1.419014
  C      -0.627748      2.280566      1.998466
  C      -0.558541      1.156988      2.825984
  C      -1.697919      0.407174      3.078934
  C      -2.914519      0.768031      2.504751
  H      -3.930118      2.166488      1.227177
  H      -3.801328      0.179840      2.701967
  H      -1.902808      3.501908      0.773571
  H       0.385174      0.850165      3.261303
  H      -1.636539     -0.463284      3.718967
  C       0.553673      3.126851      1.727600
  N       1.490242      3.334089      2.777983
  H       1.294036      2.860202      3.648851
  H       1.790398      4.290743      2.905837
  H       0.340345      4.028131      1.169592
  H       1.100142      2.361327      0.305500
  Cu      2.372304      2.269587      1.192927
18
Coordinates from ORCA-job ./orca E -1967.122723039268
  C      -2.987112      1.882534      1.675551
  C      -1.847803      2.634613      1.419595
  C      -0.627745      2.280469      1.998032
  C      -0.558227      1.156193      2.824754
  C      -1.697578      0.406555      3.077973
  C      -2.914493      0.768280      2.504867
  H      -3.930653      2.167805      1.228953
  H      -3.801350      0.180236      2.702299
  H      -1.903316      3.502999      0.774707
  H       0.385818      0.848939      3.259051
  H      -1.636024     -0.464429      3.717269
  C       0.553040      3.126928      1.727687
  N       1.490404      3.334804      2.777437
  H       1.292525      2.862660      3.648949
  H       1.788563      4.292222      2.904775
  H       0.339649      4.026850      1.167601
  H       1.101150      2.358580      0.307743
  Cu      2.375610      2.268221      1.195800
18
Coordinates from ORCA-job ./orca E -1967.122708248747
  C      -2.987166      1.882455      1.675601
  C      -1.847956      2.634791      1.419914
  C      -0.627831      2.280621      1.998375
  C      -0.558373      1.156254      2.825134
  C      -1.697585      0.406428      3.078022
  C      -2.914466      0.768123      2.504732
  H      -3.930705      2.167631      1.228945
  H      -3.801286      0.179947      2.701960
  H      -1.903521      3.503225      0.775107
  H       0.385796      0.849259      3.259348
  H      -1.636081     -0.464670      3.717156
  C       0.552382      3.127333      1.728317
  N       1.490815      3.334354      2.776777
  H       1.292158      2.863110      3.648679
  H       1.788573      4.291947      2.904238
  H       0.340060      4.026429      1.166585
  H       1.100983      2.360569      0.307706
  Cu      2.376665      2.266651      1.196445
18
Coordinates from ORCA-job ./orca E -1967.122714117963
  C      -2.986973      1.881907      1.674878
  C      -1.847963      2.634713      1.419759
  C      -0.627960      2.281237      1.999036
  C      -0.558582      1.157086      2.826132
  C      -1.697571      0.406764      3.078398
  C      -2.914251      0.767751      2.504226
  H      -3.930386      2.166569      1.227624
  H      -3.800909      0.179174      2.701000
  H      -1.903522      3.503006      0.774768
  H       0.385526      0.850734      3.260933
  H      -1.636128     -0.464175      3.717748
  C       0.551902      3.128290      1.729129
  N       1.491357      3.333571      2.776394
  H       1.293233      2.862113      3.648309
  H       1.790143      4.290786      2.904431
  H       0.340714      4.027661      1.167483
  H       1.098291      2.361270      0.307804
  Cu      2.375541      2.266004      1.194992
18
Coordinates from ORCA-job ./orca E -1967.123062360092
  C      -2.986427      1.881512      1.673948
  C      -1.847243      2.633917      1.418420
  C      -0.627326      2.280487      1.997907
  C      -0.558216      1.156793      2.825646
  C      -1.697378      0.406870      3.078318
  C      -2.913968      0.767807      2.503924
  H      -3.929770      2.166138      1.226523
  H      -3.800762      0.179541      2.701018
  H      -1.902598      3.501862      0.772943
  H       0.385815      0.850475      3.260637
  H      -1.636142     -0.463720      3.718164
  C       0.552727      3.127134      1.727557
  N       1.492849      3.333035      2.775749
  H       1.295081      2.862205      3.648085
  H       1.792098      4.290169      2.903317
  H       0.341836      4.026278      1.165434
  H       1.088183      2.369022      0.321222
  Cu      2.373702      2.264936      1.194227
18
Coordinates from ORCA-job ./orca E -1967.123074670772
  C      -2.987065      1.881822      1.674842
  C      -1.848087      2.634597      1.419304
  C      -0.627696      2.280875      1.997522
  C      -0.558210      1.157025      2.824834
  C      -1.697248      0.406838      3.077847
  C      -2.914169      0.767788      2.504336
  H      -3.930697      2.166663      1.228130
  H      -3.800829      0.179446      2.701813
  H      -1.903913      3.502945      0.774393
  H       0.386067      0.850546      3.259202
  H      -1.635573     -0.463951      3.717399
  C       0.553653      3.126427      1.725002
  N       1.491876      3.332830      2.774984
  H       1.292116      2.862099      3.646803
  H       1.789495      4.290270      2.903172
  H       0.342321      4.027498      1.165929
  H       1.092685      2.365606      0.321499
  Cu      2.377733      2.265136      1.196030
18
Coordinates from ORCA-job ./orca E -1967.123084011726
  C      -2.988149      1.882620      1.676531
  C      -1.849063      2.634871      1.419779
  C      -0.628180      2.280593      1.996387
  C      -0.558146      1.156353      2.822902
  C      -1.697274      0.406570      3.077189
  C      -2.914755      0.768123      2.505383
  H      -3.932205      2.168126      1.231124
  H      -3.801380      0.180001      2.703660
  H      -1.905376      3.503689      0.775529
  H       0.386479      0.849275      3.256130
  H      -1.635105     -0.464442      3.716403
  C       0.554510      3.125124      1.722071
  N       1.490896      3.333073      2.774418
  H       1.288596      2.862861      3.645901
  H       1.785853      4.291244      2.903102
  H       0.342026      4.027618      1.165499
  H       1.099854      2.363218      0.321598
  Cu      2.383880      2.265543      1.199437
18
Coordinates from ORCA-job ./orca E -1967.123105919454
  C      -2.988710      1.883397      1.677630
  C      -1.849545      2.635285      1.420113
  C      -0.628352      2.280322      1.995505
  C      -0.557894      1.155603      2.821293
  C      -1.697096      0.406178      3.076382
  C      -2.914989      0.768492      2.505929
  H      -3.933046      2.169455      1.233180
  H      -3.801641      0.180593      2.704721
  H      -1.906133      3.504445      0.776340
  H       0.387001      0.847936      3.253519
  H      -1.634618     -0.465169      3.715112
  C       0.554602      3.124553      1.720899
  N       1.490583      3.333757      2.774193
  H       1.286796      2.864398      3.645806
  H       1.783572      4.292565      2.902720
  H       0.341197      4.026991      1.164544
  H       1.103020      2.360098      0.323018
  Cu      2.387712      2.265561      1.202135
18
Coordinates from ORCA-job ./orca E -1967.123096323614
  C      -2.989731      1.884862      1.679812
  C      -1.850360      2.636019      1.420933
  C      -0.628600      2.279423      1.993953
  C      -0.557543      1.153834      2.818588
  C      -1.696936      0.405233      3.075084
  C      -2.915532      0.769222      2.507084
  H      -3.934546      2.172045      1.237129
  H      -3.802359      0.181927      2.706867
  H      -1.907323      3.505736      0.777953
  H       0.387870      0.844987      3.248814
  H      -1.634052     -0.466788      3.712856
  C       0.554356      3.123218      1.719278
  N       1.490183      3.334852      2.773592
  H       1.283209      2.867713      3.645760
  H       1.779058      4.295065      2.901539
  H       0.339603      4.024363      1.161348
  H       1.109865      2.358035      0.324599
  Cu      2.395298      2.264715      1.207852
18
Coordinates from ORCA-job ./orca E -1967.123111678064
  C      -2.990066      1.885776      1.680869
  C      -1.850676      2.636784      1.421525
  C      -0.628592      2.279298      1.993373
  C      -0.557161      1.152929      2.817096
  C      -1.696529      0.404553      3.073968
  C      -2.915493      0.769532      2.507244
  H      -3.935159      2.173552      1.239173
  H      -3.802383      0.182432      2.707341
  H      -1.907905      3.506940      0.779175
  H       0.388626      0.843588      3.246137
  H      -1.633439     -0.468029      3.710943
  C       0.553642      3.123316      1.719326
  N       1.490320      3.335652      2.772999
  H       1.281516      2.870382      3.645819
  H       1.776931      4.296704      2.900384
  H       0.338819      4.022999      1.159169
  H       1.110916      2.354588      0.327303
  Cu      2.399093      2.263464      1.211195
18
Coordinates from ORCA-job ./orca E -1967.123097266875
  C      -2.990157      1.885723      1.680977
  C      -1.850852      2.636965      1.421858
  C      -0.628681      2.279407      1.993674
  C      -0.557303      1.152927      2.817413
  C      -1.696542      0.404394      3.073994
  C      -2.915495      0.769399      2.507160
  H      -3.935267      2.173442      1.239276
  H      -3.802363      0.182207      2.707111
  H      -1.908136      3.507179      0.779603
  H       0.388633      0.843816      3.246299
  H      -1.633503     -0.468315      3.710792
  C       0.552951      3.123683      1.719932
  N       1.490699      3.335195      2.772303
  H       1.281054      2.870881      3.645515
  H       1.776795      4.296454      2.899813
  H       0.339253      4.022472      1.158002
  H       1.110955      2.356692      0.327244
  Cu      2.400418      2.261940      1.212074
18
Coordinates from ORCA-job ./orca E -1967.123092867513
  C      -2.989971      1.885146      1.680237
  C      -1.850864      2.636863      1.421701
  C      -0.628812      2.280010      1.994356
  C      -0.557530      1.153767      2.818469
  C      -1.696549      0.404745      3.074421
  C      -2.915297      0.769021      2.506664
  H      -3.934952      2.172335      1.237909
  H      -3.802005      0.181427      2.706152
  H      -1.908135      3.506918      0.779237
  H       0.388348      0.845324      3.247962
  H      -1.633582     -0.467791      3.711460
  C       0.552462      3.124630      1.720748
  N       1.491225      3.334363      2.771904
  H       1.282158      2.869803      3.645136
  H       1.778401      4.295236      2.900051
  H       0.339956      4.023703      1.158882
  H       1.108313      2.357666      0.327184
  Cu      2.399295      2.261294      1.210567
18
Coordinates from ORCA-job ./orca E -1967.123561109876
  C      -2.989430      1.884759      1.679325
  C      -1.850151      2.636074      1.420379
  C      -0.628182      2.279259      1.993234
  C      -0.557163      1.153465      2.817983
  C      -1.696353      0.404843      3.074344
  C      -2.915014      0.769077      2.506373
  H      -3.934344      2.171917      1.236832
  H      -3.801857      0.181796      2.706183
  H      -1.907222      3.505787      0.777434
  H       0.388642      0.845051      3.247659
  H      -1.633589     -0.467350      3.711873
  C       0.553280      3.123473      1.719182
  N       1.492700      3.333820      2.771253
  H       1.283990      2.869882      3.644902
  H       1.780347      4.294613      2.898947
  H       0.341071      4.022322      1.156848
  H       1.098264      2.365464      0.340545
  Cu      2.397469      2.260209      1.209744
18
Coordinates from ORCA-job ./orca E -1967.123584016645
  C      -2.990071      1.885062      1.680201
  C      -1.851011      2.636785      1.421283
  C      -0.628572      2.279706      1.992877
  C      -0.557167      1.153736      2.817171
  C      -1.696218      0.404818      3.073845
  C      -2.915206      0.769043      2.506747
  H      -3.935268      2.172418      1.238413
  H      -3.801903      0.181658      2.706915
  H      -1.908561      3.506912      0.778928
  H       0.388881      0.845180      3.246235
  H      -1.633008     -0.467580      3.711067
  C       0.554203      3.122792      1.716583
  N       1.491770      3.333624      2.770447
  H       1.281099      2.869769      3.643553
  H       1.777799      4.294699      2.898747
  H       0.341513      4.023647      1.157419
  H       1.102644      2.361717      0.341009
  Cu      2.401535      2.260474      1.211600
18
Coordinates from ORCA-job ./orca E -1967.123584416347
  C      -2.991197      1.885835      1.681918
  C      -1.852030      2.637014      1.421743
  C      -0.629096      2.279383      1.991709
  C      -0.557160      1.153047      2.815242
  C      -1.696299      0.404555      3.073229
  C      -2.915840      0.769377      2.507849
  H      -3.936817      2.173855      1.241455
  H      -3.802498      0.182231      2.708853
  H      -1.910068      3.507607      0.780045
  H       0.389231      0.843903      3.243164
  H      -1.632608     -0.468038      3.710141
  C       0.555071      3.121402      1.713557
  N       1.490792      3.333801      2.769851
  H       1.277557      2.870432      3.642565
  H       1.774141      4.295579      2.898654
  H       0.341252      4.023703      1.156917
  H       1.110162      2.359806      0.340943
  Cu      2.407867      2.260969      1.215205
18
Coordinates from ORCA-job ./orca E -1967.123588084876
  C      -2.991798      1.886704      1.683120
  C      -1.852552      2.637472      1.422073
  C      -0.629280      2.279110      1.990693
  C      -0.556857      1.152233      2.813390
  C      -1.696065      0.404125      3.072279
  C      -2.916064      0.769786      2.508425
  H      -3.937732      2.175345      1.243748
  H      -3.802747      0.182881      2.710017
  H      -1.910902      3.508455      0.780924
  H       0.389833      0.842468      3.240205
  H      -1.632027     -0.468837      3.708661
  C       0.555149      3.120843      1.712274
  N       1.490427      3.334588      2.769607
  H       1.275626      2.872125      3.642430
  H       1.771670      4.297022      2.898213
  H       0.340365      4.023114      1.155910
  H       1.113379      2.355903      0.342796
  Cu      2.412035      2.261125      1.218274
18
Coordinates from ORCA-job ./orca E -1967.123595476018
  C      -2.992961      1.888321      1.685589
  C      -1.853484      2.638235      1.422945
  C      -0.629575      2.278055      1.988843
  C      -0.556468      1.150246      2.810250
  C      -1.695894      0.403090      3.070827
  C      -2.916695      0.770628      2.509811
  H      -3.939442      2.178245      1.248258
  H      -3.803580      0.184449      2.712634
  H      -1.912259      3.509845      0.782689
  H       0.390810      0.839166      3.234785
  H      -1.631400     -0.470590      3.706187
  C       0.554907      3.119271      1.710307
  N       1.489804      3.335758      2.768956
  H       1.271495      2.875649      3.642258
  H       1.766543      4.299655      2.896910
  H       0.338763      4.020204      1.152288
  H       1.121296      2.353746      0.344511
  Cu      2.420599      2.260486      1.224991
18
Coordinates from ORCA-job ./orca E -1967.123614748501
  C      -2.993383      1.889445      1.686942
  C      -1.853854      2.639072      1.423596
  C      -0.629542      2.277776      1.987994
  C      -0.556000      1.149076      2.808341
  C      -1.695423      0.402266      3.069495
  C      -2.916683      0.771045      2.510120
  H      -3.940211      2.180138      1.250882
  H      -3.803667      0.185182      2.713445
  H      -1.912935      3.511192      0.784083
  H       0.391722      0.837341      3.231380
  H      -1.630692     -0.472065      3.703926
  C       0.554139      3.119256      1.710196
  N       1.489727      3.336762      2.768328
  H       1.269330      2.878742      3.642320
  H       1.763874      4.301606      2.895564
  H       0.337990      4.018487      1.149555
  H       1.122934      2.349801      0.347612
  Cu      2.425135      2.259339      1.229259
18
Coordinates from ORCA-job ./orca E -1967.123599983830
  C      -2.993523      1.889537      1.687243
  C      -1.854064      2.639341      1.424010
  C      -0.629599      2.277814      1.988162
  C      -0.556071      1.148890      2.808389
  C      -1.695380      0.401992      3.069345
  C      -2.916688      0.770977      2.510099
  H      -3.940418      2.180290      1.251369
  H      -3.803668      0.185088      2.713363
  H      -1.913235      3.511583      0.784689
  H       0.391861      0.837289      3.231061
  H      -1.630676     -0.472547      3.703476
  C       0.553404      3.119599      1.710734
  N       1.489937      3.336486      2.767593
  H       1.268574      2.879598      3.642029
  H       1.763397      4.301604      2.894844
  H       0.338505      4.017743      1.147979
  H       1.123191      2.351319      0.347902
  Cu      2.426913      2.257856      1.230753
18
Coordinates from ORCA-job ./orca E -1967.123596325061
  C      -2.993384      1.888983      1.686573
  C      -1.854117      2.639266      1.423918
  C      -0.629742      2.278388      1.988839
  C      -0.556307      1.149676      2.809412
  C      -1.695402      0.402306      3.069756
  C      -2.916526      0.770606      2.509642
  H      -3.940164      2.179225      1.250102
  H      -3.803355      0.184326      2.712454
  H      -1.913282      3.511369      0.784411
  H       0.391598      0.838723      3.232628
  H      -1.630762     -0.472084      3.704095
  C       0.552921      3.120481      1.711490
  N       1.490392      3.335692      2.767173
  H       1.269582      2.878615      3.641662
  H       1.764917      4.300444      2.895051
  H       0.339288      4.018845      1.148659
  H       1.120831      2.352428      0.347745
  Cu      2.425973      2.257171      1.229430
18
Coordinates from ORCA-job ./orca E -1967.124184261954
  C      -2.992846      1.888604      1.685680
  C      -1.853408      2.638485      1.422613
  C      -0.629114      2.277635      1.987726
  C      -0.555937      1.149364      2.808928
  C      -1.695202      0.402395      3.069682
  C      -2.916241      0.770662      2.509363
  H      -3.939560      2.178822      1.249051
  H      -3.803203      0.184695      2.712498
  H      -1.912376      3.510252      0.782629
  H       0.391896      0.838432      3.232321
  H      -1.630761     -0.471658      3.704506
  C       0.553735      3.119320      1.709932
  N       1.491848      3.335141      2.766518
  H       1.271395      2.878682      3.641419
  H       1.766854      4.299814      2.893960
  H       0.340398      4.017466      1.146642
  H       1.110818      2.360283      0.361026
  Cu      2.424165      2.256064      1.228547
18
Coordinates from ORCA-job ./orca E -1967.124208149373
  C      -2.993493      1.888891      1.686534
  C      -1.854289      2.639229      1.423554
  C      -0.629536      2.278147      1.987425
  C      -0.555968      1.149676      2.808135
  C      -1.695077      0.402381      3.069169
  C      -2.916431      0.770603      2.509693
  H      -3.940481      2.179275      1.250579
  H      -3.803231      0.184500      2.713150
  H      -1.913741      3.511415      0.784174
  H       0.392111      0.838627      3.230926
  H      -1.630184     -0.471885      3.703671
  C       0.554656      3.118650      1.707299
  N       1.490977      3.334953      2.765665
  H       1.268613      2.878563      3.640007
  H       1.764394      4.299882      2.893684
  H       0.340808      4.018870      1.147270
  H       1.115086      2.356302      0.361650
  Cu      2.428246      2.256380      1.230455
18
Coordinates from ORCA-job ./orca E -1967.124208019135
  C      -2.994650      1.889620      1.688243
  C      -1.855343      2.639411      1.424001
  C      -0.630106      2.277795      1.986244
  C      -0.556031      1.149002      2.806249
  C      -1.695220      0.402133      3.068617
  C      -2.917113      0.770918      2.510821
  H      -3.942051      2.180659      1.253607
  H      -3.803878      0.185064      2.715140
  H      -1.915277      3.512057      0.785278
  H       0.392380      0.837416      3.227936
  H      -1.629860     -0.472286      3.702871
  C       0.555530      3.117169      1.704194
  N       1.490024      3.335029      2.765026
  H       1.265127      2.879056      3.638907
  H       1.760753      4.300619      2.893572
  H       0.340575      4.018875      1.146740
  H       1.122878      2.354931      0.361386
  Cu      2.434724      2.256993      1.234208
18
Coordinates from ORCA-job ./orca E -1967.124212720885
  C      -2.995307      1.890592      1.689581
  C      -1.855917      2.639894      1.424280
  C      -0.630303      2.277499      1.985020
  C      -0.555666      1.148108      2.804084
  C      -1.694920      0.401675      3.067517
  C      -2.917331      0.771393      2.511477
  H      -3.943071      2.182334      1.256216
  H      -3.804116      0.185827      2.716509
  H      -1.916218      3.512985      0.786190
  H       0.393085      0.835863      3.224520
  H      -1.629167     -0.473133      3.701201
  C       0.555608      3.116602      1.702735
  N       1.489553      3.335900      2.764772
  H       1.262976      2.880839      3.638707
  H       1.757997      4.302167      2.893127
  H       0.339650      4.018339      1.145661
  H       1.126257      2.350196      0.363703
  Cu      2.439350      2.257381      1.237742
18
Coordinates from ORCA-job ./orca E -1967.124223642099
  C      -2.996574      1.892345      1.692292
  C      -1.856926      2.640639      1.425118
  C      -0.630621      2.276288      1.982855
  C      -0.555243      1.145941      2.800560
  C      -1.694737      0.400591      3.065947
  C      -2.918021      0.772361      2.513085
  H      -3.944938      2.185503      1.261215
  H      -3.805019      0.187637      2.719571
  H      -1.917688      3.514389      0.787968
  H       0.394151      0.832260      3.218457
  H      -1.628496     -0.474958      3.698563
  C       0.555382      3.114850      1.700463
  N       1.488678      3.337121      2.764100
  H       1.258442      2.884377      3.638387
  H       1.752345      4.304863      2.891799
  H       0.338108      4.015250      1.141723
  H       1.134920      2.347817      0.365614
  Cu      2.448696      2.257185      1.245325
18
Coordinates from ORCA-job ./orca E -1967.124244509079
  C      -2.997163      1.893755      1.694108
  C      -1.857409      2.641558      1.425885
  C      -0.630584      2.275731      1.981598
  C      -0.554688      1.144345      2.798035
  C      -1.694240      0.399563      3.064347
  C      -2.918108      0.772959      2.513690
  H      -3.945968      2.187955      1.264726
  H      -3.805267      0.188758      2.720993
  H      -1.918525      3.515920      0.789625
  H       0.395253      0.829755      3.213977
  H      -1.627723     -0.476750      3.695864
  C       0.554554      3.114543      1.700019
  N       1.488290      3.338358      2.763376
  H       1.255530      2.887993      3.638360
  H       1.748721      4.307218      2.890199
  H       0.337302      4.012909      1.138124
  H       1.137847      2.343600      0.369064
  Cu      2.454638      2.256291      1.251048
18
Coordinates from ORCA-job ./orca E -1967.124227725729
  C      -2.997347      1.894000      1.694592
  C      -1.857650      2.641927      1.426391
  C      -0.630614      2.275703      1.981633
  C      -0.554685      1.143984      2.797801
  C      -1.694137      0.399186      3.064021
  C      -2.918116      0.772964      2.513736
  H      -3.946259      2.188366      1.265564
  H      -3.805299      0.188803      2.721076
  H      -1.918874      3.516468      0.790417
  H       0.395525      0.829421      3.213147
  H      -1.627630     -0.477417      3.695129
  C       0.553759      3.114850      1.700476
  N       1.488329      3.338258      2.762590
  H       1.254531      2.889140      3.638045
  H       1.747875      4.307454      2.889348
  H       0.337873      4.011946      1.136140
  H       1.138257      2.344412      0.369758
  Cu      2.456922      2.254995      1.253176
18
Coordinates from ORCA-job ./orca E -1967.124233607033
  C      -2.997258      1.893488      1.693998
  C      -1.857743      2.641894      1.426385
  C      -0.630774      2.276257      1.982337
  C      -0.554935      1.144713      2.798807
  C      -1.694177      0.399442      3.064392
  C      -2.917991      0.772585      2.513282
  H      -3.946070      2.187380      1.264412
  H      -3.805031      0.188036      2.720158
  H      -1.918964      3.516328      0.790269
  H       0.395278      0.830775      3.214632
  H      -1.627731     -0.477053      3.695651
  C       0.553250      3.115686      1.701200
  N       1.488752      3.337529      2.762103
  H       1.255516      2.888301      3.637667
  H       1.749295      4.306400      2.889465
  H       0.338711      4.012900      1.136604
  H       1.136077      2.345492      0.369608
  Cu      2.456257      2.254308      1.252069
18
Coordinates from ORCA-job ./orca E -1967.124944245491
  C      -2.996720      1.893118      1.693124
  C      -1.857037      2.641120      1.425098
  C      -0.630145      2.275501      1.981234
  C      -0.554561      1.144390      2.798327
  C      -1.693970      0.399522      3.064323
  C      -2.917703      0.772642      2.513015
  H      -3.945468      2.186994      1.263386
  H      -3.804875      0.188407      2.720214
  H      -1.918064      3.515225      0.788511
  H       0.395582      0.830466      3.214322
  H      -1.627721     -0.476643      3.696061
  C       0.554062      3.114522      1.699653
  N       1.490188      3.336969      2.761446
  H       1.257303      2.888352      3.637417
  H       1.751223      4.305763      2.888394
  H       0.339817      4.011523      1.134607
  H       1.126077      2.353412      0.382787
  Cu      2.454472      2.253176      1.251121
18
Coordinates from ORCA-job ./orca E -1967.124969139565
  C      -2.997370      1.893361      1.693916
  C      -1.857937      2.641887      1.426064
  C      -0.630603      2.276092      1.981008
  C      -0.554633      1.144775      2.797604
  C      -1.693868      0.399537      3.063831
  C      -2.917897      0.772546      2.513288
  H      -3.946375      2.187348      1.264789
  H      -3.804887      0.188122      2.720750
  H      -1.919446      3.516402      0.790075
  H       0.395745      0.830789      3.213059
  H      -1.627168     -0.476828      3.695260
  C       0.554978      3.113875      1.697002
  N       1.489416      3.336742      2.760533
  H       1.254721      2.888136      3.635914
  H       1.748908      4.305755      2.888064
  H       0.340182      4.013051      1.135357
  H       1.130167      2.349289      0.383537
  Cu      2.458527      2.253580      1.252990
18
Coordinates from ORCA-job ./orca E -1967.124967810209
  C      -2.998536      1.893997      1.695556
  C      -1.859000      2.641965      1.426439
  C      -0.631212      2.275694      1.979825
  C      -0.554786      1.144137      2.795832
  C      -1.694106      0.399355      3.063419
  C      -2.918629      0.772854      2.514456
  H      -3.947925      2.188595      1.267683
  H      -3.805581      0.188700      2.722802
  H      -1.920965      3.516905      0.791059
  H       0.395892      0.829686      3.210287
  H      -1.626979     -0.477081      3.694712
  C       0.555847      3.112316      1.693849
  N       1.488519      3.336625      2.759848
  H       1.251403      2.888246      3.634662
  H       1.745328      4.306238      2.888026
  H       0.339954      4.013074      1.134910
  H       1.138148      2.348708      0.382951
  Cu      2.465089      2.254444      1.256725
18
Coordinates from ORCA-job ./orca E -1967.124973261118
  C      -2.999217      1.894986      1.696901
  C      -1.859605      2.642420      1.426628
  C      -0.631441      2.275406      1.978485
  C      -0.554422      1.143270      2.793554
  C      -1.693794      0.398932      3.062279
  C      -2.918846      0.773351      2.515125
  H      -3.948980      2.190295      1.270350
  H      -3.805810      0.189490      2.724240
  H      -1.921953      3.517807      0.791894
  H       0.396589      0.828190      3.206763
  H      -1.626263     -0.477862      3.693042
  C       0.555898      3.111789      1.692294
  N       1.488091      3.337458      2.759544
  H       1.249372      2.889839      3.634323
  H       1.742500      4.307732      2.887645
  H       0.338922      4.012714      1.133988
  H       1.141400      2.343420      0.385610
  Cu      2.470020      2.255223      1.260376
18
Coordinates from ORCA-job ./orca E -1967.124985206216
  C      -3.000464      1.896618      1.699441
  C      -1.860611      2.643025      1.427274
  C      -0.631816      2.274194      1.976276
  C      -0.554087      1.141244      2.790153
  C      -1.693697      0.397993      3.060871
  C      -2.919566      0.774334      2.516759
  H      -3.950783      2.193259      1.275076
  H      -3.806740      0.191332      2.727374
  H      -1.923376      3.518972      0.793345
  H       0.397506      0.824828      3.200978
  H      -1.625726     -0.479420      3.690740
  C       0.555596      3.110070      1.690001
  N       1.487366      3.338383      2.758798
  H       1.245347      2.892603      3.633710
  H       1.736936      4.310028      2.886552
  H       0.337248      4.009898      1.130451
  H       1.149737      2.341263      0.387481
  Cu      2.479592      2.255835      1.267762
18
Coordinates from ORCA-job ./orca E -1967.124993019487
  C      -3.001182      1.898080      1.701391
  C      -1.861202      2.643890      1.428024
  C      -0.631875      2.273471      1.974857
  C      -0.553626      1.139529      2.787532
  C      -1.693335      0.396975      3.059353
  C      -2.919800      0.775041      2.517580
  H      -3.951939      2.195807      1.278787
  H      -3.807165      0.192676      2.729163
  H      -1.924288      3.520381      0.794896
  H       0.398522      0.822085      3.196247
  H      -1.625120     -0.481179      3.688146
  C       0.554600      3.109556      1.689385
  N       1.487104      3.339393      2.757839
  H       1.242498      2.895833      3.633318
  H       1.732743      4.312266      2.884950
  H       0.336134      4.007286      1.126643
  H       1.153441      2.337715      0.390818
  Cu      2.486948      2.255655      1.274109
18
Coordinates from ORCA-job ./orca E -1967.124993203528
  C      -3.001380      1.898262      1.701771
  C      -1.861465      2.644238      1.428503
  C      -0.631950      2.273492      1.974989
  C      -0.553695      1.139248      2.787448
  C      -1.693309      0.396659      3.059117
  C      -2.919844      0.775032      2.517586
  H      -3.952217      2.196089      1.279415
  H      -3.807234      0.192695      2.729170
  H      -1.924631      3.520867      0.795595
  H       0.398687      0.821846      3.195642
  H      -1.625135     -0.481749      3.687546
  C       0.553671      3.109930      1.689921
  N       1.487368      3.339121      2.756879
  H       1.241941      2.896608      3.632770
  H       1.731901      4.312353      2.884143
  H       0.336520      4.006443      1.124852
  H       1.153525      2.338507      0.391574
  Cu      2.489706      2.254817      1.276119
18
Coordinates from ORCA-job ./orca E -1967.124998581143
  C      -3.001317      1.897677      1.701094
  C      -1.861592      2.644162      1.428471
  C      -0.632144      2.274080      1.975784
  C      -0.554012      1.140048      2.788614
  C      -1.693414      0.396964      3.059585
  C      -2.919760      0.774629      2.517109
  H      -3.952037      2.194967      1.278089
  H      -3.807001      0.191883      2.728185
  H      -1.924743      3.520658      0.795388
  H       0.398352      0.823322      3.197386
  H      -1.625324     -0.481300      3.688219
  C       0.553078      3.110822      1.690701
  N       1.487932      3.338228      2.756261
  H       1.243193      2.895492      3.632257
  H       1.733369      4.311157      2.884335
  H       0.337314      4.007512      1.125440
  H       1.151232      2.339876      0.391285
  Cu      2.489335      2.254283      1.274837
18
Coordinates from ORCA-job ./orca E -1967.124999428007
  C      -3.001224      1.896800      1.700021
  C      -1.861699      2.643775      1.428023
  C      -0.632445      2.274706      1.976539
  C      -0.554429      1.141201      2.790085
  C      -1.693638      0.397610      3.060443
  C      -2.919724      0.774207      2.516675
  H      -3.951760      2.193342      1.276080
  H      -3.806787      0.191015      2.727273
  H      -1.924781      3.519947      0.794483
  H       0.397782      0.825292      3.199853
  H      -1.625630     -0.480245      3.689653
  C       0.552674      3.111645      1.691316
  N       1.488584      3.336966      2.755921
  H       1.245149      2.893187      3.631736
  H       1.735441      4.309361      2.885228
  H       0.337804      4.009286      1.127242
  H       1.148887      2.342038      0.390216
  Cu      2.488258      2.254328      1.272253
18
Coordinates from ORCA-job ./orca E -1967.125851970233
  C      -3.000688      1.896440      1.699166
  C      -1.860997      2.643010      1.426753
  C      -0.631818      2.273952      1.975445
  C      -0.554051      1.140871      2.789606
  C      -1.693426      0.397684      3.060377
  C      -2.919432      0.774265      2.516420
  H      -3.951162      2.192972      1.275080
  H      -3.806625      0.191389      2.727343
  H      -1.923889      3.518859      0.792748
  H       0.398092      0.824969      3.199536
  H      -1.625610     -0.479847      3.690060
  C       0.553484      3.110482      1.689777
  N       1.489997      3.336397      2.755258
  H       1.246905      2.893221      3.631474
  H       1.737356      4.308716      2.884175
  H       0.338905      4.007914      1.125261
  H       1.138919      2.349999      0.403326
  Cu      2.486501      2.253166      1.271236
18
Coordinates from ORCA-job ./orca E -1967.125877604989
  C      -3.001349      1.896836      1.700081
  C      -1.861866      2.643812      1.427700
  C      -0.632247      2.274448      1.975065
  C      -0.554054      1.141069      2.788602
  C      -1.693300      0.397613      3.059720
  C      -2.919641      0.774277      2.516760
  H      -3.952104      2.193595      1.276746
  H      -3.806688      0.191314      2.728058
  H      -1.925227      3.520086      0.794315
  H       0.398311      0.824898      3.197839
  H      -1.625018     -0.480176      3.689013
  C       0.554407      3.109701      1.687047
  N       1.489228      3.336421      2.754415
  H       1.244341      2.893297      3.630050
  H       1.734764      4.309043      2.883671
  H       0.338862      4.009211      1.125917
  H       1.143205      2.345158      0.404542
  Cu      2.490837      2.253857      1.273501
18
Coordinates from ORCA-job ./orca E -1967.125877847693
  C      -3.002603      1.897592      1.701920
  C      -1.862949      2.643849      1.428112
  C      -0.632868      2.273782      1.973678
  C      -0.554260      1.140172      2.786639
  C      -1.693682      0.397358      3.059331
  C      -2.920530      0.774711      2.518150
  H      -3.953747      2.195103      1.279972
  H      -3.807620      0.192204      2.730521
  H      -1.926720      3.520524      0.795306
  H       0.398356      0.823301      3.194786
  H      -1.624994     -0.480495      3.688506
  C       0.555411      3.107663      1.683576
  N       1.488322      3.336335      2.753752
  H       1.240836      2.893349      3.628692
  H       1.730559      4.309682      2.883475
  H       0.338154      4.008684      1.125261
  H       1.152571      2.345433      0.403564
  Cu      2.498223      2.255213      1.277799
18
Coordinates from ORCA-job ./orca E -1967.125883067144
  C      -3.003226      1.898705      1.703308
  C      -1.863463      2.644333      1.428255
  C      -0.633021      2.273429      1.972234
  C      -0.553837      1.139169      2.784170
  C      -1.693345      0.396866      3.058048
  C      -2.920713      0.775266      2.518777
  H      -3.954739      2.197014      1.282764
  H      -3.807844      0.193108      2.731936
  H      -1.927597      3.521481      0.796131
  H       0.399069      0.821551      3.191049
  H      -1.624266     -0.481380      3.686639
  C       0.555462      3.107162      1.682113
  N       1.488021      3.337404      2.753513
  H       1.239038      2.895140      3.628408
  H       1.727607      4.311473      2.882936
  H       0.336736      4.008190      1.124328
  H       1.155391      2.339121      0.406878
  Cu      2.503186      2.256427      1.281552
18
Coordinates from ORCA-job ./orca E -1967.125894610105
  C      -3.004167      1.900184      1.705438
  C      -1.864170      2.644889      1.428811
  C      -0.633235      2.272313      1.970341
  C      -0.553536      1.137321      2.781241
  C      -1.693280      0.396006      3.056779
  C      -2.921289      0.776165      2.520103
  H      -3.956112      2.199688      1.286739
  H      -3.808638      0.194794      2.734483
  H      -1.928596      3.522503      0.797347
  H       0.399795      0.818457      3.186126
  H      -1.623880     -0.482804      3.684549
  C       0.555159      3.105731      1.680402
  N       1.487657      3.338346      2.752908
  H       1.236019      2.897554      3.627886
  H       1.722761      4.313650      2.881810
  H       0.334864      4.005515      1.121240
  H       1.161790      2.336614      0.408992
  Cu      2.511318      2.257533      1.287844
18
Coordinates from ORCA-job ./orca E -1967.125905519910
  C      -3.005057      1.901842      1.707758
  C      -1.864885      2.645823      1.429794
  C      -0.633360      2.271321      1.968752
  C      -0.553193      1.135283      2.778388
  C      -1.693088      0.394847      3.055243
  C      -2.921724      0.777008      2.521196
  H      -3.957459      2.202613      1.291026
  H      -3.809326      0.196424      2.736674
  H      -1.929628      3.524007      0.799178
  H       0.400728      0.815196      3.180888
  H      -1.623455     -0.484775      3.681835
  C       0.554059      3.104797      1.679498
  N       1.487579      3.339226      2.751609
  H       1.232758      2.900836      3.627074
  H       1.717492      4.316022      2.879899
  H       0.333353      4.002080      1.116631
  H       1.166960      2.333993      0.412123
  Cu      2.520707      2.257918      1.295474
18
Coordinates from ORCA-job ./orca E -1967.125908931143
  C      -3.005369      1.901946      1.708120
  C      -1.865308      2.646169      1.430276
  C      -0.633574      2.271500      1.968946
  C      -0.553365      1.135217      2.778417
  C      -1.693110      0.394639      3.055086
  C      -2.921824      0.776930      2.521193
  H      -3.957855      2.202722      1.291583
  H      -3.809390      0.196258      2.736605
  H      -1.930190      3.524485      0.799882
  H       0.400813      0.815309      3.180458
  H      -1.623472     -0.485196      3.681366
  C       0.553132      3.105198      1.679766
  N       1.487995      3.338680      2.750426
  H       1.232290      2.901203      3.626203
  H       1.716648      4.315800      2.879274
  H       0.333811      4.001646      1.115123
  H       1.167137      2.334632      0.412781
  Cu      2.524091      2.257321      1.297536
18
Coordinates from ORCA-job ./orca E -1967.125806385565
  C      -3.005477      1.901149      1.707317
  C      -1.865683      2.646016      1.430148
  C      -0.633979      2.272284      1.969808
  C      -0.553832      1.136333      2.779817
  C      -1.693280      0.395133      3.055765
  C      -2.921818      0.776435      2.520740
  H      -3.957866      2.201210      1.290035
  H      -3.809163      0.195233      2.735636
  H      -1.930628      3.524152      0.799516
  H       0.400383      0.817375      3.182541
  H      -1.623685     -0.484448      3.682401
  C       0.552315      3.106264      1.680372
  N       1.488727      3.337207      2.749427
  H       1.233699      2.899355      3.625254
  H       1.718243      4.313959      2.879845
  H       0.334879      4.003326      1.116027
  H       1.164939      2.336704      0.412108
  Cu      2.524686      2.256775      1.296281
18
Coordinates from ORCA-job ./orca E -1967.125920989200
  C      -3.005489      1.900131      1.706107
  C      -1.865938      2.645537      1.429535
  C      -0.634411      2.273039      1.970565
  C      -0.554319      1.137695      2.781406
  C      -1.693536      0.395914      3.056733
  C      -2.921830      0.775971      2.520311
  H      -3.957702      2.199316      1.287806
  H      -3.808953      0.194270      2.734767
  H      -1.930852      3.523295      0.798365
  H       0.399755      0.819683      3.185217
  H      -1.623993     -0.483179      3.684062
  C       0.551765      3.107243      1.680927
  N       1.489503      3.335655      2.748928
  H       1.235998      2.896589      3.624527
  H       1.720535      4.311773      2.881034
  H       0.335414      4.005611      1.118270
  H       1.162464      2.339023      0.410923
  Cu      2.524049      2.256893      1.293557
18
Coordinates from ORCA-job ./orca E -1967.126923688990
  C      -3.004954      1.899781      1.705272
  C      -1.865239      2.644783      1.428283
  C      -0.633784      2.272287      1.969479
  C      -0.553936      1.137360      2.780928
  C      -1.693316      0.395983      3.056670
  C      -2.921534      0.776033      2.520068
  H      -3.957108      2.198963      1.286833
  H      -3.808784      0.194647      2.734850
  H      -1.929967      3.522224      0.796654
  H       0.400072      0.819348      3.184894
  H      -1.623961     -0.482791      3.684466
  C       0.552571      3.106082      1.679395
  N       1.490890      3.335075      2.748260
  H       1.237716      2.896602      3.624252
  H       1.722436      4.311121      2.880001
  H       0.336510      4.004247      1.116304
  H       1.152522      2.347018      0.423965
  Cu      2.522326      2.255697      1.292468
18
Coordinates from ORCA-job ./orca E -1967.126938807595
  C      -3.005597      1.900096      1.706041
  C      -1.866112      2.645558      1.429169
  C      -0.634261      2.272850      1.969149
  C      -0.553980      1.137675      2.780031
  C      -1.693226      0.396004      3.056100
  C      -2.921744      0.776025      2.520358
  H      -3.958003      2.199411      1.288224
  H      -3.808838      0.194520      2.735486
  H      -1.931279      3.523355      0.798078
  H       0.400209      0.819434      3.183409
  H      -1.623411     -0.482975      3.683580
  C       0.553435      3.105344      1.676678
  N       1.490270      3.334990      2.747382
  H       1.235561      2.896342      3.622780
  H       1.720088      4.311313      2.879542
  H       0.336244      4.005743      1.117276
  H       1.156518      2.342150      0.425258
  Cu      2.526588      2.256624      1.294497
18
Coordinates from ORCA-job ./orca E -1967.126949376753
  C      -3.006837      1.900588      1.707562
  C      -1.867202      2.645417      1.429447
  C      -0.635001      2.272241      1.967977
  C      -0.554402      1.137051      2.778575
  C      -1.693812      0.395942      3.056072
  C      -2.922719      0.776374      2.521690
  H      -3.959544      2.200450      1.290796
  H      -3.809833      0.195263      2.737780
  H      -1.932688      3.523458      0.798706
  H       0.399920      0.818231      3.181218
  H      -1.623657     -0.482953      3.683649
  C       0.554362      3.103282      1.673300
  N       1.489703      3.334486      2.746646
  H       1.232900      2.895494      3.621228
  H       1.716410      4.311401      2.879508
  H       0.335284      4.005437      1.117175
  H       1.165736      2.343956      0.423551
  Cu      2.533840      2.258343      1.298158
18
Coordinates from ORCA-job ./orca E -1967.126954166045
  C      -3.007440      1.901522      1.708683
  C      -1.867731      2.645790      1.429414
  C      -0.635237      2.272029      1.966667
  C      -0.554106      1.136321      2.776428
  C      -1.693561      0.395602      3.054957
  C      -2.922906      0.776833      2.522175
  H      -3.960461      2.202016      1.293105
  H      -3.810018      0.195965      2.738923
  H      -1.933557      3.524217      0.799234
  H       0.400406      0.816879      3.178110
  H      -1.623029     -0.483586      3.682084
  C       0.554321      3.102980      1.671995
  N       1.489750      3.335341      2.746350
  H       1.231941      2.896686      3.620812
  H       1.714035      4.312855      2.879091
  H       0.333625      4.005354      1.116813
  H       1.167807      2.337736      0.426899
  Cu      2.538622      2.259921      1.301301
18
Coordinates from ORCA-job ./orca E -1967.126965960495
  C      -3.008253      1.902621      1.710205
  C      -1.868400      2.646192      1.429716
  C      -0.635548      2.271242      1.965179
  C      -0.554003      1.135040      2.774255
  C      -1.693618      0.395033      3.054036
  C      -2.923430      0.777532      2.523166
  H      -3.961585      2.203959      1.295979
  H      -3.810687      0.197223      2.740816
  H      -1.934454      3.524909      0.799950
  H       0.400745      0.814611      3.174553
  H      -1.622812     -0.484546      3.680585
  C       0.553840      3.101995      1.670731
  N       1.489961      3.335856      2.745651
  H       1.230452      2.897971      3.620086
  H       1.710383      4.314342      2.878203
  H       0.331491      4.003470      1.114786
  H       1.172390      2.335513      0.428907
  Cu      2.545989      2.261498      1.306235
18
Coordinates from ORCA-job ./orca E -1967.126981921133
  C      -3.009455      1.904261      1.712570
  C      -1.869464      2.647088      1.430635
  C      -0.635989      2.270258      1.963491
  C      -0.553964      1.133116      2.771485
  C      -1.693710      0.393979      3.052655
  C      -2.924150      0.778417      2.524413
  H      -3.963250      2.206837      1.300345
  H      -3.811643      0.198891      2.743201
  H      -1.935876      3.526297      0.801603
  H       0.401272      0.811338      3.169493
  H      -1.622607     -0.486367      3.678081
  C       0.552309      3.100968      1.669607
  N       1.490581      3.336182      2.743683
  H       1.228038      2.900223      3.618399
  H       1.704627      4.316294      2.876111
  H       0.328892      4.000010      1.110318
  H       1.178336      2.333603      0.432083
  Cu      2.558515      2.263063      1.314866
18
Coordinates from ORCA-job ./orca E -1967.126987452850
  C      -3.009964      1.904414      1.713106
  C      -1.870103      2.647459      1.431159
  C      -0.636342      2.270439      1.963550
  C      -0.554223      1.133036      2.771347
  C      -1.693803      0.393772      3.052473
  C      -2.924378      0.778373      2.524556
  H      -3.963902      2.207052      1.301246
  H      -3.811828      0.198793      2.743400
  H      -1.936735      3.526841      0.802417
  H       0.401290      0.811371      3.168798
  H      -1.622616     -0.486793      3.677571
  C       0.551250      3.101268      1.669516
  N       1.491015      3.335430      2.742126
  H       1.227432      2.900297      3.617064
  H       1.703309      4.315920      2.875394
  H       0.329151      3.999614      1.108662
  H       1.179307      2.334345      0.432747
  Cu      2.563601      2.262829      1.317906
18
Coordinates from ORCA-job ./orca E -1967.126986597927
  C      -3.010286      1.903678      1.712555
  C      -1.870734      2.647413      1.431186
  C      -0.636879      2.271284      1.964305
  C      -0.554733      1.134139      2.772532
  C      -1.693962      0.394226      3.053051
  C      -2.924452      0.777862      2.524218
  H      -3.964204      2.205627      1.300127
  H      -3.811650      0.197736      2.742637
  H      -1.937542      3.526692      0.802330
  H       0.400936      0.813448      3.170429
  H      -1.622720     -0.486147      3.678407
  C       0.550296      3.102319      1.669769
  N       1.491583      3.333842      2.740765
  H       1.228387      2.898530      3.615787
  H       1.704577      4.313986      2.875874
  H       0.330474      4.001344      1.109141
  H       1.177795      2.336365      0.432116
  Cu      2.565573      2.262114      1.317813
18
Coordinates from ORCA-job ./orca E -1967.126982184022
  C      -3.010397      1.902664      1.711430
  C      -1.871133      2.647031      1.430682
  C      -0.637406      2.272140      1.965058
  C      -0.555233      1.135572      2.774055
  C      -1.694175      0.395013      3.053972
  C      -2.924467      0.777352      2.523790
  H      -3.964179      2.203700      1.298014
  H      -3.811396      0.196646      2.741744
  H      -1.937972      3.525956      0.801334
  H       0.400379      0.815894      3.172910
  H      -1.622914     -0.484909      3.679960
  C       0.549678      3.103330      1.670163
  N       1.492259      3.332266      2.740156
  H       1.230497      2.895875      3.615057
  H       1.706971      4.311779      2.877067
  H       0.331227      4.003710      1.111189
  H       1.175467      2.338563      0.430911
  Cu      2.565255      2.261878      1.315549
18
Coordinates from ORCA-job ./orca E -1967.128181816864
  C      -3.009863      1.902325      1.710614
  C      -1.870438      2.646289      1.429447
  C      -0.636780      2.271393      1.963979
  C      -0.554845      1.135235      2.773576
  C      -1.693946      0.395080      3.053910
  C      -2.924166      0.777418      2.523559
  H      -3.963589      2.203363      1.297069
  H      -3.811221      0.197027      2.741841
  H      -1.937097      3.524903      0.799646
  H       0.400704      0.815553      3.172578
  H      -1.622869     -0.484529      3.680360
  C       0.550480      3.102174      1.668638
  N       1.493616      3.331674      2.739479
  H       1.232168      2.895862      3.614764
  H       1.708852      4.311119      2.876053
  H       0.332317      4.002359      1.109237
  H       1.165561      2.346575      0.443906
  Cu      2.563576      2.260640      1.314383
18
Coordinates from ORCA-job ./orca E -1967.128201991385
  C      -3.010497      1.902634      1.711347
  C      -1.871298      2.647048      1.430269
  C      -0.637254      2.271979      1.963618
  C      -0.554868      1.135547      2.772616
  C      -1.693836      0.395098      3.053290
  C      -2.924364      0.777424      2.523832
  H      -3.964468      2.203796      1.298426
  H      -3.811260      0.196923      2.742485
  H      -1.938398      3.526017      0.800998
  H       0.400870      0.815662      3.171033
  H      -1.622305     -0.484706      3.679438
  C       0.551315      3.101504      1.665908
  N       1.493029      3.331648      2.738604
  H       1.230200      2.895627      3.613269
  H       1.706612      4.311287      2.875584
  H       0.331969      4.003985      1.110354
  H       1.169257      2.341251      0.445502
  Cu      2.567757      2.261737      1.316467
18
Coordinates from ORCA-job ./orca E -1967.128205840456
  C      -3.011776      1.903049      1.712850
  C      -1.872424      2.646833      1.430562
  C      -0.638039      2.271306      1.962488
  C      -0.555394      1.134914      2.771305
  C      -1.694534      0.395035      3.053379
  C      -2.925422      0.777749      2.525222
  H      -3.966019      2.204731      1.300920
  H      -3.812346      0.197664      2.744851
  H      -1.939812      3.526006      0.801586
  H       0.400460      0.814483      3.169025
  H      -1.622700     -0.484656      3.679669
  C       0.552293      3.099285      1.662397
  N       1.492440      3.331044      2.737841
  H       1.227650      2.894593      3.611652
  H       1.703056      4.311167      2.875518
  H       0.331143      4.003562      1.110198
  H       1.178857      2.344146      0.443214
  Cu      2.575025      2.263548      1.320363
18
Coordinates from ORCA-job ./orca E -1967.128211018054
  C      -3.012379      1.904001      1.714022
  C      -1.872949      2.647182      1.430513
  C      -0.638272      2.271061      1.961134
  C      -0.555102      1.134140      2.769100
  C      -1.694272      0.394640      3.052200
  C      -2.925597      0.778172      2.525678
  H      -3.966947      2.206363      1.303355
  H      -3.812507      0.198317      2.745959
  H      -1.940688      3.526782      0.802163
  H       0.400945      0.813088      3.165839
  H      -1.622055     -0.485376      3.677995
  C       0.552248      3.098998      1.661114
  N       1.492419      3.332048      2.737588
  H       1.226760      2.896016      3.611354
  H       1.700914      4.312693      2.874963
  H       0.329647      4.003366      1.109598
  H       1.180736      2.337914      0.446627
  Cu      2.579561      2.265057      1.323838
18
Coordinates from ORCA-job ./orca E -1967.128224951817
  C      -3.013307      1.905435      1.715979
  C      -1.873740      2.647828      1.430972
  C      -0.638601      2.270267      1.959297
  C      -0.554852      1.132605      2.766206
  C      -1.694133      0.393822      3.050730
  C      -2.926060      0.778913      2.526685
  H      -3.968309      2.208913      1.307165
  H      -3.813078      0.199611      2.747980
  H      -1.941853      3.527941      0.803367
  H       0.401518      0.810365      3.161183
  H      -1.621491     -0.486815      3.675605
  C       0.551742      3.097996      1.659572
  N       1.492354      3.333171      2.736867
  H       1.224869      2.898326      3.610758
  H       1.697019      4.314803      2.873496
  H       0.327562      4.001167      1.106775
  H       1.185241      2.333485      0.449850
  Cu      2.587580      2.266627      1.330553
18
Coordinates from ORCA-job ./orca E -1967.128246590924
  C      -3.015116      1.908220      1.720114
  C      -1.875371      2.649451      1.432682
  C      -0.639189      2.268871      1.956404
  C      -0.554512      1.129534      2.761137
  C      -1.693901      0.391927      3.047904
  C      -2.926934      0.780132      2.528533
  H      -3.970965      2.213879      1.314951
  H      -3.814187      0.201855      2.751586
  H      -1.944239      3.530680      0.806738
  H       0.402641      0.805044      3.152334
  H      -1.620539     -0.490152      3.670647
  C       0.550271      3.096097      1.656897
  N       1.491902      3.334947      2.734490
  H       1.220034      2.903409      3.608931
  H       1.689007      4.318568      2.869525
  H       0.324911      3.995924      1.099291
  H       1.194366      2.327794      0.455200
  Cu      2.604281      2.268279      1.345677
18
Coordinates from ORCA-job ./orca E -1967.128256000320
  C      -3.016325      1.909515      1.722569
  C      -1.876646      2.650550      1.434152
  C      -0.639673      2.268526      1.955307
  C      -0.554529      1.128151      2.758766
  C      -1.693765      0.390827      3.046396
  C      -2.927429      0.780460      2.529440
  H      -3.972706      2.216200      1.319430
  H      -3.814693      0.202482      2.753264
  H      -1.946116      3.532557      0.809397
  H       0.403263      0.802861      3.147751
  H      -1.619959     -0.492131      3.667831
  C       0.549173      3.095411      1.655181
  N       1.491230      3.335353      2.732215
  H       1.216450      2.906245      3.607122
  H       1.684838      4.319868      2.866900
  H       0.325295      3.993477      1.094218
  H       1.199556      2.326187      0.457466
  Cu      2.614494      2.267920      1.355636
18
Coordinates from ORCA-job ./orca E -1967.128262829371
  C      -3.017276      1.909727      1.723728
  C      -1.877872      2.651161      1.435098
  C      -0.640304      2.268947      1.955099
  C      -0.554807      1.128133      2.758032
  C      -1.693681      0.390494      3.045832
  C      -2.927720      0.780226      2.529773
  H      -3.973991      2.216521      1.321445
  H      -3.814765      0.201988      2.753795
  H      -1.947885      3.533615      0.811052
  H       0.403538      0.803141      3.145957
  H      -1.619499     -0.492850      3.666667
  C       0.548182      3.095689      1.653916
  N       1.490604      3.334725      2.730145
  H       1.214470      2.906990      3.605404
  H       1.683748      4.319292      2.865793
  H       0.327206      3.993560      1.091527
  H       1.201778      2.326452      0.457959
  Cu      2.620734      2.266649      1.361818
18
Coordinates from ORCA-job ./orca E -1967.128261890334
  C      -3.017688      1.909154      1.723431
  C      -1.878555      2.651069      1.435002
  C      -0.640847      2.269601      1.955342
  C      -0.555126      1.129010      2.758551
  C      -1.693698      0.390893      3.046160
  C      -2.927803      0.779842      2.529678
  H      -3.974459      2.215416      1.320868
  H      -3.814587      0.201157      2.753568
  H      -1.948793      3.533449      0.810885
  H       0.403420      0.804808      3.146662
  H      -1.619331     -0.492271      3.667231
  C       0.547558      3.096424      1.653534
  N       1.490493      3.333686      2.729270
  H       1.214997      2.905688      3.604601
  H       1.685217      4.317741      2.866370
  H       0.328538      3.995301      1.091995
  H       1.201063      2.327665      0.457220
  Cu      2.622062      2.265826      1.362670
18
Coordinates from ORCA-job ./orca E -1967.128252597300
  C      -3.017807      1.908387      1.722548
  C      -1.878884      2.650701      1.434437
  C      -0.641282      2.270187      1.955699
  C      -0.555433      1.130076      2.759527
  C      -1.693814      0.391535      3.046836
  C      -2.927820      0.779516      2.529436
  H      -3.974493      2.213951      1.319257
  H      -3.814398      0.200437      2.753110
  H      -1.949146      3.532752      0.809852
  H       0.403068      0.806597      3.148332
  H      -1.619390     -0.491242      3.668455
  C       0.547105      3.097147      1.653710
  N       1.490831      3.332630      2.729044
  H       1.216794      2.903583      3.604278
  H       1.687396      4.316112      2.867402
  H       0.328845      3.997225      1.093809
  H       1.199331      2.329262      0.456137
  Cu      2.621557      2.265603      1.361172
18
Coordinates from ORCA-job ./orca E -1967.129673836778
  C      -3.017265      1.908062      1.721755
  C      -1.878183      2.649970      1.433226
  C      -0.640649      2.269439      1.954639
  C      -0.555036      1.129729      2.759060
  C      -1.693575      0.391593      3.046784
  C      -2.927509      0.779585      2.529220
  H      -3.973895      2.213637      1.318339
  H      -3.814211      0.200823      2.753220
  H      -1.948265      3.531718      0.808194
  H       0.403403      0.806236      3.148007
  H      -1.619333     -0.490878      3.668859
  C       0.547911      3.095988      1.652207
  N       1.492151      3.332023      2.728369
  H       1.218404      2.903545      3.603972
  H       1.689248      4.315442      2.866418
  H       0.329940      3.995877      1.091890
  H       1.189361      2.337367      0.468965
  Cu      2.619961      2.264305      1.359915
18
Coordinates from ORCA-job ./orca E -1967.129688615918
  C      -3.017834      1.908417      1.722494
  C      -1.878950      2.650779      1.434128
  C      -0.641060      2.269980      1.954329
  C      -0.555047      1.129939      2.758090
  C      -1.693483      0.391559      3.046138
  C      -2.927690      0.779612      2.529451
  H      -3.974683      2.214139      1.319672
  H      -3.814260      0.200765      2.753778
  H      -1.949425      3.532875      0.809624
  H       0.403563      0.806178      3.146439
  H      -1.618835     -0.491136      3.667865
  C       0.548742      3.095247      1.649556
  N       1.491665      3.332104      2.727481
  H       1.216562      2.903457      3.602491
  H       1.687029      4.315750      2.865656
  H       0.329302      3.997254      1.092897
  H       1.192881      2.332038      0.470733
  Cu      2.623984      2.265503      1.362218
18
Coordinates from ORCA-job ./orca E -1967.129696365868
  C      -3.019090      1.908954      1.724161
  C      -1.880006      2.650645      1.434616
  C      -0.641782      2.269171      1.953201
  C      -0.555600      1.129080      2.756679
  C      -1.694250      0.391344      3.046134
  C      -2.928791      0.779976      2.530870
  H      -3.976200      2.215341      1.322435
  H      -3.815439      0.201638      2.756198
  H      -1.950733      3.533007      0.810496
  H       0.403102      0.804623      3.144250
  H      -1.619350     -0.491311      3.667911
  C       0.549873      3.092722      1.645869
  N       1.491083      3.331651      2.726657
  H       1.213810      2.902676      3.600777
  H       1.683198      4.315836      2.865073
  H       0.328195      3.996348      1.092414
  H       1.202980      2.335252      0.468280
  Cu      2.631460      2.267508      1.367020
18
Coordinates from ORCA-job ./orca E -1967.129702486535
  C      -3.019705      1.910081      1.725609
  C      -1.880520      2.651069      1.434674
  C      -0.641960      2.268807      1.951659
  C      -0.555253      1.128076      2.754124
  C      -1.693934      0.390771      3.044707
  C      -2.928947      0.780425      2.531377
  H      -3.977180      2.217333      1.325424
  H      -3.815598      0.202380      2.757441
  H      -1.951644      3.533979      0.811362
  H       0.403659      0.802869      3.140531
  H      -1.618622     -0.492307      3.665837
  C       0.549949      3.092301      1.644393
  N       1.490945      3.332954      2.726404
  H       1.212502      2.904673      3.600501
  H       1.680887      4.317694      2.864066
  H       0.326657      3.995779      1.091292
  H       1.205083      2.328554      0.471996
  Cu      2.636144      2.269021      1.371641
18
Coordinates from ORCA-job ./orca E -1967.129719156309
  C      -3.020748      1.912105      1.728449
  C      -1.881386      2.652031      1.435483
  C      -0.642187      2.267733      1.949176
  C      -0.554761      1.125864      2.749998
  C      -1.693554      0.389472      3.042446
  C      -2.929361      0.781329      2.532642
  H      -3.978810      2.221001      1.330975
  H      -3.816141      0.203997      2.760018
  H      -1.953065      3.535797      0.813422
  H       0.404593      0.799024      3.133919
  H      -1.617659     -0.494558      3.662151
  C       0.549669      3.090938      1.642160
  N       1.490351      3.334933      2.725629
  H       1.209168      2.908710      3.599957
  H       1.676197      4.320791      2.861491
  H       0.324562      3.992639      1.086936
  H       1.210441      2.322097      0.476275
  Cu      2.645152      2.270557      1.381911
18
Coordinates from ORCA-job ./orca E -1967.129751172792
  C      -3.023222      1.916857      1.735676
  C      -1.883533      2.654681      1.438452
  C      -0.642637      2.265238      1.943977
  C      -0.553752      1.120409      2.740727
  C      -1.692734      0.386060      3.037189
  C      -2.930357      0.783250      2.535705
  H      -3.982666      2.229666      1.344684
  H      -3.817480      0.207628      2.766095
  H      -1.956534      3.540562      0.819561
  H       0.406823      0.789706      3.118228
  H      -1.615600     -0.500440      3.653192
  C       0.548658      3.087494      1.636766
  N       1.488155      3.339090      2.722663
  H       1.199412      2.918937      3.597787
  H       1.664584      4.327536      2.854143
  H       0.321637      3.984116      1.074288
  H       1.224274      2.310985      0.484550
  Cu      2.667432      2.272684      1.409356
18
Coordinates from ORCA-job ./orca E -1967.129773657271
  C      -3.025368      1.920138      1.741426
  C      -1.885590      2.656864      1.441445
  C      -0.643165      2.263674      1.940578
  C      -0.553289      1.116467      2.734154
  C      -1.692252      0.383438      3.033404
  C      -2.931250      0.784371      2.538069
  H      -3.985876      2.235660      1.355239
  H      -3.818530      0.209853      2.770630
  H      -1.959721      3.544427      0.825133
  H       0.408444      0.783245      3.106498
  H      -1.614217     -0.504948      3.646564
  C       0.547510      3.085106      1.632026
  N       1.485958      3.341346      2.719012
  H       1.190978      2.926452      3.594860
  H       1.656024      4.331465      2.848050
  H       0.321543      3.978198      1.063625
  H       1.235244      2.305209      0.489307
  Cu      2.686017      2.273495      1.433022
18
Coordinates from ORCA-job ./orca E -1967.129798303350
  C      -3.027948      1.922329      1.746376
  C      -1.888374      2.658702      1.444349
  C      -0.644310      2.262933      1.937943
  C      -0.553456      1.113811      2.729002
  C      -1.692120      0.381577      3.030625
  C      -2.932402      0.784938      2.540246
  H      -3.989421      2.239579      1.363989
  H      -3.819564      0.210977      2.774652
  H      -1.963737      3.547632      0.830199
  H       0.409599      0.779257      3.096799
  H      -1.613197     -0.508194      3.641655
  C       0.545618      3.083685      1.626672
  N       1.484107      3.341488      2.713810
  H       1.184024      2.930973      3.590301
  H       1.649632      4.332583      2.843157
  H       0.323078      3.975195      1.054505
  H       1.244576      2.302475      0.491685
  Cu      2.706356      2.274519      1.457075
18
Coordinates from ORCA-job ./orca E -1967.129828527486
  C      -3.031510      1.923432      1.750393
  C      -1.892529      2.660044      1.446457
  C      -0.646731      2.263214      1.935450
  C      -0.554492      1.112945      2.724941
  C      -1.692467      0.380871      3.028873
  C      -2.934088      0.785095      2.542432
  H      -3.993956      2.241343      1.370967
  H      -3.820718      0.211061      2.778656
  H      -1.969384      3.549894      0.833857
  H       0.410025      0.778302      3.088888
  H      -1.612380     -0.509643      3.638679
  C       0.542467      3.083147      1.620060
  N       1.483619      3.338789      2.706616
  H       1.180365      2.930665      3.583451
  H       1.645481      4.330225      2.839932
  H       0.324175      3.975877      1.048192
  H       1.252286      2.301366      0.492230
  Cu      2.732297      2.277834      1.482966
18
Coordinates from ORCA-job ./orca E -1967.130082386453
  C      -3.048721      1.928818      1.768622
  C      -1.912516      2.665760      1.454438
  C      -0.659119      2.264347      1.922213
  C      -0.560028      1.109399      2.705134
  C      -1.694833      0.378356      3.020823
  C      -2.942580      0.786497      2.553058
  H      -4.015653      2.249933      1.403384
  H      -3.826663      0.212385      2.798488
  H      -1.996225      3.559426      0.848409
  H       0.410660      0.773735      3.051508
  H      -1.609074     -0.515263      3.625359
  C       0.527214      3.079213      1.587829
  N       1.486497      3.323773      2.671369
  H       1.171097      2.923969      3.549234
  H       1.626210      4.317046      2.823796
  H       0.322378      3.979040      1.022234
  H       1.286742      2.293117      0.495952
  Cu      2.857073      2.304909      1.611190
18
Coordinates from ORCA-job ./orca E -1967.130359864345
  C      -3.059452      1.933468      1.781003
  C      -1.924635      2.669627      1.459831
  C      -0.666929      2.264234      1.913543
  C      -0.563831      1.105790      2.691473
  C      -1.697050      0.375867      3.014582
  C      -2.948403      0.787952      2.559801
  H      -4.029059      2.257882      1.425819
  H      -3.831193      0.214406      2.811131
  H      -2.012211      3.566070      0.858464
  H       0.410150      0.767751      3.026151
  H      -1.607955     -0.520421      3.614713
  C       0.518264      3.074336      1.566595
  N       1.491437      3.315073      2.647699
  H       1.169598      2.920064      3.526536
  H       1.612742      4.310137      2.809917
  H       0.316921      3.977723      1.005397
  H       1.307158      2.282035      0.500326
  Cu      2.936907      2.332466      1.700060
18
Coordinates from ORCA-job ./orca E -1967.130605031840
  C      -3.066549      1.934854      1.785050
  C      -1.932742      2.671379      1.461942
  C      -0.673575      2.266296      1.911887
  C      -0.568127      1.106365      2.687570
  C      -1.700484      0.375256      3.011928
  C      -2.953190      0.787838      2.561542
  H      -4.037151      2.260022      1.433268
  H      -3.835053      0.213458      2.814125
  H      -2.021977      3.568704      0.862022
  H       0.406758      0.766797      3.017909
  H      -1.609557     -0.522675      3.609357
  C       0.511887      3.072000      1.556656
  N       1.501909      3.309135      2.631884
  H       1.183625      2.912267      3.512083
  H       1.611380      4.305201      2.800633
  H       0.305497      3.979361      1.003457
  H       1.309970      2.269702      0.504797
  Cu      2.989840      2.358499      1.746930
18
Coordinates from ORCA-job ./orca E -1967.130957007994
  C      -3.076458      1.931551      1.780681
  C      -1.944349      2.670139      1.458988
  C      -0.685535      2.271743      1.914670
  C      -0.577614      1.114014      2.693187
  C      -1.709041      0.378933      3.015014
  C      -2.961577      0.785845      2.560107
  H      -4.047018      2.253630      1.426003
  H      -3.842005      0.208551      2.810962
  H      -2.034317      3.565993      0.856672
  H       0.396032      0.775101      3.027284
  H      -1.616439     -0.518127      3.613575
  C       0.500815      3.071412      1.551157
  N       1.527352      3.294564      2.609753
  H       1.229576      2.881863      3.490725
  H       1.623522      4.289986      2.793872
  H       0.277288      3.989650      1.022612
  H       1.295425      2.264991      0.499822
  Cu      3.066803      2.404619      1.787954
18
Coordinates from ORCA-job ./orca E -1967.130876913677
  C      -3.089274      1.934345      1.792855
  C      -1.959522      2.673262      1.462797
  C      -0.695159      2.271912      1.902503
  C      -0.582782      1.112972      2.679556
  C      -1.711628      0.379721      3.012427
  C      -2.968210      0.787750      2.569550
  H      -4.062884      2.257374      1.447403
  H      -3.846634      0.210892      2.828403
  H      -2.054520      3.570520      0.863457
  H       0.394795      0.774526      3.002644
  H      -1.614978     -0.517380      3.610362
  C       0.488063      3.066414      1.522684
  N       1.538596      3.271784      2.574788
  H       1.234680      2.861236      3.455915
  H       1.612205      4.265691      2.781688
  H       0.272096      3.994236      1.008195
  H       1.311574      2.270854      0.485410
  Cu      3.156043      2.448352      1.912405
18
Coordinates from ORCA-job ./orca E -1967.130762169809
  C      -3.081869      1.873736      1.689589
  C      -1.962526      2.644230      1.412895
  C      -0.725108      2.317420      1.967066
  C      -0.621157      1.201766      2.802527
  C      -1.745351      0.433042      3.083728
  C      -2.976270      0.764096      2.527469
  H      -4.037209      2.140498      1.256941
  H      -3.847482      0.159229      2.742994
  H      -2.043326      3.508953      0.764530
  H       0.329560      0.898835      3.223626
  H      -1.655818     -0.431627      3.728981
  C       0.463494      3.112251      1.610304
  N       1.625294      3.198017      2.561707
  H       1.459489      2.649733      3.401690
  H       1.760408      4.164524      2.845606
  H       0.180321      4.093332      1.248481
  H       1.095251      2.413373      0.385772
  Cu      3.204760      2.493052      1.659136
18
Coordinates from ORCA-job ./orca E -1967.131916380496
  C      -3.070642      1.893798      1.719815
  C      -1.943905      2.649038      1.425472
  C      -0.698385      2.293366      1.945920
  C      -0.597840      1.165075      2.765473
  C      -1.727604      0.413915      3.064354
  C      -2.965771      0.774425      2.541522
  H      -4.031109      2.181234      1.312138
  H      -3.843294      0.184227      2.771690
  H      -2.026269      3.523453      0.790994
  H       0.359716      0.848460      3.160835
  H      -1.639886     -0.458291      3.699409
  C       0.485274      3.101986      1.593003
  N       1.571483      3.232217      2.597278
  H       1.343470      2.728933      3.449901
  H       1.699967      4.209534      2.842630
  H       0.230450      4.062892      1.163383
  H       1.158634      2.392593      0.397021
  Cu      3.118171      2.437605      1.672201
18
Coordinates from ORCA-job ./orca E -1967.132407396013
  C      -3.076893      1.900749      1.742055
  C      -1.950237      2.652376      1.433026
  C      -0.694700      2.288056      1.928823
  C      -0.591528      1.153982      2.741076
  C      -1.719531      0.408995      3.055738
  C      -2.965242      0.779176      2.556506
  H      -4.042883      2.194798      1.351930
  H      -3.842789      0.194659      2.800781
  H      -2.039993      3.530476      0.805270
  H       0.374315      0.835517      3.115179
  H      -1.627418     -0.465670      3.686633
  C       0.483350      3.101207      1.558798
  N       1.552948      3.223285      2.577162
  H       1.286022      2.741354      3.432057
  H       1.667702      4.198782      2.838733
  H       0.257836      4.065139      1.120398
  H       1.192563      2.396247      0.381058
  Cu      3.158938      2.435332      1.787817
18
Coordinates from ORCA-job ./orca E -1967.132832795869
  C      -3.078706      1.900826      1.743887
  C      -1.951552      2.650480      1.432623
  C      -0.695148      2.286503      1.927421
  C      -0.593345      1.153244      2.740225
  C      -1.722015      0.409488      3.057119
  C      -2.967951      0.780197      2.559810
  H      -4.044896      2.195988      1.354991
  H      -3.846222      0.197884      2.806734
  H      -2.041769      3.528155      0.804288
  H       0.371525      0.830888      3.113603
  H      -1.629253     -0.464416      3.688973
  C       0.482768      3.099912      1.551110
  N       1.555915      3.215606      2.564627
  H       1.287712      2.730034      3.417138
  H       1.665151      4.189875      2.833648
  H       0.252879      4.068530      1.125507
  H       1.177295      2.405626      0.358372
  Cu      3.200072      2.455639      1.832965
18
Coordinates from ORCA-job ./orca E -1967.133027746761
  C      -3.087549      1.916066      1.768808
  C      -1.956799      2.651885      1.440945
  C      -0.695292      2.271015      1.909893
  C      -0.594473      1.133027      2.711997
  C      -1.727364      0.399999      3.045859
  C      -2.977554      0.788415      2.576558
  H      -4.056973      2.227920      1.401386
  H      -3.859488      0.218386      2.838594
  H      -2.049564      3.535285      0.820736
  H       0.368502      0.786721      3.069538
  H      -1.629770     -0.478969      3.669962
  C       0.486331      3.079821      1.515577
  N       1.546336      3.211988      2.529854
  H       1.266626      2.729589      3.380938
  H       1.636286      4.190186      2.792904
  H       0.227921      4.048712      1.106905
  H       1.218979      2.391326      0.342451
  Cu      3.306306      2.533089      1.990134
18
Coordinates from ORCA-job ./orca E -1967.133980973995
  C      -3.080655      1.916958      1.766723
  C      -1.948708      2.651686      1.440211
  C      -0.687761      2.269085      1.910117
  C      -0.589547      1.131387      2.712968
  C      -1.723699      0.400132      3.046228
  C      -2.972924      0.789683      2.575160
  H      -4.049284      2.229364      1.397646
  H      -3.855917      0.220878      2.836280
  H      -2.039848      3.534644      0.819228
  H       0.372686      0.784090      3.071722
  H      -1.627630     -0.478511      3.671007
  C       0.494529      3.077561      1.517620
  N       1.548231      3.212337      2.538436
  H       1.261504      2.734563      3.389939
  H       1.638679      4.191206      2.799253
  H       0.239365      4.044547      1.102316
  H       1.120038      2.386804      0.285298
  Cu      3.323402      2.538047      2.032889
18
Coordinates from ORCA-job ./orca E -1967.134090995785
  C      -3.082325      1.926403      1.780193
  C      -1.950645      2.659847      1.448602
  C      -0.688222      2.267450      1.903274
  C      -0.585042      1.123492      2.697454
  C      -1.718379      0.394036      3.035767
  C      -2.970449      0.791742      2.577945
  H      -4.052949      2.244370      1.421503
  H      -3.852498      0.222141      2.840557
  H      -2.043431      3.547176      0.834019
  H       0.381180      0.774849      3.043846
  H      -1.620330     -0.490490      3.651982
  C       0.498516      3.066877      1.509349
  N       1.540424      3.223149      2.544429
  H       1.241475      2.763083      3.401638
  H       1.624402      4.208031      2.785203
  H       0.247098      4.025617      1.073011
  H       1.139266      2.352284      0.298638
  Cu      3.314370      2.534403      2.065630
18
Coordinates from ORCA-job ./orca E -1967.134246392315
  C      -3.085546      1.954869      1.823937
  C      -1.953011      2.679677      1.472423
  C      -0.686452      2.256142      1.878259
  C      -0.573242      1.093431      2.645527
  C      -1.705718      0.373608      3.003087
  C      -2.965238      0.800603      2.591464
  H      -4.061751      2.294621      1.502618
  H      -3.846796      0.235836      2.865983
  H      -2.050091      3.581571      0.880059
  H       0.402204      0.733390      2.951894
  H      -1.603547     -0.527011      3.594990
  C       0.511403      3.034572      1.477794
  N       1.511385      3.252649      2.549012
  H       1.173298      2.840397      3.416315
  H       1.579509      4.250686      2.736193
  H       0.267926      3.969473      0.988119
  H       1.200884      2.256469      0.334905
  Cu      3.307245      2.553479      2.200462
18
Coordinates from ORCA-job ./orca E -1967.134292689064
  C      -3.084461      1.970162      1.848146
  C      -1.949923      2.686966      1.484210
  C      -0.682387      2.245271      1.863998
  C      -0.567866      1.072017      2.616211
  C      -1.701272      0.360271      2.984842
  C      -2.963178      0.806557      2.600153
  H      -4.062470      2.324320      1.548551
  H      -3.845988      0.248202      2.883720
  H      -2.047340      3.597121      0.904761
  H       0.410508      0.702171      2.900348
  H      -1.599705     -0.548609      3.564080
  C       0.520130      3.017742      1.463202
  N       1.491306      3.272840      2.551629
  H       1.133490      2.883755      3.421634
  H       1.554171      4.276338      2.708481
  H       0.281085      3.937640      0.943647
  H       1.237715      2.209822      0.358955
  Cu      3.298646      2.571874      2.266471
18
Coordinates from ORCA-job ./orca E -1967.134321956295
  C      -3.082951      1.985695      1.873538
  C      -1.945859      2.692951      1.496506
  C      -0.677784      2.231659      1.848711
  C      -0.564244      1.047411      2.585093
  C      -1.699113      0.345933      2.966388
  C      -2.962421      0.813355      2.610342
  H      -4.061823      2.354996      1.595706
  H      -3.846890      0.263047      2.904400
  H      -2.042434      3.610916      0.929456
  H       0.416096      0.665511      2.845264
  H      -1.599892     -0.571158      3.532917
  C       0.527466      3.001138      1.447906
  N       1.472160      3.293284      2.550370
  H       1.098255      2.925218      3.422741
  H       1.529506      4.300889      2.679809
  H       0.294267      3.905382      0.898886
  H       1.275664      2.165103      0.385706
  Cu      3.292457      2.603131      2.339302
18
Coordinates from ORCA-job ./orca E -1967.134318047038
  C      -3.082228      1.985336      1.872596
  C      -1.944396      2.691719      1.496263
  C      -0.676467      2.229971      1.849569
  C      -0.564551      1.045766      2.585893
  C      -1.700146      0.345393      2.966999
  C      -2.963005      0.813621      2.610405
  H      -4.060650      2.354822      1.593376
  H      -3.847999      0.264339      2.904810
  H      -2.040103      3.609164      0.928253
  H       0.415091      0.662190      2.846418
  H      -1.602133     -0.571461      3.534088
  C       0.527559      3.002179      1.450240
  N       1.470551      3.296091      2.552494
  H       1.099642      2.925238      3.424755
  H       1.529317      4.303474      2.681328
  H       0.294500      3.905562      0.899897
  H       1.278701      2.168737      0.388080
  Cu      3.288777      2.602319      2.327577
18
Coordinates from ORCA-job ./orca E -1967.134322047289
  C      -3.082441      1.984737      1.871198
  C      -1.944395      2.691176      1.496019
  C      -0.676418      2.229906      1.850777
  C      -0.565234      1.046413      2.587827
  C      -1.701122      0.345972      2.968160
  C      -2.963749      0.813379      2.609867
  H      -4.060590      2.353595      1.590204
  H      -3.848848      0.263971      2.903709
  H      -2.039743      3.608056      0.927036
  H       0.413968      0.662585      2.849858
  H      -1.603471     -0.570442      3.536024
  C       0.526669      3.002799      1.450828
  N       1.472391      3.295038      2.551699
  H       1.104583      2.920852      3.423829
  H       1.530315      4.302146      2.683043
  H       0.292915      3.907039      0.902296
  H       1.276235      2.171476      0.385897
  Cu      3.291397      2.605761      2.324767
18
Coordinates from ORCA-job ./orca E -1967.134324280555
  C      -3.082371      1.985418      1.871363
  C      -1.943945      2.691328      1.496793
  C      -0.675895      2.229252      1.851438
  C      -0.565583      1.045890      2.588158
  C      -1.701913      0.345792      2.968056
  C      -2.964312      0.813563      2.609652
  H      -4.060241      2.354769      1.590082
  H      -3.849576      0.264301      2.903231
  H      -2.038814      3.608379      0.928003
  H       0.413191      0.661106      2.850647
  H      -1.604761     -0.570793      3.535735
  C       0.526579      3.001881      1.450412
  N       1.472883      3.295405      2.551090
  H       1.107182      2.917660      3.422549
  H       1.527798      4.302517      2.683506
  H       0.292711      3.905788      0.901512
  H       1.276059      2.169731      0.386067
  Cu      3.293468      2.612474      2.324747
18
Coordinates from ORCA-job ./orca E -1967.134327969497
  C      -3.082241      1.986559      1.871840
  C      -1.943398      2.691635      1.497522
  C      -0.675302      2.228506      1.851795
  C      -0.565915      1.045184      2.588090
  C      -1.702783      0.345672      2.967848
  C      -2.964889      0.814103      2.609679
  H      -4.059840      2.356745      1.590731
  H      -3.850351      0.265068      2.903051
  H      -2.037711      3.609005      0.929161
  H       0.412375      0.659248      2.850866
  H      -1.606132     -0.571161      3.535216
  C       0.527030      3.000294      1.449658
  N       1.472992      3.295995      2.550807
  H       1.109897      2.912632      3.420858
  H       1.522350      4.303068      2.685414
  H       0.293619      3.903601      0.899648
  H       1.277047      2.166301      0.387135
  Cu      3.295712      2.622004      2.323721
18
Coordinates from ORCA-job ./orca E -1967.134334739496
  C      -3.082002      1.989141      1.872913
  C      -1.942349      2.692343      1.498500
  C      -0.674324      2.227077      1.851893
  C      -0.566657      1.043766      2.587561
  C      -1.704605      0.345683      2.967517
  C      -2.966079      0.815726      2.610120
  H      -4.059113      2.361084      1.592470
  H      -3.852023      0.267412      2.903340
  H      -2.035519      3.610214      0.930763
  H       0.410715      0.655431      2.850464
  H      -1.608826     -0.571587      3.534335
  C       0.528582      2.996691      1.448097
  N       1.472737      3.297120      2.550669
  H       1.116189      2.899914      3.417136
  H       1.508016      4.303773      2.692197
  H       0.296837      3.898584      0.895158
  H       1.280237      2.157720      0.390663
  Cu      3.300643      2.644366      2.319245
18
Coordinates from ORCA-job ./orca E -1967.134360070126
  C      -3.081729      1.994385      1.874168
  C      -1.940322      2.693679      1.499474
  C      -0.672838      2.224516      1.852146
  C      -0.568843      1.041485      2.587414
  C      -1.709084      0.346522      2.967775
  C      -2.969076      0.819740      2.611075
  H      -4.057788      2.369524      1.594360
  H      -3.856253      0.273256      2.903922
  H      -2.030890      3.612009      0.932049
  H       0.406545      0.648263      2.850810
  H      -1.615074     -0.571264      3.534070
  C       0.532353      2.988997      1.445729
  N       1.472601      3.298614      2.550743
  H       1.134684      2.867295      3.408200
  H       1.473362      4.302706      2.712731
  H       0.304902      3.887923      0.886349
  H       1.287364      2.139096      0.399473
  Cu      3.312545      2.697712      2.302550
18
Coordinates from ORCA-job ./orca E -1967.134398867955
  C      -3.081925      1.997898      1.873046
  C      -1.939062      2.694396      1.498638
  C      -0.672511      2.223426      1.853154
  C      -0.571587      1.041372      2.589783
  C      -1.713711      0.348678      2.969836
  C      -2.972254      0.823411      2.611377
  H      -4.057045      2.374561      1.592033
  H      -3.860644      0.278428      2.903302
  H      -2.027281      3.612222      0.929994
  H       0.402058      0.644913      2.854984
  H      -1.621044     -0.568778      3.536902
  C       0.535729      2.982967      1.445417
  N       1.473891      3.297813      2.551139
  H       1.157879      2.832234      3.398943
  H       1.440917      4.297036      2.737940
  H       0.312316      3.880123      0.881574
  H       1.292142      2.125146      0.406664
  Cu      3.324593      2.748615      2.278313
18
Coordinates from ORCA-job ./orca E -1967.134445714514
  C      -3.082124      2.000416      1.871975
  C      -1.937925      2.694653      1.497923
  C      -0.672306      2.222115      1.853993
  C      -0.573993      1.040718      2.591739
  C      -1.717647      0.350028      2.971444
  C      -2.975029      0.826253      2.611475
  H      -4.056424      2.378319      1.589789
  H      -3.864550      0.282810      2.902806
  H      -2.024147      3.612035      0.928233
  H       0.398330      0.641833      2.858325
  H      -1.626377     -0.567111      3.539247
  C       0.537999      2.978542      1.445665
  N       1.475217      3.297082      2.550926
  H       1.177662      2.806652      3.391386
  H       1.417202      4.291388      2.756995
  H       0.316807      3.874374      0.878822
  H       1.295512      2.115065      0.412415
  Cu      3.334255      2.789289      2.259883
18
Coordinates from ORCA-job ./orca E -1967.134510982879
  C      -3.082382      2.002697      1.870437
  C      -1.936718      2.694623      1.497017
  C      -0.672114      2.220628      1.855146
  C      -0.576642      1.040079      2.594286
  C      -1.721916      0.351465      2.973403
  C      -2.978064      0.829050      2.611388
  H      -4.055765      2.381753      1.586625
  H      -3.868793      0.287216      2.902010
  H      -2.020797      3.611441      0.926075
  H       0.394298      0.638977      2.862761
  H      -1.632285     -0.565186      3.542249
  C       0.540006      2.974252      1.446258
  N       1.477104      3.295864      2.550498
  H       1.199381      2.780860      3.383055
  H       1.394224      4.284088      2.776579
  H       0.320468      3.869033      0.877099
  H       1.298522      2.106357      0.417455
  Cu      3.343932      2.831262      2.240698
18
Coordinates from ORCA-job ./orca E -1967.134596567055
  C      -3.082652      2.004834      1.868593
  C      -1.935431      2.694345      1.495890
  C      -0.671910      2.218941      1.856371
  C      -0.579422      1.039388      2.597136
  C      -1.726383      0.352972      2.975603
  C      -2.981246      0.831879      2.611249
  H      -4.055046      2.385030      1.582919
  H      -3.873241      0.291777      2.901196
  H      -2.017264      3.610506      0.923544
  H       0.390107      0.636243      2.867829
  H      -1.638580     -0.563038      3.545761
  C       0.541832      2.970064      1.447030
  N       1.479282      3.294193      2.549921
  H       1.222350      2.755037      3.373876
  H       1.371904      4.275165      2.796627
  H       0.323474      3.864067      0.876169
  H       1.301411      2.098638      0.422002
  Cu      3.353277      2.874418      2.221323
18
Coordinates from ORCA-job ./orca E -1967.134703092745
  C      -3.082887      2.006968      1.866679
  C      -1.934025      2.693850      1.494561
  C      -0.671636      2.216950      1.857444
  C      -0.582238      1.038477      2.599955
  C      -1.730953      0.354489      2.977919
  C      -2.984498      0.834848      2.611231
  H      -4.054244      2.388411      1.579135
  H      -3.877814      0.296685      2.900705
  H      -2.013523      3.609306      0.920732
  H       0.385870      0.633331      2.872935
  H      -1.645146     -0.560774      3.549574
  C       0.543583      2.965836      1.447806
  N       1.481425      3.292195      2.549292
  H       1.245890      2.729481      3.363885
  H       1.349994      4.264779      2.816993
  H       0.326069      3.859205      0.875597
  H       1.304680      2.091668      0.426245
  Cu      3.361913      2.918755      2.202353
18
Coordinates from ORCA-job ./orca E -1967.134826856960
  C      -3.083060      2.009287      1.865059
  C      -1.932517      2.693308      1.493170
  C      -0.671273      2.214670      1.858122
  C      -0.584952      1.037207      2.602275
  C      -1.735422      0.355903      2.980070
  C      -2.987677      0.838029      2.611488
  H      -4.053384      2.392195      1.575973
  H      -3.882328      0.302034      2.900857
  H      -2.009667      3.608102      0.917944
  H       0.381810      0.630033      2.877176
  H      -1.651703     -0.558620      3.553211
  C       0.545377      2.961420      1.448347
  N       1.483164      3.290134      2.548705
  H       1.269074      2.704906      3.353329
  H       1.328155      4.253323      2.837279
  H       0.328793      3.854044      0.874579
  H       1.308765      2.084608      0.430770
  Cu      3.369305      2.963877      2.184686
18
Coordinates from ORCA-job ./orca E -1967.134962313868
  C      -3.083168      2.011906      1.863985
  C      -1.930973      2.692926      1.491880
  C      -0.670843      2.212255      1.858308
  C      -0.587462      1.035605      2.603820
  C      -1.739595      0.357162      2.981851
  C      -2.990646      0.841419      2.612069
  H      -4.052522      2.396496      1.573875
  H      -3.886588      0.307738      2.901721
  H      -2.005861      3.607164      0.915453
  H       0.378117      0.626373      2.879975
  H      -1.657951     -0.556744      3.556272
  C       0.547301      2.956758      1.448515
  N       1.484275      3.288242      2.548270
  H       1.291206      2.681905      3.342561
  H       1.306155      4.241190      2.857143
  H       0.332151      3.848296      0.872476
  H       1.313837      2.076693      0.436125
  Cu      3.375028      3.009075      2.168744
18
Coordinates from ORCA-job ./orca E -1967.135105102686
  C      -3.083234      2.014746      1.863328
  C      -1.929430      2.692785      1.490823
  C      -0.670398      2.209877      1.858290
  C      -0.589835      1.033832      2.604857
  C      -1.743537      0.358271      2.983296
  C      -2.993445      0.844884      2.612773
  H      -4.051668      2.401117      1.572515
  H      -3.890627      0.313514      2.902843
  H      -2.002136      3.606560      0.913369
  H       0.374686      0.622510      2.881719
  H      -1.663936     -0.555184      3.558720
  C       0.549359      2.951931      1.448536
  N       1.484958      3.286658      2.548065
  H       1.312650      2.660603      3.331830
  H       1.284255      4.228622      2.876526
  H       0.336122      3.841983      0.869439
  H       1.319607      2.067807      0.442520
  Cu      3.379070      3.053945      2.153592
18
Coordinates from ORCA-job ./orca E -1967.135301951437
  C      -3.083563      2.019030      1.862467
  C      -1.927541      2.693132      1.490250
  C      -0.669932      2.206948      1.859201
  C      -0.593572      1.031528      2.606561
  C      -1.749621      0.359599      2.984817
  C      -2.997772      0.849382      2.613116
  H      -4.050630      2.407936      1.570500
  H      -3.896636      0.320712      2.902888
  H      -1.997083      3.606507      0.911756
  H       0.369117      0.616599      2.884619
  H      -1.672757     -0.553638      3.560969
  C       0.552348      2.944870      1.449155
  N       1.486751      3.286033      2.547933
  H       1.346892      2.632253      3.315398
  H       1.253553      4.210493      2.903837
  H       0.342566      3.831999      0.864320
  H       1.328070      2.051937      0.455197
  Cu      3.382268      3.119138      2.130056
18
Coordinates from ORCA-job ./orca E -1967.135719153814
  C      -3.084520      2.023924      1.859116
  C      -1.924526      2.691105      1.484636
  C      -0.670494      2.200728      1.857598
  C      -0.599905      1.026712      2.608877
  C      -1.759013      0.362272      2.988953
  C      -3.004734      0.858014      2.614985
  H      -4.049543      2.416361      1.565040
  H      -3.906679      0.336179      2.907614
  H      -1.989043      3.602453      0.902366
  H       0.361844      0.609690      2.887344
  H      -1.688005     -0.548969      3.569001
  C       0.556153      2.934925      1.451826
  N       1.490677      3.278391      2.546916
  H       1.399817      2.588808      3.290198
  H       1.213132      4.171038      2.950291
  H       0.348222      3.820396      0.863624
  H       1.339902      2.035687      0.469923
  Cu      3.389175      3.226745      2.094731
18
Coordinates from ORCA-job ./orca E -1967.136381624554
  C      -3.085750      2.029142      1.851184
  C      -1.917822      2.686900      1.476711
  C      -0.672272      2.190106      1.859950
  C      -0.612307      1.016974      2.618963
  C      -1.776139      0.364680      2.997664
  C      -3.017208      0.870968      2.615135
  H      -4.046683      2.425661      1.549158
  H      -3.925105      0.360410      2.909617
  H      -1.972800      3.593696      0.886450
  H       0.349815      0.600544      2.896190
  H      -1.718968     -0.543779      3.583509
  C       0.562099      2.919970      1.464387
  N       1.498693      3.262319      2.549085
  H       1.482954      2.532473      3.259002
  H       1.170341      4.101819      3.025118
  H       0.357103      3.799960      0.866444
  H       1.360226      2.025029      0.490169
  Cu      3.386283      3.397586      2.014303
18
Coordinates from ORCA-job ./orca E -1967.136707463012
  C      -3.089278      2.039644      1.843618
  C      -1.913988      2.687699      1.475563
  C      -0.674518      2.182086      1.867621
  C      -0.628525      1.009436      2.627606
  C      -1.799614      0.366677      3.000486
  C      -3.034395      0.882104      2.610067
  H      -4.045233      2.442705      1.534534
  H      -3.947918      0.378853      2.899695
  H      -1.958314      3.593658      0.883028
  H       0.328348      0.584912      2.910997
  H      -1.752557     -0.541327      3.587958
  C       0.568514      2.901537      1.478916
  N       1.516531      3.263095      2.546602
  H       1.622300      2.480872      3.190474
  H       1.119809      4.014546      3.110731
  H       0.375452      3.770507      0.860901
  H       1.381378      1.963812      0.558618
  Cu      3.354471      3.613644      1.925624
18
Coordinates from ORCA-job ./orca E -1967.134899826776
  C      -3.075207      2.047539      1.843693
  C      -1.889810      2.700325      1.489436
  C      -0.666923      2.177273      1.878006
  C      -0.630564      0.993303      2.645056
  C      -1.802145      0.359651      3.004875
  C      -3.032435      0.892637      2.599390
  H      -4.026300      2.451842      1.521339
  H      -3.953047      0.394213      2.876516
  H      -1.926059      3.605617      0.895168
  H       0.338995      0.592516      2.910980
  H      -1.781867     -0.552152      3.587695
  C       0.588246      2.882652      1.499446
  N       1.512134      3.214513      2.567834
  H       1.579006      2.461649      3.253896
  H       1.133837      3.977927      3.135084
  H       0.420166      3.735175      0.849537
  H       1.334487      1.925203      0.543705
  Cu      3.299946      3.774576      1.811386
18
Coordinates from ORCA-job ./orca E -1967.137024633694
  C      -3.082850      2.050309      1.855792
  C      -1.904275      2.694607      1.484440
  C      -0.668628      2.175287      1.862553
  C      -0.625877      0.997416      2.620868
  C      -1.797645      0.362023      2.997251
  C      -3.031612      0.889744      2.614127
  H      -4.037774      2.460017      1.552197
  H      -3.947126      0.390471      2.904707
  H      -1.946696      3.603340      0.896045
  H       0.334985      0.574246      2.890821
  H      -1.757849     -0.549387      3.579919
  C       0.580188      2.883825      1.471882
  N       1.501543      3.252201      2.553609
  H       1.585723      2.484306      3.217783
  H       1.096804      4.011788      3.102615
  H       0.408163      3.739295      0.828792
  H       1.383093      1.934795      0.554434
  Cu      3.332293      3.680177      1.925203
18
Coordinates from ORCA-job ./orca E -1967.137163816744
  C      -3.082468      2.054662      1.863963
  C      -1.906070      2.695329      1.485028
  C      -0.667060      2.173986      1.855063
  C      -0.622094      0.997089      2.610312
  C      -1.793644      0.362811      2.994319
  C      -3.028646      0.891456      2.621144
  H      -4.038574      2.467453      1.568533
  H      -3.942688      0.392661      2.916821
  H      -1.950463      3.605387      0.898845
  H       0.336407      0.567028      2.878351
  H      -1.748236     -0.549168      3.575739
  C       0.580058      2.880027      1.457571
  N       1.492687      3.259216      2.549756
  H       1.573145      2.488288      3.210446
  H       1.076371      4.020964      3.085844
  H       0.410763      3.734325      0.812487
  H       1.399687      1.930418      0.555642
  Cu      3.333284      3.662528      1.973178
18
Coordinates from ORCA-job ./orca E -1967.137294099296
  C      -3.080637      2.062679      1.872460
  C      -1.903454      2.696501      1.486532
  C      -0.664382      2.168134      1.848421
  C      -0.621513      0.990356      2.600796
  C      -1.794638      0.361720      2.991549
  C      -3.028749      0.897274      2.627645
  H      -4.036279      2.481604      1.584269
  H      -3.943544      0.402668      2.927943
  H      -1.946458      3.607817      0.902210
  H       0.334624      0.552454      2.864445
  H      -1.749037     -0.551480      3.571062
  C       0.584440      2.868734      1.446767
  N       1.486099      3.261187      2.546572
  H       1.577556      2.485926      3.200538
  H       1.050815      4.013690      3.080460
  H       0.418236      3.718266      0.794696
  H       1.417199      1.912376      0.564204
  Cu      3.322183      3.704556      2.002472
18
Coordinates from ORCA-job ./orca E -1967.137572877250
  C      -3.076642      2.076282      1.879163
  C      -1.896292      2.695680      1.482710
  C      -0.659115      2.156684      1.838761
  C      -0.623646      0.981969      2.594326
  C      -1.801322      0.365959      2.994995
  C      -3.031943      0.911869      2.638075
  H      -4.029897      2.504573      1.596895
  H      -3.949596      0.427231      2.945721
  H      -1.933980      3.605733      0.896025
  H       0.327005      0.532524      2.857921
  H      -1.758775     -0.545448      3.577564
  C       0.592852      2.847022      1.429758
  N       1.483876      3.245284      2.541034
  H       1.619298      2.448013      3.159442
  H       1.008784      3.953967      3.100382
  H       0.430401      3.695496      0.775418
  H       1.442067      1.887797      0.566191
  Cu      3.279387      3.843825      2.038659
18
Coordinates from ORCA-job ./orca E -1967.137626960849
  C      -3.076099      2.086831      1.874440
  C      -1.887686      2.693644      1.483638
  C      -0.657272      2.142840      1.846260
  C      -0.637413      0.966991      2.600035
  C      -1.823687      0.362778      2.994699
  C      -3.046913      0.921690      2.633296
  H      -4.023556      2.525049      1.587835
  H      -3.970956      0.446559      2.936634
  H      -1.913188      3.603797      0.896439
  H       0.305817      0.504989      2.868319
  H      -1.792644     -0.549737      3.576229
  C       0.601436      2.825729      1.443904
  N       1.509304      3.238472      2.538165
  H       1.731263      2.429533      3.113905
  H       1.009303      3.889488      3.144446
  H       0.431539      3.668090      0.783705
  H       1.446167      1.845110      0.600198
  Cu      3.217045      4.032607      1.990893
18
Coordinates from ORCA-job ./orca E -1967.137673235029
  C      -3.069251      2.092370      1.882298
  C      -1.881448      2.694318      1.479841
  C      -0.650563      2.141444      1.835954
  C      -0.627858      0.969344      2.597612
  C      -1.812415      0.371086      3.003178
  C      -3.037177      0.932304      2.646925
  H      -4.017563      2.531390      1.599670
  H      -3.960403      0.461884      2.960061
  H      -1.908440      3.600928      0.887337
  H       0.318521      0.509313      2.858278
  H      -1.782237     -0.538609      3.589099
  C       0.603909      2.820169      1.416422
  N       1.486668      3.211665      2.537019
  H       1.681226      2.398240      3.115226
  H       0.976028      3.864818      3.132302
  H       0.448472      3.665933      0.757319
  H       1.468049      1.866610      0.561430
  Cu      3.186941      4.041252      2.053067
18
Coordinates from ORCA-job ./orca E -1967.137780507717
  C      -3.074411      2.080427      1.868733
  C      -1.887410      2.692927      1.480440
  C      -0.655869      2.149744      1.849264
  C      -0.631892      0.978700      2.611871
  C      -1.815756      0.370042      3.003964
  C      -3.041074      0.919790      2.633002
  H      -4.023126      2.511250      1.575209
  H      -3.963649      0.440866      2.934914
  H      -1.915421      3.599551      0.887947
  H       0.315266      0.527424      2.884485
  H      -1.784053     -0.539143      3.590653
  C       0.598949      2.833590      1.438901
  N       1.506032      3.218966      2.541097
  H       1.694472      2.409349      3.127674
  H       1.018681      3.885787      3.140881
  H       0.429265      3.684863      0.790357
  H       1.427506      1.880834      0.548523
  Cu      3.224949      3.989492      2.005125
18
Coordinates from ORCA-job ./orca E -1967.137784786866
  C      -3.075128      2.080605      1.866550
  C      -1.887570      2.693259      1.480178
  C      -0.656359      2.150289      1.850960
  C      -0.633499      0.979827      2.614401
  C      -1.817801      0.371343      3.005020
  C      -3.042673      0.920528      2.631649
  H      -4.023432      2.510893      1.570959
  H      -3.965590      0.441585      2.932487
  H      -1.914680      3.599476      0.887028
  H       0.313474      0.529162      2.888666
  H      -1.787173     -0.537400      3.592465
  C       0.598111      2.834513      1.440673
  N       1.508761      3.215956      2.540207
  H       1.711257      2.402214      3.116222
  H       1.019249      3.870438      3.151851
  H       0.431026      3.686434      0.792283
  H       1.431141      1.878384      0.558119
  Cu      3.213347      4.006954      1.993322
18
Coordinates from ORCA-job ./orca E -1967.137790981147
  C      -3.074879      2.079793      1.864886
  C      -1.887166      2.692378      1.478899
  C      -0.656052      2.150585      1.851700
  C      -0.633469      0.981249      2.616851
  C      -1.817921      0.372864      3.007184
  C      -3.042666      0.920868      2.631722
  H      -4.023044      2.509214      1.567598
  H      -3.965686      0.441937      2.932282
  H      -1.914027      3.597705      0.884366
  H       0.313301      0.531359      2.892921
  H      -1.787615     -0.534982      3.596037
  C       0.598207      2.834976      1.440295
  N       1.509839      3.212396      2.539407
  H       1.714099      2.397028      3.112413
  H       1.020959      3.864489      3.154217
  H       0.429134      3.689372      0.795687
  H       1.427910      1.883096      0.550046
  Cu      3.211535      4.010132      1.996529
18
Coordinates from ORCA-job ./orca E -1967.137795979644
  C      -3.075264      2.077218      1.860104
  C      -1.887420      2.690692      1.475897
  C      -0.656465      2.152226      1.853870
  C      -0.634109      0.985237      2.622636
  C      -1.818667      0.375966      3.011199
  C      -3.043253      0.920611      2.630409
  H      -4.023255      2.504288      1.558900
  H      -3.966322      0.441017      2.929763
  H      -1.913993      3.594408      0.878896
  H       0.312489      0.538099      2.903519
  H      -1.788801     -0.529899      3.603123
  C       0.597642      2.837403      1.442175
  N       1.513903      3.206110      2.538749
  H       1.724474      2.386591      3.103517
  H       1.027319      3.851057      3.162965
  H       0.424753      3.696464      0.804761
  H       1.420975      1.893171      0.537977
  Cu      3.208453      4.013801      1.994581
18
Coordinates from ORCA-job ./orca E -1967.137797072897
  C      -3.075884      2.074823      1.856042
  C      -1.888204      2.689651      1.473488
  C      -0.657234      2.154256      1.855599
  C      -0.634685      0.989092      2.627211
  C      -1.819101      0.378513      3.014159
  C      -3.043715      0.919995      2.628989
  H      -4.023887      2.499627      1.551691
  H      -3.966660      0.439454      2.927212
  H      -1.914943      3.592081      0.874541
  H       0.311867      0.544360      2.911939
  H      -1.789150     -0.525833      3.608399
  C       0.596696      2.840240      1.444278
  N       1.517346      3.201698      2.538701
  H       1.732605      2.378259      3.096011
  H       1.033215      3.840615      3.170972
  H       0.421457      3.702719      0.812092
  H       1.415508      1.900678      0.531154
  Cu      3.207230      4.014232      1.990563
18
Coordinates from ORCA-job ./orca E -1967.137821027434
  C      -3.076289      2.073487      1.853933
  C      -1.888784      2.689110      1.472052
  C      -0.657770      2.155462      1.856280
  C      -0.634996      0.991216      2.629395
  C      -1.819239      0.379897      3.015676
  C      -3.043940      0.919695      2.628354
  H      -4.024364      2.497016      1.548021
  H      -3.966771      0.438664      2.926149
  H      -1.915794      3.590800      0.872001
  H       0.311557      0.547715      2.915989
  H      -1.789068     -0.523627      3.611147
  C       0.596045      2.841952      1.445366
  N       1.519060      3.199535      2.538887
  H       1.736631      2.373735      3.091809
  H       1.036339      3.835116      3.175547
  H       0.419905      3.706077      0.815669
  H       1.412898      1.904567      0.528258
  Cu      3.207040      4.014044      1.988506
18
Coordinates from ORCA-job ./orca E -1967.140876821098
  C      -3.075711      2.073214      1.853324
  C      -1.888080      2.688439      1.471195
  C      -0.657174      2.154667      1.855596
  C      -0.634638      0.990700      2.629138
  C      -1.819005      0.379778      3.015666
  C      -3.043596      0.919699      2.628168
  H      -4.023700      2.496836      1.547274
  H      -3.966526      0.438977      2.926157
  H      -1.914907      3.589915      0.870814
  H       0.311825      0.547099      2.915877
  H      -1.789018     -0.523534      3.611468
  C       0.596781      2.840735      1.444406
  N       1.519894      3.198520      2.537779
  H       1.737297      2.372875      3.091000
  H       1.037322      3.834439      3.174214
  H       0.420816      3.704667      0.814395
  H       1.402840      1.914972      0.539499
  Cu      3.208039      4.012462      1.987067
18
Coordinates from ORCA-job ./orca E -1967.140892343702
  C      -3.075522      2.073960      1.854299
  C      -1.887647      2.688786      1.472046
  C      -0.656844      2.154023      1.855248
  C      -0.634768      0.989614      2.628189
  C      -1.819326      0.379242      3.015111
  C      -3.043790      0.920127      2.628584
  H      -4.023417      2.498326      1.548948
  H      -3.966870      0.439933      2.926964
  H      -1.914291      3.590604      0.872172
  H       0.311579      0.545281      2.914241
  H      -1.789578     -0.524345      3.610517
  C       0.598184      2.838730      1.442708
  N       1.519336      3.199614      2.537720
  H       1.737554      2.374768      3.091785
  H       1.034868      3.834954      3.173171
  H       0.421427      3.702679      0.812691
  H       1.404696      1.911724      0.539479
  Cu      3.206868      4.016441      1.989167
18
Coordinates from ORCA-job ./orca E -1967.140884988579
  C      -3.075016      2.075687      1.856501
  C      -1.886844      2.689218      1.472894
  C      -0.656258      2.152629      1.853844
  C      -0.634630      0.987504      2.625744
  C      -1.819386      0.378327      3.013954
  C      -3.043723      0.921129      2.629645
  H      -4.022787      2.501543      1.552844
  H      -3.966998      0.441876      2.928938
  H      -1.913273      3.591618      0.873857
  H       0.311623      0.541940      2.910237
  H      -1.789918     -0.525770      3.608606
  C       0.599953      2.835857      1.440286
  N       1.517527      3.201386      2.537608
  H       1.736439      2.377830      3.093366
  H       1.029767      3.836297      3.170839
  H       0.422657      3.699034      0.809221
  H       1.408745      1.906322      0.541707
  Cu      3.204580      4.022034      1.992947
18
Coordinates from ORCA-job ./orca E -1967.140908241123
  C      -3.074630      2.077001      1.858207
  C      -1.886287      2.689633      1.473610
  C      -0.655862      2.151572      1.852781
  C      -0.634438      0.985822      2.623744
  C      -1.819312      0.377497      3.012897
  C      -3.043574      0.921847      2.630451
  H      -4.022330      2.503989      1.555914
  H      -3.966972      0.443239      2.930395
  H      -1.912576      3.592461      0.875207
  H       0.311790      0.539233      2.906732
  H      -1.790034     -0.527128      3.606751
  C       0.600805      2.834167      1.439096
  N       1.516028      3.202915      2.537517
  H       1.734950      2.380490      3.094948
  H       1.026190      3.838209      3.168740
  H       0.423749      3.696038      0.806162
  H       1.411823      1.902434      0.544808
  Cu      3.203140      4.025042      1.995080
18
Coordinates from ORCA-job ./orca E -1967.140887524675
  C      -3.073671      2.080290      1.862618
  C      -1.884921      2.690865      1.475784
  C      -0.654874      2.148966      1.850354
  C      -0.633930      0.981458      2.618679
  C      -1.819098      0.375131      3.009946
  C      -3.043155      0.923422      2.632269
  H      -4.021189      2.510141      1.563833
  H      -3.966849      0.446318      2.933702
  H      -1.910843      3.594885      0.879145
  H       0.312268      0.532203      2.897566
  H      -1.790336     -0.531016      3.601502
  C       0.602585      2.830246      1.436713
  N       1.512173      3.207249      2.537251
  H       1.730373      2.388020      3.099672
  H       1.017665      3.844503      3.162853
  H       0.426835      3.687955      0.797826
  H       1.419364      1.892704      0.553812
  Cu      3.200063      4.031119      1.999516
18
Coordinates from ORCA-job ./orca E -1967.140887398017
  C      -3.071968      2.085780      1.870240
  C      -1.882561      2.693000      1.479876
  C      -0.653161      2.144509      1.846556
  C      -0.633128      0.973800      2.610035
  C      -1.818809      0.370710      3.004553
  C      -3.042413      0.925773      2.635116
  H      -4.019137      2.520574      1.577576
  H      -3.966607      0.451174      2.938966
  H      -1.907754      3.599275      0.886672
  H       0.313015      0.520045      2.881861
  H      -1.791024     -0.538141      3.591987
  C       0.605484      2.823702      1.433182
  N       1.505511      3.215259      2.536797
  H       1.721392      2.402094      3.108900
  H       1.003720      3.857056      3.151920
  H       0.432616      3.673617      0.783172
  H       1.431716      1.876622      0.569466
  Cu      3.195568      4.039611      2.006166
18
Coordinates from ORCA-job ./orca E -1967.140874595955
  C      -3.071850      2.086134      1.870977
  C      -1.882453      2.693317      1.480544
  C      -0.653022      2.144244      1.846412
  C      -0.632981      0.973142      2.609262
  C      -1.818665      0.370133      3.003892
  C      -3.042256      0.925681      2.635186
  H      -4.019037      2.521272      1.578880
  H      -3.966450      0.451128      2.939110
  H      -1.907599      3.599931      0.887855
  H       0.313269      0.519179      2.880412
  H      -1.790921     -0.539043      3.590827
  C       0.605554      2.823386      1.433168
  N       1.504765      3.216333      2.536816
  H       1.719233      2.404056      3.110754
  H       1.002947      3.859728      3.150253
  H       0.433431      3.672196      0.781528
  H       1.432404      1.875567      0.570856
  Cu      3.196092      4.038076      2.006306
18
Coordinates from ORCA-job ./orca E -1967.144024410931
  C      -3.071251      2.085857      1.870373
  C      -1.881725      2.692638      1.479708
  C      -0.652411      2.143428      1.845764
  C      -0.632618      0.972600      2.609040
  C      -1.818431      0.369994      3.003901
  C      -3.041905      0.925676      2.635004
  H      -4.018346      2.521096      1.578127
  H      -3.966199      0.451436      2.939110
  H      -1.906678      3.599041      0.886689
  H       0.313535      0.518528      2.880347
  H      -1.790881     -0.538974      3.591166
  C       0.606310      2.822145      1.432261
  N       1.505617      3.215297      2.535758
  H       1.719913      2.403181      3.109989
  H       1.003946      3.859025      3.148965
  H       0.434366      3.670756      0.780313
  H       1.422100      1.886261      0.581595
  Cu      3.197119      4.036476      2.004932
18
Coordinates from ORCA-job ./orca E -1967.143964593179
  C      -3.071013      2.086637      1.871569
  C      -1.881251      2.693127      1.481085
  C      -0.652016      2.142764      1.845776
  C      -0.632739      0.971285      2.608024
  C      -1.818785      0.369070      3.002976
  C      -3.042063      0.925783      2.635183
  H      -4.017993      2.522724      1.580173
  H      -3.966511      0.451920      2.939433
  H      -1.905881      3.600123      0.888965
  H       0.313296      0.516437      2.878543
  H      -1.791532     -0.540374      3.589534
  C       0.607763      2.820056      1.430904
  N       1.504880      3.217012      2.535632
  H       1.718849      2.406455      3.112185
  H       1.001722      3.861569      3.146631
  H       0.435293      3.668320      0.778374
  H       1.423894      1.882956      0.581906
  Cu      3.196547      4.038594      2.006146
18
Coordinates from ORCA-job ./orca E -1967.143967593068
  C      -3.070441      2.088246      1.873960
  C      -1.880481      2.693709      1.482470
  C      -0.651402      2.141456      1.844692
  C      -0.632500      0.969074      2.605449
  C      -1.818722      0.367757      3.001422
  C      -3.041828      0.926303      2.635979
  H      -4.017314      2.525785      1.584396
  H      -3.966418      0.453116      2.940859
  H      -1.904788      3.601543      0.891590
  H       0.313502      0.513148      2.874369
  H      -1.791719     -0.542374      3.586931
  C       0.609443      2.817382      1.428970
  N       1.502785      3.219426      2.535526
  H       1.715266      2.411097      3.115835
  H       0.997212      3.865782      3.142486
  H       0.436816      3.664543      0.774900
  H       1.427523      1.878063      0.584311
  Cu      3.195526      4.040404      2.008896
18
Coordinates from ORCA-job ./orca E -1967.143912262961
  C      -3.069945      2.089606      1.876048
  C      -1.879908      2.694259      1.483562
  C      -0.650958      2.140383      1.843611
  C      -0.632186      0.967170      2.603042
  C      -1.818470      0.366583      2.999972
  C      -3.041479      0.926792      2.636778
  H      -4.016767      2.528348      1.588156
  H      -3.966148      0.454160      2.942272
  H      -1.904046      3.602707      0.893607
  H       0.313848      0.510221      2.870168
  H      -1.791607     -0.544250      3.584393
  C       0.610392      2.815652      1.427802
  N       1.500837      3.221571      2.535468
  H       1.711480      2.415148      3.119127
  H       0.993543      3.870026      3.138720
  H       0.438186      3.661257      0.771576
  H       1.430696      1.874079      0.587822
  Cu      3.194991      4.040748      2.010914
18
Coordinates from ORCA-job ./orca E -1967.147020064074
  C      -3.069341      2.089327      1.875445
  C      -1.879175      2.693576      1.482731
  C      -0.650344      2.139562      1.842973
  C      -0.631824      0.966620      2.602829
  C      -1.818237      0.366439      2.999986
  C      -3.041126      0.926784      2.636597
  H      -4.016069      2.528173      1.587400
  H      -3.965896      0.454466      2.942270
  H      -1.903117      3.601816      0.892447
  H       0.314111      0.509561      2.870115
  H      -1.791570     -0.544188      3.584738
  C       0.611151      2.814403      1.426909
  N       1.501694      3.220529      2.534421
  H       1.712163      2.414271      3.118372
  H       0.994546      3.869314      3.137442
  H       0.439127      3.659807      0.770378
  H       1.420342      1.884857      0.598428
  Cu      3.196024      4.039143      2.009558
18
Coordinates from ORCA-job ./orca E -1967.147025124669
  C      -3.068905      2.090608      1.877217
  C      -1.878481      2.694176      1.484114
  C      -0.649845      2.138498      1.842387
  C      -0.631810      0.964737      2.600968
  C      -1.818453      0.365309      2.998708
  C      -3.041125      0.927283      2.637173
  H      -4.015486      2.530690      1.590546
  H      -3.966074      0.455627      2.943337
  H      -1.902111      3.603032      0.894767
  H       0.313982      0.506481      2.866795
  H      -1.792121     -0.545965      3.582477
  C       0.612608      2.812031      1.425429
  N       1.500347      3.222579      2.534235
  H       1.710538      2.418093      3.120709
  H       0.991024      3.872162      3.134478
  H       0.440327      3.656408      0.767449
  H       1.423356      1.880364      0.600863
  Cu      3.194690      4.042348      2.011386
18
Coordinates from ORCA-job ./orca E -1967.147028572322
  C      -3.067539      2.094368      1.882486
  C      -1.876644      2.695619      1.487105
  C      -0.648553      2.135481      1.839859
  C      -0.631365      0.959670      2.595154
  C      -1.818390      0.362413      2.995168
  C      -3.040609      0.928808      2.639061
  H      -4.013806      2.537778      1.599912
  H      -3.965919      0.458856      2.946770
  H      -1.899630      3.606064      0.900167
  H       0.314235      0.498560      2.856836
  H      -1.792733     -0.550531      3.576360
  C       0.615734      2.806509      1.421935
  N       1.495816      3.227841      2.533805
  H       1.704000      2.427844      3.127188
  H       0.980966      3.880244      3.126062
  H       0.443829      3.647260      0.759015
  H       1.431821      1.868971      0.609377
  Cu      3.191248      4.048706      2.016779
18
Coordinates from ORCA-job ./orca E -1967.146941280383
  C      -3.066702      2.096593      1.885742
  C      -1.875623      2.696553      1.488889
  C      -0.647840      2.133722      1.838238
  C      -0.630992      0.956589      2.591448
  C      -1.818162      0.360574      2.992888
  C      -3.040141      0.929691      2.640266
  H      -4.012811      2.541944      1.605731
  H      -3.965617      0.460685      2.948909
  H      -1.898310      3.607924      0.903360
  H       0.314594      0.493815      2.850290
  H      -1.792856     -0.553479      3.572349
  C       0.617099      2.803790      1.420399
  N       1.492880      3.231173      2.533564
  H       1.699067      2.433922      3.131374
  H       0.975196      3.885964      3.120685
  H       0.446239      3.641534      0.753413
  H       1.436790      1.862485      0.615865
  Cu      3.189646      4.050981      2.019630
18
Coordinates from ORCA-job ./orca E -1967.147029641224
  C      -3.065779      2.098949      1.889223
  C      -1.874461      2.697475      1.490867
  C      -0.647038      2.131792      1.836726
  C      -0.630679      0.953176      2.587601
  C      -1.818049      0.358439      2.990324
  C      -3.039715      0.930550      2.641446
  H      -4.011684      2.546476      1.612002
  H      -3.965402      0.462605      2.951067
  H      -1.896744      3.609910      0.906987
  H       0.314825      0.488524      2.843411
  H      -1.793201     -0.556858      3.567833
  C       0.618557      2.800857      1.418980
  N       1.489815      3.234953      2.533294
  H       1.693887      2.440871      3.136061
  H       0.969240      3.892455      3.114791
  H       0.448912      3.635203      0.747414
  H       1.441971      1.855703      0.622802
  Cu      3.188006      4.053379      2.022212
18
Coordinates from ORCA-job ./orca E -1967.147011969967
  C      -3.065503      2.099703      1.890489
  C      -1.874157      2.698006      1.491864
  C      -0.646825      2.131222      1.836330
  C      -0.630529      0.951984      2.586241
  C      -1.817910      0.357582      2.989325
  C      -3.039501      0.930654      2.641694
  H      -4.011379      2.547862      1.614186
  H      -3.965234      0.462890      2.951459
  H      -1.896353      3.610823      0.908586
  H       0.315070      0.486817      2.840726
  H      -1.793198     -0.558272      3.565951
  C       0.618579      2.800353      1.419086
  N       1.488697      3.236541      2.533198
  H       1.691351      2.443653      3.138052
  H       0.967694      3.895711      3.112471
  H       0.450247      3.632595      0.744667
  H       1.443429      1.853587      0.626318
  Cu      3.187982      4.052752      2.022395
18
Coordinates from ORCA-job ./orca E -1967.147026477781
  C      -3.064648      2.101960      1.894077
  C      -1.873121      2.699274      1.494435
  C      -0.646103      2.129496      1.835187
  C      -0.630204      0.948583      2.582466
  C      -1.817719      0.355233      2.986559
  C      -3.039022      0.931165      2.642551
  H      -4.010357      2.552095      1.620456
  H      -3.964930      0.464114      2.952875
  H      -1.894951      3.613253      0.912967
  H       0.315523      0.481843      2.833595
  H      -1.793472     -0.562048      3.560931
  C       0.619444      2.798020      1.418501
  N       1.485592      3.240792      2.532867
  H       1.685109      2.451295      3.143261
  H       0.962562      3.903700      3.106081
  H       0.453636      3.625491      0.737713
  H       1.447986      1.847058      0.634656
  Cu      3.187133      4.053134      2.023863
18
Coordinates from ORCA-job ./orca E -1967.147049431401
  C      -3.064846      2.101423      1.893183
  C      -1.873339      2.698932      1.493794
  C      -0.646255      2.129879      1.835488
  C      -0.630312      0.949378      2.583419
  C      -1.817816      0.355803      2.987255
  C      -3.039170      0.931062      2.642341
  H      -4.010583      2.551105      1.618903
  H      -3.965048      0.463858      2.952520
  H      -1.895219      3.612653      0.911919
  H       0.315386      0.483050      2.835418
  H      -1.793492     -0.561105      3.562222
  C       0.619314      2.798485      1.418595
  N       1.486381      3.239732      2.532954
  H       1.686815      2.449395      3.141938
  H       0.963759      3.901574      3.107740
  H       0.452813      3.627206      0.739458
  H       1.446884      1.848634      0.632378
  Cu      3.187187      4.053397      2.023515
18
Coordinates from ORCA-job ./orca E -1967.150016317672
  C      -3.064224      2.101141      1.892586
  C      -1.872584      2.698242      1.492984
  C      -0.645627      2.129039      1.834886
  C      -0.629947      0.948803      2.583241
  C      -1.817584      0.355638      2.987289
  C      -3.038809      0.931044      2.642165
  H      -4.009860      2.550934      1.618142
  H      -3.964792      0.464157      2.952510
  H      -1.894258      3.611758      0.910781
  H       0.315647      0.482356      2.835411
  H      -1.793465     -0.561068      3.562586
  C       0.620092      2.797214      1.417755
  N       1.487255      3.238669      2.531957
  H       1.687511      2.448508      3.141226
  H       0.964778      3.900834      3.106503
  H       0.453777      3.625728      0.738319
  H       1.436307      1.859689      0.642471
  Cu      3.188243      4.051773      2.022230
18
Coordinates from ORCA-job ./orca E -1967.150063970556
  C      -3.063906      2.101954      1.893553
  C      -1.871977      2.698609      1.494055
  C      -0.645222      2.128333      1.834853
  C      -0.630133      0.947620      2.582419
  C      -1.818034      0.354968      2.986608
  C      -3.039006      0.931375      2.642387
  H      -4.009362      2.552567      1.619788
  H      -3.965172      0.464957      2.952907
  H      -1.893275      3.612552      0.912512
  H       0.315256      0.480412      2.834046
  H      -1.794287     -0.562074      3.561398
  C       0.621537      2.795057      1.416485
  N       1.486675      3.239847      2.531736
  H       1.687693      2.450806      3.142184
  H       0.962426      3.901610      3.105004
  H       0.454377      3.623550      0.736991
  H       1.438156      1.856593      0.642764
  Cu      3.186711      4.055726      2.023352
18
Coordinates from ORCA-job ./orca E -1967.150065118223
  C      -3.063274      2.103479      1.895421
  C      -1.871064      2.699002      1.495055
  C      -0.644635      2.127056      1.833988
  C      -0.630136      0.945690      2.580462
  C      -1.818295      0.354033      2.985498
  C      -3.038957      0.932115      2.643084
  H      -4.008496      2.555413      1.623034
  H      -3.965327      0.466449      2.954121
  H      -1.891929      3.613509      0.914347
  H       0.315026      0.477416      2.830990
  H      -1.794971     -0.563498      3.559534
  C       0.623166      2.792411      1.414875
  N       1.485178      3.241448      2.531463
  H       1.686720      2.453908      3.143728
  H       0.958283      3.902965      3.102450
  H       0.455452      3.620234      0.734573
  H       1.441438      1.852245      0.644976
  Cu      3.184284      4.060584      2.025439
18
Coordinates from ORCA-job ./orca E -1967.150036156020
  C      -3.062881      2.104426      1.896646
  C      -1.870545      2.699314      1.495728
  C      -0.644316      2.126264      1.833417
  C      -0.630088      0.944421      2.579124
  C      -1.818371      0.353342      2.984668
  C      -3.038857      0.932556      2.643543
  H      -4.007975      2.557184      1.625196
  H      -3.965341      0.467327      2.954891
  H      -1.891187      3.614146      0.915516
  H       0.314963      0.475398      2.828665
  H      -1.795285     -0.564606      3.558042
  C       0.623814      2.791165      1.414281
  N       1.484170      3.242623      2.531298
  H       1.685667      2.456097      3.144888
  H       0.955908      3.904456      3.100650
  H       0.456293      3.617938      0.732646
  H       1.443452      1.849625      0.647520
  Cu      3.183038      4.062785      2.026320
18
Coordinates from ORCA-job ./orca E -1967.153068197577
  C      -3.062255      2.104143      1.896049
  C      -1.869785      2.698621      1.494923
  C      -0.643685      2.125420      1.832823
  C      -0.629723      0.943842      2.578954
  C      -1.818139      0.353172      2.984706
  C      -3.038495      0.932536      2.643368
  H      -4.007248      2.557013      1.624433
  H      -3.965084      0.467625      2.954879
  H      -1.890221      3.613250      0.914382
  H       0.315222      0.474698      2.828669
  H      -1.795260     -0.564575      3.558410
  C       0.624595      2.789888      1.413453
  N       1.485046      3.241556      2.530312
  H       1.686366      2.455205      3.144186
  H       0.956929      3.903711      3.099424
  H       0.457260      3.616454      0.731521
  H       1.432837      1.860744      0.657502
  Cu      3.184099      4.061158      2.025047
18
Coordinates from ORCA-job ./orca E -1967.153048559722
  C      -3.061753      2.105330      1.897538
  C      -1.868967      2.699160      1.496297
  C      -0.643160      2.124416      1.832553
  C      -0.629827      0.942130      2.577512
  C      -1.818533      0.352177      2.983607
  C      -3.038578      0.933010      2.643750
  H      -4.006523      2.559338      1.627014
  H      -3.965383      0.468722      2.955561
  H      -1.888967      3.614343      0.916618
  H       0.314880      0.471901      2.826166
  H      -1.796096     -0.566121      3.556456
  C       0.626057      2.787470      1.412231
  N       1.483943      3.243308      2.530032
  H       1.685701      2.458544      3.145771
  H       0.953747      3.905524      3.097025
  H       0.458277      3.613211      0.729228
  H       1.435415      1.856725      0.659451
  Cu      3.182227      4.065274      2.026230
18
Coordinates from ORCA-job ./orca E -1967.153077880057
  C      -3.060244      2.108800      1.902014
  C      -1.866806      2.700290      1.499194
  C      -0.641808      2.121445      1.831007
  C      -0.629851      0.937322      2.572942
  C      -1.819171      0.349479      2.980513
  C      -3.038441      0.934449      2.645106
  H      -4.004447      2.565968      1.634839
  H      -3.965754      0.471828      2.957899
  H      -1.885760      3.616909      0.921717
  H       0.314294      0.464270      2.818403
  H      -1.797802     -0.570316      3.551003
  C       0.629130      2.781996      1.409710
  N       1.480377      3.247941      2.529362
  H       1.682403      2.467321      3.150316
  H       0.944956      3.911051      3.090196
  H       0.461331      3.604446      0.722561
  H       1.442661      1.846827      0.666978
  Cu      3.177392      4.074434      2.029281
18
Coordinates from ORCA-job ./orca E -1967.153116924316
  C      -3.059324      2.110880      1.904793
  C      -1.865554      2.701042      1.501019
  C      -0.641035      2.119614      1.829998
  C      -0.629822      0.934276      2.569979
  C      -1.819469      0.347722      2.978501
  C      -3.038277      0.935284      2.645960
  H      -4.003194      2.569945      1.639722
  H      -3.965874      0.473629      2.959330
  H      -1.883926      3.618506      0.924852
  H       0.314026      0.459471      2.813184
  H      -1.798734     -0.573091      3.547371
  C       0.630522      2.779239      1.408745
  N       1.478118      3.250953      2.528953
  H       1.679816      2.472938      3.153304
  H       0.939914      3.915167      3.085797
  H       0.463500      3.598842      0.718002
  H       1.446976      1.841127      0.672963
  Cu      3.174796      4.078915      2.030565
18
Coordinates from ORCA-job ./orca E -1967.153085403981
  C      -3.056006      2.118177      1.914792
  C      -1.861021      2.703801      1.507969
  C      -0.638259      2.113144      1.826950
  C      -0.629826      0.923285      2.559589
  C      -1.820668      0.341089      2.970956
  C      -3.037742      0.937932      2.648665
  H      -3.998632      2.584031      1.657248
  H      -3.966377      0.479593      2.963843
  H      -1.877223      3.624416      0.936721
  H       0.312927      0.442197      2.794432
  H      -1.802336     -0.583545      3.533683
  C       0.634987      2.769928      1.406301
  N       1.470126      3.262280      2.527338
  H       1.670031      2.494012      3.164326
  H       0.922780      3.931191      3.069539
  H       0.471860      3.577992      0.701253
  H       1.461736      1.821354      0.695865
  Cu      3.166103      4.093584      2.033570
18
Coordinates from ORCA-job ./orca E -1967.153086958312
  C      -3.050883      2.128527      1.929381
  C      -1.854079      2.707650      1.518666
  C      -0.634090      2.103683      1.823351
  C      -0.630171      0.907089      2.544868
  C      -1.822868      0.330991      2.959551
  C      -3.037075      0.941323      2.652091
  H      -3.991464      2.604386      1.682904
  H      -3.967272      0.487789      2.969613
  H      -1.866784      3.633155      0.955303
  H       0.310860      0.417036      2.767855
  H      -1.808374     -0.599248      3.513055
  C       0.641511      2.756374      1.403606
  N       1.458474      3.279379      2.524582
  H       1.654986      2.526297      3.180569
  H       0.898615      3.955481      3.044666
  H       0.484835      3.546726      0.677316
  H       1.482337      1.793876      0.729341
  Cu      3.153904      4.113947      2.036322
18
Coordinates from ORCA-job ./orca E -1967.153088924179
  C      -3.047962      2.133887      1.937341
  C      -1.850231      2.709657      1.524727
  C      -0.631746      2.098566      1.821577
  C      -0.630319      0.898386      2.536964
  C      -1.824007      0.325355      2.953161
  C      -3.036593      0.942780      2.653707
  H      -3.987388      2.615170      1.697063
  H      -3.967585      0.491749      2.972475
  H      -1.860959      3.638061      0.966097
  H       0.309841      0.404025      2.754025
  H      -1.811605     -0.607866      3.501673
  C       0.645007      2.749151      1.402358
  N       1.451752      3.288883      2.522918
  H       1.644801      2.544641      3.190024
  H       0.885816      3.969845      3.029956
  H       0.492296      3.529622      0.664603
  H       1.492970      1.780131      0.746627
  Cu      3.148373      4.122416      2.037743
18
Coordinates from ORCA-job ./orca E -1967.153083638628
  C      -3.047725      2.134092      1.938151
  C      -1.850032      2.709810      1.525484
  C      -0.631513      2.098204      1.821511
  C      -0.630139      0.897710      2.536243
  C      -1.823846      0.324648      2.952409
  C      -3.036376      0.942465      2.653713
  H      -3.987133      2.615792      1.698631
  H      -3.967339      0.491457      2.972587
  H      -1.860649      3.638692      0.967642
  H       0.310139      0.403496      2.753065
  H      -1.811473     -0.608857      3.500444
  C       0.645124      2.748842      1.402339
  N       1.450686      3.290139      2.522840
  H       1.641054      2.547333      3.192354
  H       0.885177      3.973413      3.027233
  H       0.493253      3.528231      0.663238
  H       1.493427      1.779911      0.746914
  Cu      3.149826      4.119083      2.038243
18
Coordinates from ORCA-job ./orca E -1967.156092283213
  C      -3.047057      2.133801      1.937569
  C      -1.849223      2.709105      1.524736
  C      -0.630850      2.097326      1.821006
  C      -0.629767      0.897079      2.536154
  C      -1.823614      0.324431      2.952487
  C      -3.035997      0.942419      2.653544
  H      -3.986350      2.615630      1.697858
  H      -3.967070      0.491732      2.972551
  H      -1.859615      3.637796      0.966571
  H       0.310394      0.402728      2.753172
  H      -1.811467     -0.608887      3.500845
  C       0.645945      2.747530      1.401642
  N       1.451600      3.289033      2.521978
  H       1.641783      2.546415      3.191754
  H       0.886232      3.972609      3.026119
  H       0.494271      3.526697      0.662268
  H       1.482305      1.791591      0.755648
  Cu      3.150940      4.117425      2.037138
18
Coordinates from ORCA-job ./orca E -1967.156102885008
  C      -3.046707      2.134427      1.938496
  C      -1.848657      2.709486      1.525911
  C      -0.630491      2.096852      1.821186
  C      -0.629872      0.896114      2.535415
  C      -1.823911      0.323785      2.951814
  C      -3.036056      0.942553      2.653696
  H      -3.985850      2.616847      1.699332
  H      -3.967256      0.492116      2.972709
  H      -1.858710      3.638518      0.968313
  H       0.310111      0.401097      2.751823
  H      -1.812051     -0.609902      3.499563
  C       0.647219      2.745652      1.400757
  N       1.450862      3.290267      2.521735
  H       1.640565      2.549117      3.193256
  H       0.884416      3.974333      3.023814
  H       0.494621      3.524935      0.661509
  H       1.483889      1.789253      0.755847
  Cu      3.150337      4.119012      2.037864
18
Coordinates from ORCA-job ./orca E -1967.156102119412
  C      -3.045936      2.135720      1.940494
  C      -1.847730      2.709854      1.527129
  C      -0.629930      2.095695      1.820472
  C      -0.629811      0.894239      2.533388
  C      -1.824021      0.322631      2.950469
  C      -3.035806      0.942945      2.654287
  H      -3.984838      2.619366      1.702863
  H      -3.967141      0.493100      2.973746
  H      -1.857353      3.639529      0.970561
  H       0.309927      0.398225      2.748602
  H      -1.812521     -0.611616      3.497276
  C       0.648760      2.743222      1.399551
  N       1.449001      3.292275      2.521403
  H       1.637020      2.553516      3.196070
  H       0.880827      3.977769      3.019415
  H       0.495596      3.521882      0.659635
  H       1.486953      1.785833      0.758096
  Cu      3.149464      4.120272      2.039585
18
Coordinates from ORCA-job ./orca E -1967.156077046486
  C      -3.045426      2.136549      1.941893
  C      -1.847166      2.710149      1.527991
  C      -0.629597      2.094900      1.819908
  C      -0.629724      0.892877      2.531839
  C      -1.824006      0.321741      2.949427
  C      -3.035567      0.943181      2.654741
  H      -3.984184      2.621022      1.705392
  H      -3.966974      0.493730      2.974542
  H      -1.856572      3.640245      0.972110
  H       0.309872      0.396148      2.745984
  H      -1.812723     -0.612974      3.495439
  C       0.649413      2.742060      1.399100
  N       1.447687      3.293809      2.521174
  H       1.634118      2.556736      3.198134
  H       0.878646      3.980743      3.016185
  H       0.496519      3.519597      0.657927
  H       1.488905      1.783702      0.760800
  Cu      3.149240      4.120243      2.040457
18
Coordinates from ORCA-job ./orca E -1967.159107719000
  C      -3.044754      2.136257      1.941312
  C      -1.846353      2.709443      1.527246
  C      -0.628932      2.094019      1.819411
  C      -0.629352      0.892242      2.531758
  C      -1.823775      0.321521      2.949508
  C      -3.035187      0.943133      2.654573
  H      -3.983397      2.620861      1.704617
  H      -3.966704      0.494004      2.974503
  H      -1.855533      3.639349      0.971044
  H       0.310127      0.395375      2.746101
  H      -1.812719     -0.613008      3.495844
  C       0.650237      2.740744      1.398416
  N       1.448603      3.292700      2.520322
  H       1.634848      2.555819      3.197542
  H       0.879705      3.979934      3.015079
  H       0.497540      3.518060      0.656969
  H       1.477747      1.795426      0.769429
  Cu      3.150357      4.118583      2.039367
18
Coordinates from ORCA-job ./orca E -1967.159091516345
  C      -3.044114      2.137346      1.942808
  C      -1.845434      2.709938      1.528686
  C      -0.628387      2.093050      1.819233
  C      -0.629443      0.890573      2.530318
  C      -1.824129      0.320483      2.948316
  C      -3.035161      0.943495      2.654862
  H      -3.982488      2.623028      1.707230
  H      -3.966871      0.494936      2.975039
  H      -1.854137      3.640402      0.973412
  H       0.309760      0.392713      2.743662
  H      -1.813546     -0.614580      3.493753
  C       0.651587      2.738486      1.397584
  N       1.447320      3.294500      2.519936
  H       1.633235      2.559499      3.199274
  H       0.876774      3.982179      3.012042
  H       0.498535      3.514881      0.655106
  H       1.480156      1.792037      0.771699
  Cu      3.148802      4.121494      2.040080
18
Coordinates from ORCA-job ./orca E -1967.159116335537
  C      -3.042059      2.140805      1.947800
  C      -1.842813      2.711073      1.532126
  C      -0.626854      2.089883      1.817731
  C      -0.629491      0.885404      2.525250
  C      -1.824758      0.317357      2.944625
  C      -3.034708      0.944703      2.656171
  H      -3.979665      2.629822      1.716070
  H      -3.966891      0.497869      2.977392
  H      -1.850283      3.643185      0.979560
  H       0.308956      0.384682      2.735212
  H      -1.815431     -0.619311      3.487334
  C       0.654833      2.732817      1.395616
  N       1.442881      3.299848      2.518868
  H       1.626544      2.570384      3.204795
  H       0.867803      3.989694      3.002381
  H       0.502131      3.505325      0.648840
  H       1.487579      1.782910      0.780607
  Cu      3.144686      4.128009      2.042661
18
Coordinates from ORCA-job ./orca E -1967.159112467422
  C      -3.041213      2.142193      1.950000
  C      -1.841837      2.711607      1.533586
  C      -0.626289      2.088557      1.816887
  C      -0.629427      0.883191      2.522849
  C      -1.824850      0.315996      2.943006
  C      -3.034385      0.945163      2.656848
  H      -3.978540      2.632534      1.719977
  H      -3.966713      0.498988      2.978557
  H      -1.848917      3.644359      0.982083
  H       0.308770      0.381301      2.731066
  H      -1.815968     -0.621403      3.484453
  C       0.655764      2.731031      1.395099
  N       1.440859      3.302242      2.518424
  H       1.622727      2.575145      3.207360
  H       0.864309      3.993643      2.997944
  H       0.504035      3.501157      0.645670
  H       1.490580      1.779463      0.785487
  Cu      3.143556      4.129293      2.043745
18
Coordinates from ORCA-job ./orca E -1967.159121807380
  C      -3.039348      2.145217      1.955093
  C      -1.839769      2.712883      1.537054
  C      -0.625076      2.085657      1.815082
  C      -0.629241      0.878165      2.517313
  C      -1.824962      0.312749      2.939146
  C      -3.033581      0.945997      2.658323
  H      -3.976096      2.638474      1.729021
  H      -3.966194      0.501224      2.981138
  H      -1.846056      3.647116      0.988058
  H       0.308484      0.373685      2.721209
  H      -1.817025     -0.626382      3.477585
  C       0.657430      2.727578      1.394374
  N       1.436221      3.308010      2.517365
  H       1.612940      2.586470      3.213478
  H       0.857003      4.003737      2.987370
  H       0.508940      3.491316      0.637849
  H       1.496971      1.772029      0.797614
  Cu      3.141820      4.130535      2.045966
18
Coordinates from ORCA-job ./orca E -1967.159126583127
  C      -3.036886      2.149091      1.961647
  C      -1.836901      2.714423      1.541725
  C      -0.623367      2.081978      1.813369
  C      -0.629140      0.871690      2.510593
  C      -1.825367      0.308407      2.934010
  C      -3.032710      0.946944      2.659978
  H      -3.972804      2.646221      1.740647
  H      -3.965751      0.503987      2.984073
  H      -1.841954      3.650768      0.996300
  H       0.307863      0.363806      2.709102
  H      -1.818795     -0.633007      3.468471
  C       0.659904      2.722623      1.393491
  N       1.430369      3.315657      2.515820
  H       1.600656      2.601639      3.221284
  H       0.847701      4.016729      2.973516
  H       0.515246      3.478285      0.628199
  H       1.504978      1.762366      0.812301
  Cu      3.139418      4.132852      2.048513
18
Coordinates from ORCA-job ./orca E -1967.159153966854
  C      -3.037505      2.148101      1.960045
  C      -1.837593      2.714056      1.540713
  C      -0.623750      2.082896      1.813934
  C      -0.629167      0.873263      2.512321
  C      -1.825287      0.309418      2.935244
  C      -3.032950      0.946621      2.659500
  H      -3.973631      2.644273      1.737773
  H      -3.965890      0.503178      2.983221
  H      -1.842923      3.649949      0.994518
  H       0.308018      0.366233      2.712174
  H      -1.818384     -0.631454      3.470658
  C       0.659294      2.723829      1.393753
  N       1.431800      3.313910      2.516168
  H       1.603363      2.598153      3.219553
  H       0.850139      4.013908      2.976764
  H       0.513792      3.481377      0.630469
  H       1.502900      1.764820      0.808384
  Cu      3.140235      4.131929      2.047847
18
Coordinates from ORCA-job ./orca E -1967.162254908217
  C      -3.036817      2.147807      1.959471
  C      -1.836760      2.713345      1.539993
  C      -0.623071      2.082002      1.813477
  C      -0.628791      0.872608      2.512276
  C      -1.825056      0.309180      2.935344
  C      -3.032563      0.946564      2.659335
  H      -3.972821      2.644116      1.736993
  H      -3.965617      0.503443      2.983171
  H      -1.841855      3.649053      0.993479
  H       0.308271      0.365433      2.712339
  H      -1.818388     -0.631511      3.471079
  C       0.660135      2.722500      1.393127
  N       1.432732      3.312787      2.515372
  H       1.604104      2.597231      3.219008
  H       0.851212      4.013075      2.975706
  H       0.514835      3.479821      0.629580
  H       1.491537      1.776751      0.816452
  Cu      3.141372      4.130258      2.046839
18
Coordinates from ORCA-job ./orca E -1967.162134822256
  C      -3.036370      2.148536      1.960357
  C      -1.836041      2.713679      1.541085
  C      -0.622635      2.081405      1.813624
  C      -0.628944      0.871563      2.511567
  C      -1.825455      0.308550      2.934616
  C      -3.032652      0.946819      2.659421
  H      -3.972148      2.645564      1.738497
  H      -3.965861      0.504087      2.983336
  H      -1.840698      3.649784      0.995251
  H       0.307880      0.363719      2.711203
  H      -1.819182     -0.632455      3.469814
  C       0.661411      2.720498      1.392387
  N       1.431984      3.313890      2.515034
  H       1.603616      2.599581      3.219867
  H       0.849153      4.013920      2.973925
  H       0.515317      3.477728      0.628729
  H       1.493213      1.774304      0.817018
  Cu      3.139874      4.133288      2.047310
18
Coordinates from ORCA-job ./orca E -1967.162135460384
  C      -3.035605      2.149752      1.961966
  C      -1.835071      2.713975      1.542081
  C      -0.622095      2.080319      1.813041
  C      -0.629006      0.869940      2.509967
  C      -1.825726      0.307690      2.933563
  C      -3.032512      0.947334      2.659891
  H      -3.971081      2.647880      1.741302
  H      -3.965887      0.505205      2.984163
  H      -1.839234      3.650584      0.997071
  H       0.307506      0.361187      2.708740
  H      -1.819905     -0.633730      3.468043
  C       0.662783      2.718244      1.391468
  N       1.430506      3.315347      2.514637
  H       1.601822      2.602684      3.221233
  H       0.845903      4.015407      2.971070
  H       0.516291      3.474808      0.627104
  H       1.495877      1.771307      0.819201
  Cu      3.137892      4.136526      2.048500
18
Coordinates from ORCA-job ./orca E -1967.162111417467
  C      -3.035196      2.150367      1.962863
  C      -1.834612      2.714154      1.542572
  C      -0.621841      2.079727      1.812579
  C      -0.628978      0.869027      2.508932
  C      -1.825763      0.307194      2.932947
  C      -3.032348      0.947620      2.660254
  H      -3.970537      2.649064      1.742920
  H      -3.965785      0.505822      2.984801
  H      -1.838590      3.650992      0.997946
  H       0.307390      0.359758      2.707021
  H      -1.820141     -0.634478      3.466983
  C       0.663252      2.717406      1.391140
  N       1.429622      3.316192      2.514438
  H       1.600346      2.604407      3.222068
  H       0.844265      4.016613      2.969348
  H       0.517015      3.473171      0.625936
  H       1.497249      1.769905      0.821127
  Cu      3.137113      4.137519      2.049165
18
Coordinates from ORCA-job ./orca E -1967.165138783730
  C      -3.034505      2.150072      1.962290
  C      -1.833775      2.713441      1.541856
  C      -0.621160      2.078831      1.812128
  C      -0.628602      0.868369      2.508893
  C      -1.825532      0.306953      2.933050
  C      -3.031960      0.947561      2.660090
  H      -3.969724      2.648907      1.742139
  H      -3.965511      0.506086      2.984749
  H      -1.837518      3.650095      0.996911
  H       0.307642      0.358954      2.707194
  H      -1.820147     -0.634538      3.467407
  C       0.664096      2.716074      1.390526
  N       1.430556      3.315067      2.513651
  H       1.601089      2.603484      3.221530
  H       0.845339      4.015776      2.968299
  H       0.518062      3.471612      0.625058
  H       1.485857      1.781871      0.829100
  Cu      3.138253      4.135847      2.048169
18
Coordinates from ORCA-job ./orca E -1967.165114755668
  C      -3.033904      2.151054      1.963595
  C      -1.832912      2.713865      1.543135
  C      -0.620664      2.077997      1.812048
  C      -0.628741      0.866925      2.507680
  C      -1.825924      0.306068      2.931996
  C      -3.031963      0.947917      2.660334
  H      -3.968849      2.650845      1.744416
  H      -3.965689      0.506964      2.985203
  H      -1.836182      3.650988      0.998997
  H       0.307213      0.356600      2.705133
  H      -1.821005     -0.635884      3.465554
  C       0.665417      2.713925      1.389801
  N       1.429448      3.316611      2.513239
  H       1.599928      2.606644      3.222739
  H       0.842707      4.017335      2.965741
  H       0.518951      3.468739      0.623535
  H       1.488074      1.778845      0.831155
  Cu      3.136555      4.139022      2.048739
18
Coordinates from ORCA-job ./orca E -1967.165143319507
  C      -3.032405      2.153383      1.966848
  C      -1.831056      2.714556      1.545280
  C      -0.619626      2.075879      1.810970
  C      -0.628848      0.863590      2.504365
  C      -1.826421      0.304170      2.929669
  C      -3.031635      0.948849      2.661253
  H      -3.966762      2.655357      1.750172
  H      -3.965677      0.509105      2.986866
  H      -1.833437      3.652671      1.002820
  H       0.306498      0.351356      2.699691
  H      -1.822408     -0.638735      3.461555
  C       0.667725      2.710020      1.388470
  N       1.426469      3.319879      2.512406
  H       1.595906      2.613295      3.225547
  H       0.836572      4.021166      2.959733
  H       0.521394      3.462434      0.619684
  H       1.493102      1.773000      0.837136
  Cu      3.133067      4.144485      2.050576
18
Coordinates from ORCA-job ./orca E -1967.165103837182
  C      -3.031732      2.154367      1.968323
  C      -1.830296      2.714872      1.546169
  C      -0.619203      2.074909      1.810288
  C      -0.628819      0.862065      2.502688
  C      -1.826506      0.303319      2.928625
  C      -3.031377      0.949273      2.661799
  H      -3.965863      2.657260      1.752813
  H      -3.965521      0.510069      2.987842
  H      -1.832372      3.653383      1.004373
  H       0.306297      0.348987      2.696844
  H      -1.822841     -0.640020      3.459742
  C       0.668415      2.708753      1.388077
  N       1.425019      3.321377      2.512058
  H       1.593457      2.616235      3.226868
  H       0.833979      4.023282      2.956911
  H       0.522763      3.459570      0.617609
  H       1.495209      1.770765      0.840521
  Cu      3.131851      4.145994      2.051490
18
Coordinates from ORCA-job ./orca E -1967.168021219953
  C      -3.031036      2.154070      1.967751
  C      -1.829453      2.714158      1.545461
  C      -0.618517      2.074008      1.809851
  C      -0.628442      0.861402      2.502662
  C      -1.826275      0.303073      2.928734
  C      -3.030987      0.949211      2.661635
  H      -3.965042      2.657103      1.752029
  H      -3.965246      0.510331      2.987785
  H      -1.831291      3.652486      1.003347
  H       0.306548      0.348176      2.697033
  H      -1.822849     -0.640087      3.460171
  C       0.669264      2.707415      1.387483
  N       1.425957      3.320248      2.511291
  H       1.594203      2.615310      3.226347
  H       0.835057      4.022439      2.955879
  H       0.523818      3.458004      0.616754
  H       1.483754      1.782797      0.848305
  Cu      3.132998      4.144319      2.050520
18
Coordinates from ORCA-job ./orca E -1967.168123778543
  C      -3.030368      2.155129      1.969229
  C      -1.828535      2.714600      1.546835
  C      -0.617983      2.073086      1.809730
  C      -0.628579      0.859797      2.501290
  C      -1.826670      0.302079      2.927553
  C      -3.030952      0.949573      2.661920
  H      -3.964076      2.659193      1.754604
  H      -3.965390      0.511241      2.988292
  H      -1.829877      3.653441      1.005608
  H       0.306101      0.345590      2.694654
  H      -1.823748     -0.641599      3.458076
  C       0.670555      2.705293      1.386862
  N       1.424691      3.322000      2.510820
  H       1.592624      2.618833      3.227692
  H       0.832277      4.024379      2.952972
  H       0.524985      3.454763      0.614922
  H       1.486086      1.779716      0.850913
  Cu      3.131318      4.147345      2.051066
18
Coordinates from ORCA-job ./orca E -1967.168127231397
  C      -3.028592      2.157786      1.973003
  C      -1.826356      2.715421      1.549414
  C      -0.616763      2.070613      1.808512
  C      -0.628704      0.855903      2.497429
  C      -1.827242      0.299857      2.924842
  C      -3.030540      0.950618      2.662983
  H      -3.961610      2.664349      1.761267
  H      -3.965338      0.513674      2.990211
  H      -1.826651      3.655418      1.010161
  H       0.305280      0.339500      2.688230
  H      -1.825385     -0.644939      3.453390
  C       0.673072      2.700986      1.385547
  N       1.421169      3.325884      2.509798
  H       1.587619      2.626626      3.230848
  H       0.825271      4.028987      2.945916
  H       0.528129      3.447213      0.610204
  H       1.491724      1.773229      0.858194
  Cu      3.127376      4.153334      2.053092
18
Coordinates from ORCA-job ./orca E -1967.168122144304
  C      -3.027043      2.160006      1.976310
  C      -1.824521      2.716104      1.551622
  C      -0.615734      2.068459      1.807430
  C      -0.628777      0.852456      2.493990
  C      -1.827673      0.297831      2.922397
  C      -3.030111      0.951477      2.663976
  H      -3.959468      2.668719      1.767156
  H      -3.965195      0.515726      2.991967
  H      -1.823974      3.657083      1.014054
  H       0.304612      0.334100      2.682301
  H      -1.826728     -0.647996      3.449097
  C       0.674835      2.697833      1.384823
  N       1.418070      3.329390      2.508886
  H       1.582724      2.633581      3.233695
  H       0.819481      4.033596      2.939514
  H       0.531212      3.440486      0.605795
  H       1.496350      1.768105      0.865452
  Cu      3.124400      4.157504      2.054577
18
Coordinates from ORCA-job ./orca E -1967.171035657225
  C      -3.026339      2.159708      1.975740
  C      -1.823669      2.715388      1.550926
  C      -0.615042      2.067552      1.807012
  C      -0.628398      0.851784      2.493982
  C      -1.827443      0.297577      2.922515
  C      -3.029718      0.951411      2.663814
  H      -3.958637      2.668563      1.766369
  H      -3.964918      0.515985      2.991904
  H      -1.822879      3.656186      1.013040
  H       0.304863      0.333278      2.682514
  H      -1.826740     -0.648072      3.449534
  C       0.675692      2.696489      1.384258
  N       1.419014      3.328255      2.508146
  H       1.583472      2.632652      3.233198
  H       0.820565      4.032743      2.938507
  H       0.532277      3.438912      0.604973
  H       1.484804      1.780224      0.872965
  Cu      3.125557      4.155826      2.053644
18
Coordinates from ORCA-job ./orca E -1967.171061126253
  C      -3.025637      2.160775      1.977291
  C      -1.822710      2.715828      1.552388
  C      -0.614498      2.066583      1.806946
  C      -0.628562      0.850096      2.492576
  C      -1.827871      0.296491      2.921240
  C      -3.029689      0.951730      2.664073
  H      -3.957616      2.670705      1.769072
  H      -3.965079      0.516845      2.992350
  H      -1.821398      3.657171      1.015462
  H       0.304366      0.330568      2.680021
  H      -1.827704     -0.649728      3.447238
  C       0.676894      2.694467      1.383839
  N       1.417723      3.330156      2.507617
  H       1.581733      2.636477      3.234606
  H       0.817835      4.034966      2.935346
  H       0.533615      3.435429      0.602994
  H       1.487090      1.777235      0.876005
  Cu      3.123967      4.158665      2.053977
18
Coordinates from ORCA-job ./orca E -1967.171011036097
  C      -3.022911      2.164682      1.983062
  C      -1.819308      2.717117      1.556825
  C      -0.612598      2.062856      1.805745
  C      -0.628926      0.844010      2.486985
  C      -1.829009      0.292794      2.916837
  C      -3.029213      0.953040      2.665373
  H      -3.953745      2.678454      1.779225
  H      -3.965196      0.520162      2.994619
  H      -1.816282      3.660340      1.023172
  H       0.302842      0.321018      2.670435
  H      -1.830618     -0.655305      3.439436
  C       0.680543      2.688169      1.382602
  N       1.412560      3.336588      2.505801
  H       1.574138      2.649411      3.239506
  H       0.807757      4.042899      2.923905
  H       0.538772      3.423269      0.595777
  H       1.495201      1.767713      0.887914
  Cu      3.118454      4.167245      2.055823
18
Coordinates from ORCA-job ./orca E -1967.171067355587
  C      -3.018130      2.171195      1.993056
  C      -1.813450      2.719190      1.564436
  C      -0.609373      2.056447      1.803792
  C      -0.629554      0.833498      2.477329
  C      -1.830931      0.286253      2.909067
  C      -3.028294      0.955140      2.667660
  H      -3.946962      2.691543      1.796851
  H      -3.965275      0.525643      2.998513
  H      -1.807500      3.665628      1.036471
  H       0.300183      0.304504      2.653522
  H      -1.835630     -0.665197      3.425529
  C       0.686104      2.678353      1.381382
  N       1.403599      3.347872      2.502500
  H       1.560063      2.672211      3.247935
  H       0.791086      4.057464      2.903469
  H       0.548214      3.402083      0.583231
  H       1.508503      1.752550      0.910027
  Cu      3.109806      4.180084      2.058268
18
Coordinates from ORCA-job ./orca E -1967.171070018301
  C      -3.016544      2.173270      1.996670
  C      -1.811473      2.720046      1.567733
  C      -0.608300      2.054317      1.803708
  C      -0.629861      0.829700      2.474101
  C      -1.831729      0.283614      2.906085
  C      -3.028089      0.955454      2.668145
  H      -3.944671      2.695831      1.803052
  H      -3.965452      0.526887      2.999114
  H      -1.804514      3.667717      1.041965
  H       0.299145      0.298548      2.647444
  H      -1.837555     -0.669245      3.419928
  C       0.687522      2.675606      1.381757
  N       1.400691      3.352495      2.501106
  H       1.554597      2.681472      3.251249
  H       0.786270      4.064305      2.895358
  H       0.551904      3.394058      0.578517
  H       1.512532      1.747677      0.919231
  Cu      3.107986      4.182710      2.057879
18
Coordinates from ORCA-job ./orca E -1967.171077810024
  C      -3.009947      2.181619      2.011869
  C      -1.803170      2.723468      1.582094
  C      -0.603785      2.045509      1.804215
  C      -0.631387      0.813835      2.460967
  C      -1.835436      0.272209      2.893075
  C      -3.027472      0.956229      2.669607
  H      -3.935025      2.713412      1.829135
  H      -3.966481      0.531349      3.000650
  H      -1.791790      3.676582      1.066274
  H       0.294540      0.273931      2.622763
  H      -1.846094     -0.686549      3.395728
  C       0.693369      2.664325      1.384156
  N       1.388770      3.372443      2.494775
  H       1.531291      2.721966      3.265009
  H       0.767348      4.093919      2.860043
  H       0.567726      3.359831      0.559539
  H       1.528556      1.728099      0.958046
  Cu      3.101449      4.192285      2.055094
18
Coordinates from ORCA-job ./orca E -1967.171075043065
  C      -3.010176      2.181358      2.011835
  C      -1.803321      2.723535      1.582752
  C      -0.603841      2.045718      1.805091
  C      -0.631549      0.813806      2.461321
  C      -1.835687      0.271847      2.892783
  C      -3.027751      0.955712      2.669113
  H      -3.935266      2.713069      1.828922
  H      -3.966811      0.530531      2.999630
  H      -1.791906      3.676848      1.067283
  H       0.294400      0.273994      2.623275
  H      -1.846352     -0.687093      3.395097
  C       0.693217      2.664550      1.384773
  N       1.389223      3.373113      2.494616
  H       1.531393      2.723442      3.265617
  H       0.768590      4.095557      2.859288
  H       0.567597      3.359540      0.559690
  H       1.527985      1.728165      0.958191
  Cu      3.102715      4.190767      2.053763
18
Coordinates from ORCA-job ./orca E -1967.173946633778
  C      -3.009444      2.181053      2.011281
  C      -1.802435      2.722814      1.582109
  C      -0.603125      2.044795      1.804755
  C      -0.631164      0.813103      2.461384
  C      -1.835456      0.271560      2.892934
  C      -3.027348      0.955625      2.668956
  H      -3.934400      2.712917      1.828128
  H      -3.966529      0.530767      2.999544
  H      -1.790764      3.675958      1.066331
  H       0.294651      0.273132      2.623580
  H      -1.846377     -0.687214      3.395560
  C       0.694105      2.663193      1.384329
  N       1.390193      3.371957      2.493992
  H       1.532159      2.722505      3.265215
  H       0.769699      4.094663      2.858384
  H       0.568703      3.357944      0.559011
  H       1.516088      1.740613      0.964551
  Cu      3.103904      4.189076      2.052997
18
Coordinates from ORCA-job ./orca E -1967.173960496050
  C      -3.009117      2.181575      2.012034
  C      -1.801853      2.723107      1.583300
  C      -0.602786      2.044382      1.805196
  C      -0.631401      0.812257      2.460913
  C      -1.835933      0.270914      2.892156
  C      -3.027529      0.955643      2.668796
  H      -3.933855      2.714006      1.829373
  H      -3.966857      0.530984      2.999231
  H      -1.789760      3.676640      1.068256
  H       0.294197      0.271781      2.622902
  H      -1.847210     -0.688170      3.394192
  C       0.695310      2.661415      1.384032
  N       1.389675      3.373118      2.493578
  H       1.531764      2.725156      3.266033
  H       0.768396      4.095782      2.856449
  H       0.568931      3.356154      0.558603
  H       1.517467      1.738544      0.965235
  Cu      3.103021      4.191170      2.052762
18
Coordinates from ORCA-job ./orca E -1967.173955543775
  C      -3.008536      2.182359      2.013371
  C      -1.801102      2.723386      1.584576
  C      -0.602399      2.043704      1.805309
  C      -0.631610      0.810983      2.459840
  C      -1.836350      0.269973      2.891047
  C      -3.027549      0.955688      2.668830
  H      -3.932981      2.715608      1.831629
  H      -3.967037      0.531300      2.999166
  H      -1.788552      3.677439      1.070472
  H       0.293674      0.269803      2.621231
  H      -1.848033     -0.689578      3.392188
  C       0.696490      2.659623      1.383836
  N       1.388638      3.374769      2.492995
  H       1.530049      2.728925      3.267360
  H       0.766546      4.098055      2.853089
  H       0.569523      3.353685      0.557820
  H       1.519349      1.736257      0.967514
  Cu      3.102340      4.192479      2.052766
18
Coordinates from ORCA-job ./orca E -1967.173959662043
  C      -3.008255      2.182676      2.014039
  C      -1.800786      2.723524      1.585174
  C      -0.602244      2.043368      1.805259
  C      -0.631661      0.810343      2.459207
  C      -1.836465      0.269481      2.890476
  C      -3.027490      0.955687      2.668924
  H      -3.932578      2.716296      1.832792
  H      -3.967032      0.531431      2.999270
  H      -1.788090      3.677807      1.071481
  H       0.293486      0.268802      2.620141
  H      -1.848309     -0.690319      3.391137
  C       0.696800      2.659116      1.383879
  N       1.388073      3.375640      2.492714
  H       1.528773      2.730849      3.268088
  H       0.765801      4.099561      2.851220
  H       0.569965      3.352452      0.557237
  H       1.520107      1.735415      0.969191
  Cu      3.102368      4.192330      2.052812
18
Coordinates from ORCA-job ./orca E -1967.176747594621
  C      -3.007522      2.182371      2.013486
  C      -1.799897      2.722803      1.584534
  C      -0.601528      2.042443      1.804929
  C      -0.631276      0.809638      2.459275
  C      -1.836235      0.269192      2.890630
  C      -3.027087      0.955599      2.668767
  H      -3.931710      2.716144      1.831997
  H      -3.966750      0.531666      2.999182
  H      -1.786945      3.676917      1.070533
  H       0.293735      0.267936      2.620453
  H      -1.848337     -0.690443      3.391602
  C       0.697688      2.657757      1.383444
  N       1.389044      3.374483      2.492097
  H       1.529539      2.729911      3.267691
  H       0.766912      4.098662      2.850323
  H       0.571073      3.350854      0.556568
  H       1.508196      1.747889      0.975472
  Cu      3.103559      4.190637      2.052057
18
Coordinates from ORCA-job ./orca E -1967.176723110706
  C      -3.007044      2.183053      2.014515
  C      -1.799208      2.723120      1.585695
  C      -0.601154      2.041872      1.805087
  C      -0.631465      0.808566      2.458423
  C      -1.836634      0.268458      2.889718
  C      -3.027133      0.955760      2.668833
  H      -3.930988      2.717512      1.833751
  H      -3.966937      0.532157      2.999281
  H      -1.785849      3.677599      1.072384
  H       0.293277      0.266182      2.619017
  H      -1.849135     -0.691545      3.389977
  C       0.698823      2.656025      1.383123
  N       1.388233      3.375810      2.491632
  H       1.528501      2.732775      3.268540
  H       0.765138      4.100020      2.847926
  H       0.571678      3.348618      0.555705
  H       1.509858      1.745692      0.977241
  Cu      3.102499      4.192785      2.052190
18
Coordinates from ORCA-job ./orca E -1967.176702768778
  C      -3.006171      2.184183      2.016417
  C      -1.798131      2.723545      1.587374
  C      -0.600609      2.040864      1.805036
  C      -0.631698      0.806733      2.456753
  C      -1.837120      0.267195      2.888185
  C      -3.027053      0.955969      2.669055
  H      -3.929715      2.719779      1.836997
  H      -3.967060      0.532862      2.999564
  H      -1.784203      3.678653      1.075217
  H       0.292603      0.263278      2.616210
  H      -1.850210     -0.693447      3.387202
  C       0.700234      2.653795      1.382877
  N       1.386703      3.378071      2.490829
  H       1.525900      2.737632      3.270082
  H       0.762345      4.102943      2.843431
  H       0.572935      3.344902      0.554145
  H       1.512423      1.742621      0.981211
  Cu      3.101287      4.194881      2.052456
18
Coordinates from ORCA-job ./orca E -1967.176723130427
  C      -3.005451      2.185047      2.018032
  C      -1.797261      2.723880      1.588820
  C      -0.600168      2.040009      1.805039
  C      -0.631864      0.805158      2.455336
  C      -1.837489      0.266035      2.886809
  C      -3.026961      0.956058      2.669240
  H      -3.928670      2.721595      1.839788
  H      -3.967133      0.533339      2.999780
  H      -1.782894      3.679537      1.077675
  H       0.292082      0.260798      2.613694
  H      -1.851063     -0.695202      3.384671
  C       0.701069      2.652373      1.382972
  N       1.385420      3.380114      2.490124
  H       1.523326      2.741979      3.271496
  H       0.760305      4.105949      2.839370
  H       0.574232      3.341609      0.552603
  H       1.514275      1.740425      0.985137
  Cu      3.100706      4.195757      2.052453
18
Coordinates from ORCA-job ./orca E -1967.176724863584
  C      -3.005078      2.185457      2.018928
  C      -1.796812      2.724096      1.589743
  C      -0.599933      2.039534      1.805087
  C      -0.631948      0.804256      2.454529
  C      -1.837682      0.265341      2.886017
  C      -3.026912      0.956022      2.669300
  H      -3.928129      2.722497      1.841315
  H      -3.967174      0.533481      2.999807
  H      -1.782235      3.680073      1.079188
  H       0.291820      0.259415      2.612218
  H      -1.851507     -0.696244      3.383196
  C       0.701338      2.651854      1.383196
  N       1.384729      3.381372      2.489707
  H       1.521679      2.744574      3.272342
  H       0.759407      4.107999      2.836966
  H       0.575118      3.339658      0.551570
  H       1.515092      1.739401      0.987645
  Cu      3.100685      4.195674      2.052285
18
Coordinates from ORCA-job ./orca E -1967.179369972934
  C      -3.004342      2.185151      2.018377
  C      -1.795919      2.723373      1.589111
  C      -0.599214      2.038607      1.804769
  C      -0.631562      0.803547      2.454608
  C      -1.837453      0.265047      2.886177
  C      -3.026508      0.955931      2.669145
  H      -3.927256      2.722345      1.840519
  H      -3.966892      0.533713      2.999716
  H      -1.781083      3.679183      1.078249
  H       0.292069      0.258544      2.612545
  H      -1.851537     -0.696374      3.383666
  C       0.702231      2.650492      1.382781
  N       1.385703      3.380211      2.489109
  H       1.522447      2.743635      3.271960
  H       0.760521      4.107094      2.836085
  H       0.576233      3.338056      0.550922
  H       1.503140      1.751927      0.993744
  Cu      3.101880      4.193978      2.051556
18
Coordinates from ORCA-job ./orca E -1967.179362717088
  C      -3.003962      2.185716      2.019187
  C      -1.795334      2.723650      1.590143
  C      -0.598884      2.038146      1.805017
  C      -0.631749      0.802676      2.454003
  C      -1.837843      0.264453      2.885432
  C      -3.026595      0.956055      2.669132
  H      -3.926666      2.723468      1.841873
  H      -3.967110      0.534099      2.999674
  H      -1.780128      3.679765      1.079873
  H       0.291662      0.257131      2.611532
  H      -1.852285     -0.697260      3.382349
  C       0.703249      2.648952      1.382527
  N       1.385104      3.381301      2.488710
  H       1.521827      2.745952      3.272564
  H       0.759074      4.108030      2.834277
  H       0.576733      3.336152      0.550239
  H       1.504514      1.750064      0.994970
  Cu      3.100851      4.196107      2.051537
18
Coordinates from ORCA-job ./orca E -1967.179372111267
  C      -3.003260      2.186627      2.020645
  C      -1.794450      2.723972      1.591458
  C      -0.598430      2.037347      1.805038
  C      -0.631953      0.801261      2.452779
  C      -1.838275      0.263495      2.884257
  C      -3.026559      0.956244      2.669268
  H      -3.925633      2.725275      1.844348
  H      -3.967249      0.534686      2.999823
  H      -1.778752      3.680578      1.082098
  H       0.291111      0.254905      2.609501
  H      -1.853214     -0.698699      3.380234
  C       0.704413      2.647111      1.382353
  N       1.383950      3.383005      2.488068
  H       1.520034      2.749598      3.273620
  H       0.756823      4.109992      2.830974
  H       0.577737      3.333180      0.549072
  H       1.506535      1.747676      0.997852
  Cu      3.099632      4.198208      2.051652
18
Coordinates from ORCA-job ./orca E -1967.179362919516
  C      -3.002949      2.186983      2.021307
  C      -1.794087      2.724116      1.592051
  C      -0.598248      2.036983      1.805002
  C      -0.632018      0.800603      2.452161
  C      -1.838420      0.263028      2.883703
  C      -3.026506      0.956293      2.669365
  H      -3.925187      2.726018      1.845496
  H      -3.967263      0.534901      2.999937
  H      -1.778215      3.680944      1.083096
  H       0.290900      0.253878      2.608420
  H      -1.853556     -0.699404      3.379210
  C       0.704733      2.646563      1.382410
  N       1.383413      3.383836      2.487770
  H       1.518940      2.751346      3.274160
  H       0.755964      4.111197      2.829298
  H       0.578303      3.331804      0.548420
  H       1.507298      1.746813      0.999569
  Cu      3.099358      4.198559      2.051663
18
Coordinates from ORCA-job ./orca E -1967.181874870222
  C      -3.002211      2.186676      2.020757
  C      -1.793192      2.723393      1.591424
  C      -0.597528      2.036054      1.804691
  C      -0.631632      0.799891      2.452247
  C      -1.838191      0.262732      2.883867
  C      -3.026101      0.956200      2.669211
  H      -3.924311      2.725865      1.844699
  H      -3.966982      0.535131      2.999844
  H      -1.777060      3.680053      1.082160
  H       0.291148      0.253005      2.608755
  H      -1.853588     -0.699536      3.379683
  C       0.705628      2.645199      1.382005
  N       1.384389      3.382674      2.487182
  H       1.519708      2.750407      3.273786
  H       0.757080      4.110288      2.828425
  H       0.579420      3.330200      0.547785
  H       1.495327      1.759367      1.005572
  Cu      3.100555      4.196862      2.050948
18
Coordinates from ORCA-job ./orca E -1967.181859725740
  C      -3.001790      2.187277      2.021644
  C      -1.792583      2.723668      1.592447
  C      -0.597199      2.035558      1.804857
  C      -0.631813      0.798964      2.451527
  C      -1.838564      0.262104      2.883072
  C      -3.026153      0.956350      2.669254
  H      -3.923669      2.727061      1.846205
  H      -3.967161      0.535575      2.999907
  H      -1.776083      3.680635      1.083778
  H       0.290730      0.251498      2.607567
  H      -1.854325     -0.700476      3.378277
  C       0.706670      2.643618      1.381738
  N       1.383712      3.383819      2.486761
  H       1.518868      2.752867      3.274453
  H       0.755532      4.111346      2.826383
  H       0.579930      3.328234      0.547076
  H       1.496826      1.757453      1.007053
  Cu      3.099533      4.198909      2.051039
18
Coordinates from ORCA-job ./orca E -1967.181877273893
  C      -3.000995      2.188278      2.023278
  C      -1.791601      2.724024      1.593886
  C      -0.596705      2.034670      1.804833
  C      -0.632027      0.797391      2.450122
  C      -1.839016      0.261038      2.881759
  C      -3.026087      0.956569      2.669443
  H      -3.922509      2.729054      1.848990
  H      -3.967283      0.536249      3.000142
  H      -1.774568      3.681523      1.086199
  H       0.290121      0.249008      2.605227
  H      -1.855322     -0.702079      3.375904
  C       0.707940      2.641602      1.381554
  N       1.382409      3.385716      2.486039
  H       1.516722      2.756953      3.275639
  H       0.753040      4.113589      2.822571
  H       0.581010      3.324965      0.545808
  H       1.499089      1.754837      1.010397
  Cu      3.098243      4.201075      2.051250
18
Coordinates from ORCA-job ./orca E -1967.181864091670
  C      -3.000683      2.188623      2.023928
  C      -1.791240      2.724159      1.594463
  C      -0.596525      2.034308      1.804789
  C      -0.632085      0.796744      2.449513
  C      -1.839151      0.260580      2.881215
  C      -3.026027      0.956615      2.669537
  H      -3.922062      2.729779      1.850125
  H      -3.967288      0.536464      3.000260
  H      -1.774042      3.681870      1.087167
  H       0.289919      0.247999      2.604165
  H      -1.855654     -0.702767      3.374905
  C       0.708237      2.641085      1.381620
  N       1.381879      3.386534      2.485744
  H       1.515601      2.758673      3.276164
  H       0.752210      4.114787      2.820895
  H       0.581564      3.323619      0.545174
  H       1.499814      1.754022      1.012092
  Cu      3.097991      4.201364      2.051284
18
Coordinates from ORCA-job ./orca E -1967.184203775237
  C      -2.999943      2.188315      2.023379
  C      -1.790342      2.723436      1.593840
  C      -0.595803      2.033378      1.804485
  C      -0.631698      0.796030      2.449606
  C      -1.838923      0.260282      2.881382
  C      -3.025622      0.956521      2.669383
  H      -3.921184      2.729626      1.849326
  H      -3.967007      0.536693      3.000165
  H      -1.772883      3.680978      1.086236
  H       0.290167      0.247124      2.604510
  H      -1.855687     -0.702902      3.375381
  C       0.709134      2.639719      1.381228
  N       1.382856      3.385369      2.485166
  H       1.516370      2.757733      3.275800
  H       0.753327      4.113875      2.820031
  H       0.582686      3.322012      0.544551
  H       1.487821      1.766606      1.017986
  Cu      3.099191      4.199666      2.050583
18
Coordinates from ORCA-job ./orca E -1967.184186601243
  C      -2.999540      2.188889      2.024242
  C      -1.789764      2.723700      1.594827
  C      -0.595490      2.032903      1.804641
  C      -0.631868      0.795146      2.448909
  C      -1.839275      0.259678      2.880608
  C      -3.025667      0.956656      2.669423
  H      -3.920570      2.730770      1.850798
  H      -3.967170      0.537106      3.000226
  H      -1.771956      3.681543      1.087806
  H       0.289773      0.245697      2.603371
  H      -1.856384     -0.703801      3.374024
  C       0.710140      2.638195      1.380976
  N       1.382193      3.386481      2.484752
  H       1.515478      2.760127      3.276446
  H       0.751853      4.114928      2.818012
  H       0.583187      3.320111      0.543860
  H       1.489271      1.764783      1.019409
  Cu      3.098247      4.201547      2.050710
18
Coordinates from ORCA-job ./orca E -1967.184206980710
  C      -2.998757      2.189856      2.025828
  C      -1.788804      2.724032      1.596212
  C      -0.595006      2.032038      1.804624
  C      -0.632073      0.793621      2.447556
  C      -1.839713      0.258644      2.879337
  C      -3.025595      0.956868      2.669608
  H      -3.919425      2.732704      1.853513
  H      -3.967283      0.537762      3.000456
  H      -1.770482      3.682387      1.090142
  H       0.289185      0.243286      2.601122
  H      -1.857359     -0.705355      3.371721
  C       0.711371      2.636240      1.380816
  N       1.380919      3.388326      2.484041
  H       1.513321      2.764108      3.277585
  H       0.749448      4.117112      2.814267
  H       0.584229      3.316937      0.542655
  H       1.491472      1.762309      1.022608
  Cu      3.097014      4.203587      2.050948
18
Coordinates from ORCA-job ./orca E -1967.184191986867
  C      -2.998427      2.190211      2.026485
  C      -1.788418      2.724167      1.596801
  C      -0.594814      2.031655      1.804572
  C      -0.632132      0.792958      2.446941
  C      -1.839855      0.258182      2.878789
  C      -3.025533      0.956925      2.669707
  H      -3.918955      2.733455      1.854663
  H      -3.967289      0.538005      3.000590
  H      -1.769917      3.682737      1.091133
  H       0.288972      0.242252      2.600052
  H      -1.857708     -0.706044      3.370717
  C       0.711686      2.635694      1.380881
  N       1.380368      3.389143      2.483738
  H       1.512183      2.765842      3.278102
  H       0.748565      4.118273      2.812563
  H       0.584801      3.315559      0.542017
  H       1.492226      1.761495      1.024289
  Cu      3.096705      4.203952      2.051000
18
Coordinates from ORCA-job ./orca E -1967.186330015894
  C      -2.997685      2.189902      2.025937
  C      -1.787517      2.723442      1.596182
  C      -0.594089      2.030723      1.804276
  C      -0.631746      0.792242      2.447040
  C      -1.839628      0.257882      2.878960
  C      -3.025127      0.956829      2.669554
  H      -3.918073      2.733302      1.853863
  H      -3.967008      0.538232      3.000493
  H      -1.768754      3.681845      1.090207
  H       0.289219      0.241374      2.600406
  H      -1.857743     -0.706182      3.371197
  C       0.712584      2.634326      1.380500
  N       1.381347      3.387976      2.483171
  H       1.512953      2.764901      3.277746
  H       0.749684      4.117357      2.811709
  H       0.585926      3.313950      0.541407
  H       1.480210      1.774106      1.030077
  Cu      3.097908      4.202252      2.050314
18
Coordinates from ORCA-job ./orca E -1967.186311593209
  C      -2.997278      2.190470      2.026790
  C      -1.786938      2.723689      1.597138
  C      -0.593776      2.030243      1.804425
  C      -0.631913      0.791358      2.446345
  C      -1.839977      0.257286      2.878195
  C      -3.025167      0.956973      2.669602
  H      -3.917451      2.734436      1.855323
  H      -3.967164      0.538660      3.000577
  H      -1.767825      3.682382      1.091730
  H       0.288826      0.239946      2.599269
  H      -1.858440     -0.707067      3.369856
  C       0.713569      2.632832      1.380274
  N       1.380682      3.389071      2.482762
  H       1.512049      2.767265      3.278379
  H       0.748223      4.118383      2.809708
  H       0.586422      3.312072      0.540737
  H       1.481654      1.772354      1.031491
  Cu      3.096963      4.204106      2.050439
18
Coordinates from ORCA-job ./orca E -1967.186332745826
  C      -2.996465      2.191463      2.028410
  C      -1.785938      2.724018      1.598548
  C      -0.593273      2.029339      1.804407
  C      -0.632123      0.789789      2.444968
  C      -1.840433      0.256230      2.876890
  C      -3.025093      0.957200      2.669791
  H      -3.916259      2.736431      1.858110
  H      -3.967278      0.539357      3.000826
  H      -1.766284      3.683232      1.094115
  H       0.288219      0.237469      2.596973
  H      -1.859461     -0.708653      3.367495
  C       0.714826      2.630826      1.380144
  N       1.379368      3.390947      2.482031
  H       1.509839      2.771339      3.279523
  H       0.745733      4.120558      2.805870
  H       0.587519      3.308786      0.539515
  H       1.483909      1.769870      1.034758
  Cu      3.095652      4.206258      2.050666
18
Coordinates from ORCA-job ./orca E -1967.186317352265
  C      -2.996118      2.191830      2.029083
  C      -1.785531      2.724154      1.599161
  C      -0.593068      2.028946      1.804379
  C      -0.632186      0.789110      2.444362
  C      -1.840587      0.255759      2.876336
  C      -3.025032      0.957260      2.669883
  H      -3.915761      2.737203      1.859275
  H      -3.967294      0.539603      3.000931
  H      -1.765685      3.683583      1.095130
  H       0.287993      0.236409      2.595910
  H      -1.859837     -0.709357      3.366468
  C       0.715145      2.630265      1.380225
  N       1.378811      3.391778      2.481713
  H       1.508701      2.773106      3.280029
  H       0.744829      4.121712      2.804137
  H       0.588097      3.307364      0.538878
  H       1.484670      1.769060      1.036447
  Cu      3.095313      4.206677      2.050691
18
Coordinates from ORCA-job ./orca E -1967.188224140642
  C      -2.995374      2.191520      2.028536
  C      -1.784628      2.723429      1.598547
  C      -0.592342      2.028013      1.804091
  C      -0.631800      0.788391      2.444469
  C      -1.840360      0.255457      2.876511
  C      -3.024626      0.957163      2.669730
  H      -3.914877      2.737050      1.858473
  H      -3.967012      0.539829      3.000832
  H      -1.764518      3.682691      1.094210
  H       0.288240      0.235528      2.596274
  H      -1.859874     -0.709498      3.366951
  C       0.716046      2.628895      1.379857
  N       1.379792      3.390609      2.481157
  H       1.509471      2.772164      3.279683
  H       0.745949      4.120792      2.803292
  H       0.589226      3.305753      0.538281
  H       1.472630      1.781697      1.042127
  Cu      3.096518      4.204977      2.050020
18
Coordinates from ORCA-job ./orca E -1967.188206245369
  C      -2.994967      2.192079      2.029386
  C      -1.784053      2.723665      1.599491
  C      -0.592034      2.027529      1.804235
  C      -0.631966      0.787511      2.443776
  C      -1.840707      0.254857      2.875741
  C      -3.024662      0.957301      2.669779
  H      -3.914256      2.738175      1.859937
  H      -3.967162      0.540251      3.000918
  H      -1.763594      3.683218      1.095724
  H       0.287852      0.234113      2.595146
  H      -1.860567     -0.710385      3.365605
  C       0.717007      2.627431      1.379660
  N       1.379126      3.391706      2.480745
  H       1.508524      2.774536      3.280311
  H       0.744520      4.121842      2.801270
  H       0.589728      3.303875      0.537615
  H       1.474061      1.780004      1.043563
  Cu      3.095609      4.206753      2.050137
18
Coordinates from ORCA-job ./orca E -1967.188225774548
  C      -2.994127      2.193078      2.031023
  C      -1.783024      2.723989      1.600921
  C      -0.591514      2.026602      1.804220
  C      -0.632178      0.785913      2.442384
  C      -1.841173      0.253788      2.874419
  C      -3.024583      0.957533      2.669972
  H      -3.913027      2.740190      1.862753
  H      -3.967276      0.540969      3.001181
  H      -1.762012      3.684067      1.098146
  H       0.287228      0.231595      2.592828
  H      -1.861613     -0.711985      3.363216
  C       0.718268      2.625414      1.379563
  N       1.377780      3.393603      2.479996
  H       1.506235      2.778674      3.281454
  H       0.742002      4.124035      2.797353
  H       0.590854      3.300527      0.536386
  H       1.476344      1.777561      1.046860
  Cu      3.094279      4.208908      2.050366
18
Coordinates from ORCA-job ./orca E -1967.188209258078
  C      -2.993746      2.193478      2.031743
  C      -1.782574      2.724128      1.601570
  C      -0.591288      2.026167      1.804189
  C      -0.632252      0.785175      2.441732
  C      -1.841347      0.253286      2.873827
  C      -3.024518      0.957610      2.670077
  H      -3.912478      2.741032      1.864005
  H      -3.967295      0.541258      3.001309
  H      -1.761349      3.684436      1.099228
  H       0.286977      0.230440      2.591682
  H      -1.862035     -0.712737      3.362117
  C       0.718624      2.624791      1.379659
  N       1.377174      3.394486      2.479658
  H       1.505033      2.780566      3.281986
  H       0.741001      4.125222      2.795509
  H       0.591493      3.298978      0.535715
  H       1.477174      1.776700      1.048645
  Cu      3.093864      4.209443      2.050388
18
Coordinates from ORCA-job ./orca E -1967.189850809082
  C      -2.993000      2.193168      2.031197
  C      -1.781668      2.723402      1.600961
  C      -0.590560      2.025233      1.803909
  C      -0.631865      0.784454      2.441846
  C      -1.841120      0.252981      2.874004
  C      -3.024112      0.957512      2.669925
  H      -3.911591      2.740879      1.863203
  H      -3.967013      0.541482      3.001207
  H      -1.760178      3.683544      1.098313
  H       0.287224      0.229556      2.592056
  H      -1.862074     -0.712880      3.362603
  C       0.719527      2.623420      1.379302
  N       1.378157      3.393317      2.479113
  H       1.505804      2.779624      3.281649
  H       0.742124      4.124299      2.794673
  H       0.592625      3.297366      0.535131
  H       1.465109      1.789362      1.054215
  Cu      3.095072      4.207741      2.049733
18
Coordinates from ORCA-job ./orca E -1967.189833295525
  C      -2.992598      2.193716      2.032052
  C      -1.781103      2.723633      1.601903
  C      -0.590258      2.024757      1.804066
  C      -0.632031      0.783584      2.441165
  C      -1.841465      0.252376      2.873227
  C      -3.024149      0.957632      2.669962
  H      -3.910974      2.741991      1.864680
  H      -3.967164      0.541876      3.001271
  H      -1.759269      3.684065      1.099826
  H       0.286838      0.228165      2.590941
  H      -1.862762     -0.713776      3.361238
  C       0.720463      2.621991      1.379144
  N       1.377497      3.394423      2.478694
  H       1.504815      2.782022      3.282277
  H       0.740742      4.125393      2.792615
  H       0.593143      3.295477      0.534466
  H       1.466517      1.787721      1.055691
  Cu      3.094219      4.209415      2.049821
18
Coordinates from ORCA-job ./orca E -1967.191170527579
  C      -2.991851      2.193405      2.031506
  C      -1.780196      2.722906      1.601295
  C      -0.589530      2.023821      1.803788
  C      -0.631644      0.782863      2.441282
  C      -1.841239      0.252071      2.873407
  C      -3.023743      0.957534      2.669809
  H      -3.910087      2.741837      1.863876
  H      -3.966883      0.542100      3.001168
  H      -1.758097      3.683172      1.098912
  H       0.287083      0.227280      2.591318
  H      -1.862801     -0.713920      3.361725
  C       0.721366      2.620618      1.378792
  N       1.378480      3.393253      2.478152
  H       1.505585      2.781080      3.281944
  H       0.741864      4.124469      2.791783
  H       0.594276      3.293863      0.533886
  H       1.454450      1.800395      1.061226
  Cu      3.095427      4.207713      2.049171
18
Coordinates from ORCA-job ./orca E -1967.191175136180
  C      -2.991229      2.194231      2.032773
  C      -1.779372      2.723218      1.602551
  C      -0.589106      2.023129      1.803903
  C      -0.631864      0.781619      2.440243
  C      -1.841696      0.251237      2.872321
  C      -3.023751      0.957745      2.669910
  H      -3.909147      2.743482      1.866071
  H      -3.967046      0.542713      3.001335
  H      -1.756781      3.683903      1.100983
  H       0.286539      0.225293      2.589671
  H      -1.863746     -0.715161      3.359816
  C       0.722749      2.618505      1.378508
  N       1.377452      3.394782      2.477548
  H       1.504033      2.784452      3.282842
  H       0.739751      4.125961      2.788749
  H       0.594955      3.291217      0.533033
  H       1.456574      1.798026      1.063326
  Cu      3.094146      4.210109      2.049458
18
Coordinates from ORCA-job ./orca E -1967.191129237708
  C      -2.990011      2.195627      2.035058
  C      -1.777918      2.723652      1.604463
  C      -0.588393      2.021828      1.803770
  C      -0.632136      0.779410      2.438245
  C      -1.842296      0.249785      2.870514
  C      -3.023582      0.958105      2.670236
  H      -3.907378      2.746300      1.870045
  H      -3.967136      0.543768      3.001807
  H      -1.754564      3.685048      1.104239
  H       0.285686      0.221814      2.586393
  H      -1.865148     -0.717330      3.356551
  C       0.724527      2.615654      1.378353
  N       1.375488      3.397362      2.476499
  H       1.500593      2.790181      3.284419
  H       0.736162      4.128949      2.783128
  H       0.596445      3.286640      0.531456
  H       1.459817      1.794694      1.067872
  Cu      3.092305      4.212975      2.049993
18
Coordinates from ORCA-job ./orca E -1967.191175230660
  C      -2.989007      2.196682      2.036939
  C      -1.776724      2.723962      1.606067
  C      -0.587790      2.020708      1.803726
  C      -0.632334      0.777526      2.436628
  C      -1.842769      0.248491      2.868957
  C      -3.023424      0.958333      2.670512
  H      -3.905921      2.748529      1.873337
  H      -3.967188      0.544567      3.002190
  H      -1.752772      3.685952      1.106988
  H       0.285018      0.218847      2.583538
  H      -1.866289     -0.719261      3.353689
  C       0.725576      2.613872      1.378562
  N       1.373883      3.399606      2.475622
  H       1.497464      2.795111      3.285792
  H       0.733487      4.131869      2.778320
  H       0.598050      3.282650      0.529835
  H       1.462039      1.792432      1.072158
  Cu      3.091160      4.214583      2.050179
18
Coordinates from ORCA-job ./orca E -1967.191155991233
  C      -2.988490      2.197189      2.037929
  C      -1.776077      2.724163      1.607102
  C      -0.587449      2.020073      1.803803
  C      -0.632451      0.776451      2.435769
  C      -1.843050      0.247748      2.868110
  C      -3.023370      0.958383      2.670597
  H      -3.905163      2.749637      1.875018
  H      -3.967263      0.544902      3.002259
  H      -1.751825      3.686474      1.108642
  H       0.284650      0.217184      2.581957
  H      -1.866942     -0.720363      3.352105
  C       0.725936      2.613198      1.378870
  N       1.373091      3.400923      2.475127
  H       1.495778      2.797892      3.286523
  H       0.732255      4.133675      2.775711
  H       0.599135      3.280321      0.528765
  H       1.462988      1.791434      1.074759
  Cu      3.090708      4.215175      2.049995
18
Coordinates from ORCA-job ./orca E -1967.192225899962
  C      -2.987739      2.196878      2.037385
  C      -1.775165      2.723435      1.606504
  C      -0.586717      2.019136      1.803541
  C      -0.632063      0.775726      2.435899
  C      -1.842824      0.247438      2.868295
  C      -3.022962      0.958281      2.670445
  H      -3.904270      2.749484      1.874212
  H      -3.966981      0.545123      3.002151
  H      -1.750645      3.685582      1.107739
  H       0.284896      0.216295      2.582352
  H      -1.866984     -0.720512      3.352598
  C       0.726845      2.611823      1.378542
  N       1.374078      3.399750      2.474608
  H       1.496550      2.796950      3.286208
  H       0.733381      4.132745      2.774898
  H       0.600277      3.278705      0.528212
  H       1.450862      1.804147      1.080075
  Cu      3.091921      4.213472      2.049377
18
Coordinates from ORCA-job ./orca E -1967.192153938937
  C      -2.987382      2.197374      2.038180
  C      -1.774640      2.723658      1.607460
  C      -0.586426      2.018705      1.803803
  C      -0.632236      0.774914      2.435324
  C      -1.843186      0.246852      2.867534
  C      -3.023031      0.958356      2.670419
  H      -3.903708      2.750498      1.875563
  H      -3.967163      0.545430      3.002099
  H      -1.749783      3.686091      1.109274
  H       0.284519      0.215004      2.581392
  H      -1.867681     -0.721382      3.351256
  C       0.727707      2.610510      1.378492
  N       1.373499      3.400838      2.474185
  H       1.495681      2.799277      3.286760
  H       0.732180      4.133810      2.772986
  H       0.600841      3.276822      0.527557
  H       1.452123      1.802656      1.081476
  Cu      3.091144      4.215045      2.049280
18
Coordinates from ORCA-job ./orca E -1967.192756303827
  C      -2.986630      2.197062      2.037636
  C      -1.773727      2.722930      1.606863
  C      -0.585693      2.017767      1.803544
  C      -0.631848      0.774188      2.435457
  C      -1.842961      0.246542      2.867721
  C      -3.022624      0.958254      2.670267
  H      -3.902814      2.750345      1.874757
  H      -3.966882      0.545651      3.001990
  H      -1.748602      3.685199      1.108372
  H       0.284764      0.214115      2.581790
  H      -1.867723     -0.721532      3.351750
  C       0.728616      2.609134      1.378167
  N       1.374486      3.399664      2.473669
  H       1.496453      2.798334      3.286448
  H       0.733307      4.132879      2.772175
  H       0.601983      3.275204      0.527008
  H       1.439996      1.815381      1.086758
  Cu      3.092358      4.213342      2.048667
18
Coordinates from ORCA-job ./orca E -1967.192742609317
  C      -2.986041      2.197834      2.038840
  C      -1.772944      2.723221      1.608076
  C      -0.585292      2.017116      1.803694
  C      -0.632063      0.773017      2.434489
  C      -1.843406      0.245740      2.866662
  C      -3.022640      0.958432      2.670333
  H      -3.901919      2.751893      1.876851
  H      -3.967043      0.546196      3.002102
  H      -1.747341      3.685895      1.110385
  H       0.284242      0.212257      2.580267
  H      -1.868634     -0.722723      3.349893
  C       0.729905      2.607160      1.377995
  N       1.373509      3.401140      2.473075
  H       1.494931      2.801596      3.287275
  H       0.731362      4.134322      2.769259
  H       0.602691      3.272615      0.526194
  H       1.441972      1.813210      1.088810
  Cu      3.091170      4.215540      2.048839
18
Coordinates from ORCA-job ./orca E -1967.192734781398
  C      -2.984820      2.199204      2.041105
  C      -1.771478      2.723648      1.610035
  C      -0.584574      2.015824      1.803661
  C      -0.632356      0.770821      2.432564
  C      -1.844045      0.244283      2.864838
  C      -3.022492      0.958764      2.670608
  H      -3.900131      2.754672      1.880784
  H      -3.967159      0.547203      3.002471
  H      -1.745095      3.687035      1.113716
  H       0.283362      0.208804      2.577084
  H      -1.870095     -0.724905      3.346574
  C       0.731655      2.604357      1.377998
  N       1.371568      3.403741      2.472000
  H       1.491515      2.807392      3.288784
  H       0.727870      4.137281      2.763646
  H       0.604291      3.267913      0.524640
  H       1.445114      1.810013      1.093358
  Cu      3.089331      4.218408      2.049174
18
Coordinates from ORCA-job ./orca E -1967.192732294253
  C      -2.984284      2.199733      2.042060
  C      -1.770837      2.723827      1.610923
  C      -0.584253      2.015229      1.803646
  C      -0.632458      0.769826      2.431713
  C      -1.844296      0.243611      2.864040
  C      -3.022406      0.958873      2.670736
  H      -3.899355      2.755795      1.882449
  H      -3.967188      0.547612      3.002636
  H      -1.744150      3.687516      1.115186
  H       0.283011      0.207251      2.575589
  H      -1.870702     -0.725900      3.345104
  C       0.732141      2.603510      1.378177
  N       1.370741      3.404914      2.471535
  H       1.489874      2.809961      3.289457
  H       0.726512      4.138790      2.761127
  H       0.605176      3.265789      0.523793
  H       1.446195      1.808932      1.095690
  Cu      3.088738      4.219191      2.049181
18
Coordinates from ORCA-job ./orca E -1967.192893499580
  C      -2.983529      2.199420      2.041518
  C      -1.769920      2.723099      1.610332
  C      -0.583517      2.014290      1.803397
  C      -0.632070      0.769098      2.431856
  C      -1.844071      0.243299      2.864232
  C      -3.021997      0.958769      2.670585
  H      -3.898457      2.755642      1.881640
  H      -3.966906      0.547831      3.002523
  H      -1.742964      3.686624      1.114291
  H       0.283257      0.206358      2.576000
  H      -1.870746     -0.726054      3.345602
  C       0.733053      2.602133      1.377870
  N       1.371730      3.403738      2.471035
  H       1.490647      2.809018      3.289158
  H       0.727642      4.137855      2.760331
  H       0.606324      3.264170      0.523262
  H       1.434028      1.821683      1.100818
  Cu      3.089955      4.217487      2.048590
18
Coordinates from ORCA-job ./orca E -1967.192874225260
  C      -2.983061      2.199996      2.042514
  C      -1.769290      2.723332      1.611394
  C      -0.583187      2.013754      1.803599
  C      -0.632245      0.768110      2.431083
  C      -1.844441      0.242578      2.863310
  C      -3.022017      0.958858      2.670620
  H      -3.897744      2.756844      1.883364
  H      -3.967049      0.548207      3.002571
  H      -1.741965      3.687188      1.116025
  H       0.282830      0.204789      2.574691
  H      -1.871501     -0.727120      3.343962
  C       0.733944      2.600754      1.377893
  N       1.370965      3.405049      2.470524
  H       1.489246      2.811884      3.289878
  H       0.726240      4.139324      2.757776
  H       0.607059      3.261932      0.522461
  H       1.435451      1.820095      1.102786
  Cu      3.089223      4.218887      2.048589
18
Coordinates from ORCA-job ./orca E -1967.192546569855
  C      -2.982306      2.199683      2.041973
  C      -1.768372      2.722603      1.610806
  C      -0.582451      2.012814      1.803353
  C      -0.631856      0.767381      2.431229
  C      -1.844216      0.242265      2.863503
  C      -3.021609      0.958754      2.670469
  H      -3.896845      2.756690      1.882554
  H      -3.966767      0.548425      3.002458
  H      -1.740777      3.686295      1.115133
  H       0.283075      0.203895      2.575106
  H      -1.871546     -0.727274      3.344462
  C       0.734857      2.599376      1.377591
  N       1.371955      3.403872      2.470028
  H       1.490018      2.810941      3.289583
  H       0.727370      4.138387      2.756983
  H       0.608208      3.260311      0.521935
  H       1.423281      1.832859      1.107872
  Cu      3.090441      4.217182      2.048003
18
Coordinates from ORCA-job ./orca E -1967.192536065088
  C      -2.981675      2.200469      2.043302
  C      -1.767555      2.722922      1.612152
  C      -0.582039      2.012141      1.803546
  C      -0.632074      0.766124      2.430174
  C      -1.844667      0.241364      2.862326
  C      -3.021605      0.958888      2.670528
  H      -3.895892      2.758287      1.884856
  H      -3.966915      0.548922      3.002540
  H      -1.739481      3.687053      1.117350
  H       0.282529      0.201902      2.573404
  H      -1.872484     -0.728615      3.342367
  C       0.736125      2.597420      1.377534
  N       1.370898      3.405539      2.469349
  H       1.488088      2.814647      3.290522
  H       0.725445      4.140236      2.753562
  H       0.609049      3.257459      0.521027
  H       1.425269      1.830668      1.110333
  Cu      3.089442      4.219033      2.048164
18
Coordinates from ORCA-job ./orca E -1967.192480927508
  C      -2.980306      2.201942      2.045863
  C      -1.765914      2.723430      1.614473
  C      -0.581238      2.010721      1.803587
  C      -0.632392      0.763659      2.428014
  C      -1.845371      0.239683      2.860225
  C      -3.021429      0.959184      2.670790
  H      -3.893893      2.761308      1.889297
  H      -3.967028      0.549940      3.002862
  H      -1.736984      3.688382      1.121263
  H       0.281550      0.198030      2.569800
  H      -1.874107     -0.731128      3.338534
  C       0.737993      2.594410      1.377700
  N       1.368711      3.408577      2.468082
  H       1.483905      2.821461      3.292265
  H       0.721725      4.143890      2.746894
  H       0.610944      3.252046      0.519262
  H       1.428612      1.827211      1.115637
  Cu      3.087683      4.221712      2.048491
18
Coordinates from ORCA-job ./orca E -1967.192550225951
  C      -2.978609      2.203656      2.049030
  C      -1.763863      2.723963      1.617373
  C      -0.580210      2.008901      1.803802
  C      -0.632790      0.760530      2.425452
  C      -1.846276      0.237469      2.857536
  C      -3.021236      0.959463      2.671094
  H      -3.891405      2.764957      1.894780
  H      -3.967214      0.551116      3.003200
  H      -1.733878      3.689927      1.126185
  H       0.280339      0.193120      2.565254
  H      -1.876185     -0.734422      3.333573
  C       0.739833      2.591348      1.378332
  N       1.366077      3.412457      2.466498
  H       1.478611      2.830135      3.294451
  H       0.717467      4.148818      2.738550
  H       0.613776      3.245088      0.516750
  H       1.432177      1.823531      1.122712
  Cu      3.085847      4.224402      2.048466
18
Coordinates from ORCA-job ./orca E -1967.192545915767
  C      -2.978609      2.203613      2.049010
  C      -1.763830      2.723989      1.617529
  C      -0.580182      2.008838      1.803865
  C      -0.632801      0.760440      2.425423
  C      -1.846299      0.237422      2.857525
  C      -3.021257      0.959416      2.671052
  H      -3.891402      2.764904      1.894706
  H      -3.967252      0.551070      3.003107
  H      -1.733858      3.689962      1.126347
  H       0.280325      0.193024      2.565166
  H      -1.876226     -0.734476      3.333543
  C       0.739629      2.591621      1.378518
  N       1.366115      3.412548      2.466491
  H       1.478622      2.830246      3.294458
  H       0.717591      4.148999      2.738552
  H       0.614032      3.244877      0.516542
  H       1.431941      1.823733      1.123022
  Cu      3.085920      4.224233      2.048183
18
Coordinates from ORCA-job ./orca E -1967.191652162687
  C      -2.977849      2.203299      2.048471
  C      -1.762906      2.723260      1.616952
  C      -0.579442      2.007896      1.803637
  C      -0.632411      0.759707      2.425584
  C      -1.846074      0.237104      2.857726
  C      -3.020847      0.959308      2.670902
  H      -3.890497      2.764751      1.893895
  H      -3.966970      0.551284      3.002988
  H      -1.732661      3.689071      1.125467
  H       0.280570      0.192126      2.565602
  H      -1.876274     -0.734636      3.334048
  C       0.740548      2.590243      1.378242
  N       1.367108      3.411369      2.466021
  H       1.479397      2.829304      3.294184
  H       0.718725      4.148056      2.737781
  H       0.615190      3.243254      0.516047
  H       1.419709      1.836536      1.127860
  Cu      3.087143      4.222528      2.047634
18
Coordinates from ORCA-job ./orca E -1967.191640153141
  C      -2.977572      2.203674      2.049140
  C      -1.762501      2.723455      1.617788
  C      -0.579224      2.007574      1.803901
  C      -0.632554      0.759059      2.425106
  C      -1.846366      0.236597      2.857053
  C      -3.020904      0.959321      2.670851
  H      -3.890059      2.765523      1.895025
  H      -3.967114      0.551456      3.002886
  H      -1.732005      3.689504      1.126795
  H       0.280267      0.191103      2.564804
  H      -1.876827     -0.735387      3.332863
  C       0.741194      2.589260      1.378324
  N       1.366649      3.412322      2.465643
  H       1.478535      2.831357      3.294648
  H       0.717890      4.149100      2.736049
  H       0.615729      3.241630      0.515490
  H       1.420647      1.835393      1.129221
  Cu      3.086675      4.223518      2.047453
18
Coordinates from ORCA-job ./orca E -1967.190126237974
  C      -2.976812      2.203359      2.048601
  C      -1.761577      2.722726      1.617212
  C      -0.578483      2.006632      1.803675
  C      -0.632164      0.758325      2.425270
  C      -1.846142      0.236279      2.857255
  C      -3.020494      0.959213      2.670702
  H      -3.889154      2.765369      1.894213
  H      -3.966833      0.551671      3.002767
  H      -1.730807      3.688611      1.125916
  H       0.280511      0.190204      2.565243
  H      -1.876875     -0.735548      3.333370
  C       0.742112      2.587881      1.378052
  N       1.367642      3.411143      2.465176
  H       1.479309      2.830415      3.294376
  H       0.719024      4.148155      2.735280
  H       0.616888      3.240006      0.514998
  H       1.408415      1.848207      1.134026
  Cu      3.087899      4.221812      2.046909
18
Coordinates from ORCA-job ./orca E -1967.190104742912
  C      -2.976374      2.203932      2.049606
  C      -1.761001      2.723002      1.618298
  C      -0.578199      2.006196      1.803905
  C      -0.632337      0.757434      2.424504
  C      -1.846492      0.235594      2.856322
  C      -3.020512      0.959267      2.670691
  H      -3.888485      2.766521      1.895948
  H      -3.966958      0.551949      3.002729
  H      -1.729879      3.689232      1.127698
  H       0.280102      0.188785      2.564035
  H      -1.877575     -0.736573      3.331717
  C       0.743126      2.586337      1.378055
  N       1.366880      3.412449      2.464627
  H       1.477810      2.833330      3.295071
  H       0.717698      4.149631      2.732604
  H       0.617502      3.237800      0.514358
  H       1.409912      1.846479      1.135915
  Cu      3.087243      4.223094      2.046958
18
Coordinates from ORCA-job ./orca E -1967.190129041409
  C      -2.975342      2.205045      2.051630
  C      -1.759767      2.723437      1.620203
  C      -0.577611      2.005185      1.804055
  C      -0.632596      0.755576      2.422853
  C      -1.847051      0.234252      2.854604
  C      -3.020394      0.959412      2.670814
  H      -3.886974      2.768806      1.899452
  H      -3.967062      0.552586      3.002830
  H      -1.727989      3.690335      1.130921
  H       0.279339      0.185875      2.561309
  H      -1.878828     -0.738582      3.328590
  C       0.744622      2.583947      1.378298
  N       1.365206      3.414910      2.463576
  H       1.474380      2.838911      3.296442
  H       0.715005      4.152694      2.727153
  H       0.618999      3.233465      0.513064
  H       1.412447      1.843731      1.140149
  Cu      3.086074      4.224875      2.047100
18
Coordinates from ORCA-job ./orca E -1967.190115200358
  C      -2.974992      2.205357      2.052256
  C      -1.759353      2.723560      1.620830
  C      -0.577410      2.004812      1.804079
  C      -0.632670      0.754931      2.422294
  C      -1.847216      0.233800      2.854074
  C      -3.020338      0.959448      2.670881
  H      -3.886471      2.769480      1.900522
  H      -3.967084      0.552798      3.002888
  H      -1.727393      3.690657      1.131939
  H       0.279100      0.184876      2.560320
  H      -1.879219     -0.739248      3.327606
  C       0.744906      2.583456      1.378493
  N       1.364679      3.415718      2.463259
  H       1.473195      2.840713      3.296898
  H       0.714235      4.153802      2.725386
  H       0.619629      3.232042      0.512535
  H       1.413056      1.843089      1.141728
  Cu      3.085803      4.225171      2.047052
18
Coordinates from ORCA-job ./orca E -1967.187959629472
  C      -2.974229      2.205041      2.051719
  C      -1.758425      2.722829      1.620259
  C      -0.576667      2.003869      1.803862
  C      -0.632280      0.754196      2.422466
  C      -1.846991      0.233479      2.854281
  C      -3.019928      0.959338      2.670732
  H      -3.885563      2.769325      1.899709
  H      -3.966802      0.553010      3.002766
  H      -1.726191      3.689765      1.131066
  H       0.279345      0.183975      2.560771
  H      -1.879269     -0.739412      3.328117
  C       0.745828      2.582076      1.378236
  N       1.365675      3.414537      2.462806
  H       1.473969      2.839771      3.296638
  H       0.715372      4.152853      2.724629
  H       0.620793      3.230416      0.512060
  H       1.400796      1.855926      1.146397
  Cu      3.087029      4.223464      2.046528
18
Coordinates from ORCA-job ./orca E -1967.187906576608
  C      -2.973938      2.205409      2.052437
  C      -1.758043      2.723029      1.621065
  C      -0.576473      2.003579      1.804065
  C      -0.632394      0.753564      2.421923
  C      -1.847229      0.232964      2.853584
  C      -3.019938      0.959342      2.670721
  H      -3.885120      2.770085      1.900944
  H      -3.966883      0.553164      3.002738
  H      -1.725587      3.690203      1.132365
  H       0.279070      0.182961      2.559870
  H      -1.879743     -0.740178      3.326887
  C       0.746475      2.581091      1.378302
  N       1.365154      3.415521      2.462405
  H       1.472759      2.841966      3.297174
  H       0.714568      4.154089      2.722590
  H       0.621283      3.228822      0.511547
  H       1.401757      1.854779      1.147865
  Cu      3.086744      4.224070      2.046558
18
Coordinates from ORCA-job ./orca E -1967.184916446353
  C      -2.973175      2.205093      2.051900
  C      -1.757115      2.722298      1.620496
  C      -0.575730      2.002635      1.803851
  C      -0.632005      0.752828      2.422098
  C      -1.847006      0.232643      2.853792
  C      -3.019528      0.959233      2.670573
  H      -3.884212      2.769930      1.900130
  H      -3.966602      0.553376      3.002615
  H      -1.724384      3.689310      1.131494
  H       0.279314      0.182059      2.560324
  H      -1.879794     -0.740342      3.327399
  C       0.747396      2.579709      1.378049
  N       1.366150      3.414339      2.461955
  H       1.473533      2.841024      3.296917
  H       0.715705      4.153139      2.721836
  H       0.622447      3.227195      0.511076
  H       1.389497      1.867628      1.152498
  Cu      3.087970      4.222363      2.046039
18
Coordinates from ORCA-job ./orca E -1967.184899156587
  C      -2.972793      2.205586      2.052855
  C      -1.756632      2.722573      1.621511
  C      -0.575505      2.002295      1.804057
  C      -0.632136      0.752046      2.421348
  C      -1.847276      0.231996      2.852896
  C      -3.019515      0.959235      2.670567
  H      -3.883639      2.770925      1.901786
  H      -3.966670      0.553553      3.002599
  H      -1.723615      3.689904      1.133156
  H       0.278978      0.180815      2.559160
  H      -1.880348     -0.741312      3.325823
  C       0.748299      2.578324      1.378077
  N       1.365428      3.415600      2.461419
  H       1.471810      2.843888      3.297630
  H       0.714632      4.154765      2.719061
  H       0.622967      3.225183      0.510516
  H       1.390826      1.866053      1.154348
  Cu      3.087651      4.223033      2.046232
18
Coordinates from ORCA-job ./orca E -1967.181041099848
  C      -2.972030      2.205270      2.052318
  C      -1.755703      2.721841      1.620944
  C      -0.574761      2.001350      1.803846
  C      -0.631747      0.751309      2.421526
  C      -1.847054      0.231674      2.853105
  C      -3.019106      0.959124      2.670419
  H      -3.882730      2.770770      1.900971
  H      -3.966390      0.553765      3.002476
  H      -1.722411      3.689011      1.132286
  H       0.279221      0.179913      2.559618
  H      -1.880400     -0.741477      3.326337
  C       0.749222      2.576940      1.377828
  N       1.366424      3.414418      2.460973
  H       1.472583      2.842946      3.297377
  H       0.715769      4.153814      2.718310
  H       0.624132      3.223555      0.510049
  H       1.378563      1.878914      1.158938
  Cu      3.088878      4.221324      2.045720
18
Coordinates from ORCA-job ./orca E -1967.181020127329
  C      -2.971591      2.205811      2.053423
  C      -1.755186      2.722159      1.622076
  C      -0.574531      2.000996      1.804038
  C      -0.631872      0.750446      2.420643
  C      -1.847314      0.230946      2.852095
  C      -3.019053      0.959111      2.670434
  H      -3.882085      2.771855      1.902886
  H      -3.966416      0.553929      3.002477
  H      -1.721602      3.689687      1.134143
  H       0.278869      0.178538      2.558244
  H      -1.880960     -0.742574      3.324546
  C       0.750210      2.575417      1.377867
  N       1.365574      3.415858      2.460349
  H       1.470392      2.846259      3.298223
  H       0.714613      4.155809      2.714975
  H       0.624686      3.221310      0.509457
  H       1.380038      1.877169      1.161090
  Cu      3.088688      4.221734      2.046072
18
Coordinates from ORCA-job ./orca E -1967.180970052542
  C      -2.970685      2.206725      2.055364
  C      -1.754176      2.722625      1.623887
  C      -0.574089      2.000227      1.804099
  C      -0.632024      0.748860      2.419001
  C      -1.847661      0.229695      2.850483
  C      -3.018847      0.959115      2.670585
  H      -3.880804      2.773739      1.906241
  H      -3.966368      0.554282      3.002614
  H      -1.720116      3.690780      1.137183
  H       0.278285      0.176043      2.555568
  H      -1.881831     -0.744455      3.321603
  C       0.751535      2.573291      1.378077
  N       1.363959      3.418276      2.459306
  H       1.466165      2.851894      3.299697
  H       0.712537      4.159405      2.709045
  H       0.625880      3.217455      0.508373
  H       1.382247      1.874665      1.165126
  Cu      3.088453      4.221838      2.046787
18
Coordinates from ORCA-job ./orca E -1967.181017118892
  C      -2.969883      2.207451      2.057043
  C      -1.753250      2.722924      1.625478
  C      -0.573642      1.999447      1.804294
  C      -0.632188      0.747362      2.417682
  C      -1.848032      0.228498      2.849041
  C      -3.018710      0.959078      2.670709
  H      -3.879650      2.775350      1.909137
  H      -3.966390      0.554591      3.002705
  H      -1.718751      3.691629      1.139881
  H       0.277733      0.173696      2.553196
  H      -1.882716     -0.746224      3.318933
  C       0.752384      2.571900      1.378526
  N       1.362619      3.420469      2.458403
  H       1.462531      2.856952      3.300995
  H       0.710907      4.162739      2.703904
  H       0.627305      3.213935      0.507179
  H       1.383808      1.872936      1.168818
  Cu      3.088385      4.221728      2.047117
18
Coordinates from ORCA-job ./orca E -1967.181016566438
  C      -2.969878      2.207415      2.057044
  C      -1.753221      2.722933      1.625605
  C      -0.573617      1.999389      1.804339
  C      -0.632201      0.747281      2.417650
  C      -1.848052      0.228448      2.849025
  C      -3.018726      0.959036      2.670684
  H      -3.879642      2.775311      1.909110
  H      -3.966420      0.554558      3.002647
  H      -1.718734      3.691651      1.140030
  H       0.277719      0.173606      2.553113
  H      -1.882749     -0.746281      3.318902
  C       0.752261      2.572080      1.378642
  N       1.362636      3.420561      2.458398
  H       1.462447      2.857121      3.301052
  H       0.711010      4.162948      2.703803
  H       0.627488      3.213807      0.507044
  H       1.383656      1.873071      1.168992
  Cu      3.088480      4.221522      2.046962
18
Coordinates from ORCA-job ./orca E -1967.176178045891
  C      -2.969113      2.207097      2.056509
  C      -1.752288      2.722201      1.625045
  C      -0.572871      1.998443      1.804141
  C      -0.631811      0.746542      2.417840
  C      -1.847829      0.228123      2.849241
  C      -3.018316      0.958923      2.670537
  H      -3.878729      2.775156      1.908293
  H      -3.966140      0.554768      3.002520
  H      -1.717524      3.690758      1.139169
  H       0.277962      0.172701      2.553587
  H      -1.882804     -0.746449      3.319421
  C       0.753187      2.570695      1.378413
  N       1.363635      3.419377      2.457970
  H       1.463221      2.856180      3.300813
  H       0.712151      4.161991      2.703068
  H       0.628660      3.212176      0.506598
  H       1.371359      1.885963      1.173399
  Cu      3.089709      4.219813      2.046477
18
Coordinates from ORCA-job ./orca E -1967.176155745814
  C      -2.969024      2.207262      2.056915
  C      -1.752158      2.722367      1.625598
  C      -0.572806      1.998391      1.804368
  C      -0.631864      0.746266      2.417561
  C      -1.847944      0.227824      2.848795
  C      -3.018339      0.958848      2.670466
  H      -3.878588      2.775479      1.908964
  H      -3.966187      0.554706      3.002395
  H      -1.717307      3.691065      1.140022
  H       0.277857      0.172265      2.553163
  H      -1.883006     -0.746897      3.318660
  C       0.753583      2.570097      1.378474
  N       1.363393      3.420000      2.457705
  H       1.462379      2.857589      3.301160
  H       0.711934      4.162913      2.701724
  H       0.628856      3.211281      0.506349
  H       1.371868      1.885242      1.174215
  Cu      3.089813      4.219762      2.046504
18
Coordinates from ORCA-job ./orca E -1967.170222170600
  C      -2.968258      2.206945      2.056380
  C      -1.751225      2.721635      1.625039
  C      -0.572059      1.997444      1.804171
  C      -0.631474      0.745526      2.417753
  C      -1.847723      0.227499      2.849012
  C      -3.017929      0.958735      2.670320
  H      -3.877675      2.775324      1.908146
  H      -3.965908      0.554915      3.002269
  H      -1.716097      3.690171      1.139161
  H       0.278099      0.171359      2.553639
  H      -1.883062     -0.747066      3.319181
  C       0.754509      2.568711      1.378248
  N       1.364392      3.418815      2.457280
  H       1.463152      2.856647      3.300923
  H       0.713075      4.161955      2.700991
  H       0.630028      3.209649      0.505906
  H       1.359574      1.898144      1.178598
  Cu      3.091041      4.218051      2.046023
18
Coordinates from ORCA-job ./orca E -1967.170195630231
  C      -2.968097      2.207198      2.056999
  C      -1.751045      2.721871      1.625740
  C      -0.571990      1.997392      1.804370
  C      -0.631513      0.745161      2.417278
  C      -1.847816      0.227096      2.848396
  C      -3.017897      0.958645      2.670276
  H      -3.877442      2.775809      1.909209
  H      -3.965894      0.554837      3.002189
  H      -1.715804      3.690618      1.140291
  H       0.277979      0.170773      2.552935
  H      -1.883257     -0.747682      3.318114
  C       0.755080      2.567823      1.378283
  N       1.363954      3.419678      2.456887
  H       1.461663      2.858667      3.301444
  H       0.712694      4.163333      2.698877
  H       0.630230      3.208418      0.505625
  H       1.360345      1.897088      1.179806
  Cu      3.091269      4.217736      2.046320
18
Coordinates from ORCA-job ./orca E -1967.163035775078
  C      -2.967331      2.206880      2.056464
  C      -1.750112      2.721138      1.625182
  C      -0.571243      1.996444      1.804176
  C      -0.631124      0.744420      2.417472
  C      -1.847595      0.226771      2.848615
  C      -3.017488      0.958532      2.670130
  H      -3.876529      2.775653      1.908390
  H      -3.965615      0.555047      3.002062
  H      -1.714593      3.689723      1.139431
  H       0.278221      0.169867      2.553415
  H      -1.883314     -0.747851      3.318636
  C       0.756006      2.566436      1.378061
  N       1.364952      3.418493      2.456465
  H       1.462436      2.857725      3.301210
  H       0.713835      4.162373      2.698146
  H       0.631403      3.206784      0.505186
  H       1.348053      1.910002      1.184156
  Cu      3.092497      4.216024      2.045843
18
Coordinates from ORCA-job ./orca E -1967.163007847002
  C      -2.967152      2.207142      2.057188
  C      -1.749945      2.721420      1.625951
  C      -0.571197      1.996429      1.804338
  C      -0.631132      0.744052      2.416892
  C      -1.847636      0.226319      2.847916
  C      -3.017409      0.958402      2.670103
  H      -3.876288      2.776152      1.909647
  H      -3.965539      0.554904      3.002016
  H      -1.714336      3.690244      1.140680
  H       0.278135      0.169281      2.552561
  H      -1.883432     -0.748548      3.317424
  C       0.756600      2.565488      1.378092
  N       1.364416      3.419481      2.456005
  H       1.460442      2.860086      3.301849
  H       0.713488      4.164123      2.695525
  H       0.631592      3.205433      0.504888
  H       1.348874      1.908843      1.185595
  Cu      3.092978      4.215209      2.046369
18
Coordinates from ORCA-job ./orca E -1967.154477640467
  C      -2.966386      2.206824      2.056654
  C      -1.749011      2.720686      1.625394
  C      -0.570450      1.995481      1.804147
  C      -0.630743      0.743311      2.417089
  C      -1.847416      0.225993      2.848136
  C      -3.017001      0.958289      2.669957
  H      -3.875374      2.775996      1.908828
  H      -3.965262      0.555113      3.001888
  H      -1.713124      3.689349      1.139821
  H       0.278376      0.168374      2.553044
  H      -1.883490     -0.748717      3.317949
  C       0.757527      2.564100      1.377873
  N       1.365415      3.418294      2.455586
  H       1.461214      2.859144      3.301618
  H       0.714629      4.163161      2.694797
  H       0.632766      3.203797      0.504453
  H       1.336583      1.921770      1.189906
  Cu      3.094206      4.213496      2.045898
18
Coordinates from ORCA-job ./orca E -1967.154447655988
  C      -2.966198      2.207080      2.057452
  C      -1.748859      2.720995      1.626209
  C      -0.570420      1.995493      1.804287
  C      -0.630725      0.742933      2.416427
  C      -1.847412      0.225502      2.847382
  C      -3.016883      0.958126      2.669953
  H      -3.875135      2.776488      1.910221
  H      -3.965135      0.554920      3.001872
  H      -1.712909      3.689918      1.141159
  H       0.278322      0.167773      2.552048
  H      -1.883544     -0.749477      3.316631
  C       0.758104      2.563159      1.377928
  N       1.364808      3.419384      2.455077
  H       1.458809      2.861783      3.302355
  H       0.714340      4.165227      2.691775
  H       0.632983      3.202347      0.504124
  H       1.337397      1.920583      1.191540
  Cu      3.094917      4.212227      2.046601
18
Coordinates from ORCA-job ./orca E -1967.144385103793
  C      -2.965432      2.206761      2.056918
  C      -1.747925      2.720260      1.625654
  C      -0.569673      1.994543      1.804098
  C      -0.630337      0.742191      2.416628
  C      -1.847193      0.225176      2.847604
  C      -3.016475      0.958013      2.669808
  H      -3.874221      2.776331      1.909401
  H      -3.964858      0.555129      3.001744
  H      -1.711696      3.689022      1.140301
  H       0.278562      0.166865      2.552536
  H      -1.883603     -0.749646      3.317157
  C       0.759031      2.561769      1.377713
  N       1.365807      3.418196      2.454662
  H       1.459580      2.860841      3.302128
  H       0.715483      4.164264      2.691049
  H       0.634158      3.200710      0.503693
  H       1.325106      1.933523      1.195808
  Cu      3.096145      4.210512      2.046137
18
Coordinates from ORCA-job ./orca E -1967.144352806790
  C      -2.965253      2.206993      2.057759
  C      -1.747802      2.720591      1.626512
  C      -0.569662      1.994597      1.804245
  C      -0.630292      0.741833      2.415934
  C      -1.847145      0.224655      2.846812
  C      -3.016331      0.957803      2.669802
  H      -3.874005      2.776781      1.910870
  H      -3.964694      0.554854      3.001720
  H      -1.711538      3.689630      1.141711
  H       0.278549      0.166304      2.551473
  H      -1.883586     -0.750454      3.315767
  C       0.759553      2.560887      1.377801
  N       1.365164      3.419360      2.454111
  H       1.456835      2.863685      3.302930
  H       0.715315      4.166617      2.687717
  H       0.634387      3.199205      0.503341
  H       1.325859      1.932366      1.197570
  Cu      3.097107      4.208753      2.046966
18
Coordinates from ORCA-job ./orca E -1967.144382476042
  C      -2.964806      2.207378      2.059411
  C      -1.747468      2.721082      1.628047
  C      -0.569597      1.994459      1.804263
  C      -0.630226      0.740962      2.414507
  C      -1.847046      0.223605      2.845435
  C      -3.016019      0.957398      2.669925
  H      -3.873457      2.777644      1.913769
  H      -3.964372      0.554413      3.001842
  H      -1.711143      3.690682      1.144329
  H       0.278439      0.164972      2.549157
  H      -1.883588     -0.752048      3.313264
  C       0.760348      2.559581      1.377997
  N       1.363876      3.421645      2.453116
  H       1.451202      2.869294      3.304572
  H       0.715004      4.171411      2.681128
  H       0.635072      3.196456      0.502525
  H       1.327117      1.930577      1.200936
  Cu      3.099123      4.204948      2.048817
18
Coordinates from ORCA-job ./orca E -1967.144356425337
  C      -2.964626      2.207466      2.059933
  C      -1.747304      2.721157      1.628514
  C      -0.569517      1.994301      1.804264
  C      -0.630217      0.740587      2.414068
  C      -1.847033      0.223237      2.845028
  C      -3.015918      0.957282      2.670017
  H      -3.873223      2.777915      1.914677
  H      -3.964280      0.554342      3.001960
  H      -1.710954      3.690932      1.145133
  H       0.278374      0.164407      2.548350
  H      -1.883639     -0.752575      3.312513
  C       0.760481      2.559394      1.378102
  N       1.363446      3.422385      2.452830
  H       1.449302      2.871119      3.305130
  H       0.714921      4.172997      2.679008
  H       0.635470      3.195630      0.502146
  H       1.327390      1.930269      1.201915
  Cu      3.099787      4.203617      2.049454
18
Coordinates from ORCA-job ./orca E -1967.132541400199
  C      -2.963859      2.207146      2.059400
  C      -1.746368      2.720421      1.627964
  C      -0.568768      1.993350      1.804083
  C      -0.629829      0.739843      2.414277
  C      -1.846816      0.222909      2.845256
  C      -3.015511      0.957167      2.669873
  H      -3.872307      2.777757      1.913856
  H      -3.964004      0.554549      3.001831
  H      -1.709737      3.690035      1.144280
  H       0.278613      0.163497      2.548850
  H      -1.883701     -0.752747      3.313045
  C       0.761410      2.558003      1.377902
  N       1.364446      3.421195      2.452428
  H       1.450073      2.870179      3.304912
  H       0.716066      4.172028      2.678291
  H       0.636650      3.193990      0.501729
  H       1.315088      1.943238      1.206055
  Cu      3.101014      4.201901      2.049011
18
Coordinates from ORCA-job ./orca E -1967.132541483615
  C      -2.963810      2.207211      2.059798
  C      -1.746338      2.720594      1.628457
  C      -0.568757      1.993419      1.804267
  C      -0.629785      0.739698      2.413983
  C      -1.846769      0.222635      2.844840
  C      -3.015446      0.957009      2.669837
  H      -3.872260      2.777895      1.914524
  H      -3.963923      0.554329      3.001767
  H      -1.709719      3.690336      1.145051
  H       0.278666      0.163279      2.548360
  H      -1.883644     -0.753166      3.312325
  C       0.761554      2.557713      1.378018
  N       1.364147      3.421799      2.452130
  H       1.448550      2.871685      3.305338
  H       0.716181      4.173371      2.676510
  H       0.636811      3.193236      0.501512
  H       1.315305      1.942810      1.206909
  Cu      3.101696      4.200606      2.049415
18
Coordinates from ORCA-job ./orca E -1967.118808989332
  C      -2.963042      2.206891      2.059265
  C      -1.745401      2.719857      1.627907
  C      -0.568009      1.992468      1.804088
  C      -0.629397      0.738953      2.414194
  C      -1.846552      0.222306      2.845069
  C      -3.015039      0.956894      2.669694
  H      -3.871344      2.777737      1.913702
  H      -3.963648      0.554537      3.001638
  H      -1.708502      3.689438      1.144198
  H       0.278905      0.162368      2.548863
  H      -1.883707     -0.753338      3.312859
  C       0.762483      2.556321      1.377820
  N       1.365147      3.420608      2.451731
  H       1.449321      2.870745      3.305122
  H       0.717326      4.172401      2.675794
  H       0.637992      3.191595      0.501097
  H       1.303007      1.955790      1.211022
  Cu      3.102923      4.198888      2.048976
18
Coordinates from ORCA-job ./orca E -1967.118807582952
  C      -2.962987      2.206988      2.059825
  C      -1.745404      2.720115      1.628533
  C      -0.568033      1.992616      1.804279
  C      -0.629321      0.738815      2.413765
  C      -1.846453      0.221957      2.844494
  C      -3.014929      0.956673      2.669644
  H      -3.871301      2.777918      1.914670
  H      -3.963500      0.554198      3.001555
  H      -1.708533      3.689887      1.145215
  H       0.278997      0.162168      2.548189
  H      -1.883570     -0.753890      3.311860
  C       0.762698      2.555872      1.377977
  N       1.364723      3.421417      2.451312
  H       1.447188      2.872783      3.305679
  H       0.717493      4.174243      2.673331
  H       0.638172      3.190529      0.500849
  H       1.303330      1.955134      1.212277
  Cu      3.103890      4.197037      2.049588
18
Coordinates from ORCA-job ./orca E -1967.102926566154
  C      -2.962220      2.206667      2.059292
  C      -1.744467      2.719377      1.627984
  C      -0.567284      1.991664      1.804103
  C      -0.628934      0.738070      2.413979
  C      -1.846237      0.221629      2.844725
  C      -3.014523      0.956558      2.669501
  H      -3.870385      2.777760      1.913846
  H      -3.963227      0.554406      3.001425
  H      -1.707315      3.688987      1.144363
  H       0.279235      0.161257      2.548695
  H      -1.883634     -0.754062      3.312396
  C       0.763628      2.554478      1.377782
  N       1.365722      3.420225      2.450916
  H       1.447958      2.871843      3.305467
  H       0.718638      4.173271      2.672617
  H       0.639353      3.188886      0.500438
  H       1.291035      1.968127      1.216355
  Cu      3.105116      4.195318      2.049155
18
Coordinates from ORCA-job ./orca E -1967.102925219759
  C      -2.962160      2.206763      2.059953
  C      -1.744496      2.719689      1.628696
  C      -0.567335      1.991868      1.804273
  C      -0.628821      0.737939      2.413447
  C      -1.846077      0.221230      2.844061
  C      -3.014364      0.956284      2.669459
  H      -3.870351      2.777940      1.915007
  H      -3.963012      0.553975      3.001354
  H      -1.707402      3.689534      1.145543
  H       0.279377      0.161079      2.547869
  H      -1.883404     -0.754701      3.311236
  C       0.763834      2.554004      1.377969
  N       1.365193      3.421171      2.450413
  H       1.445281      2.874253      3.306123
  H       0.718886      4.175528      2.669625
  H       0.639577      3.187632      0.500140
  H       1.291368      1.967399      1.217883
  Cu      3.106365      4.192872      2.049989
18
Coordinates from ORCA-job ./orca E -1967.084635845101
  C      -2.961393      2.206442      2.059421
  C      -1.743559      2.718951      1.628148
  C      -0.566586      1.990915      1.804100
  C      -0.628434      0.737193      2.413664
  C      -1.845862      0.220901      2.844294
  C      -3.013958      0.956168      2.669317
  H      -3.869435      2.777782      1.914183
  H      -3.962739      0.554182      3.001224
  H      -1.706182      3.688634      1.144693
  H       0.279615      0.160167      2.548380
  H      -1.883470     -0.754873      3.311775
  C       0.764764      2.552609      1.377778
  N       1.366192      3.419979      2.450020
  H       1.446050      2.873313      3.305913
  H       0.720032      4.174554      2.668914
  H       0.640759      3.185987      0.499733
  H       1.279076      1.980406      1.221920
  Cu      3.107591      4.191151      2.049563
18
Coordinates from ORCA-job ./orca E -1967.084641952125
  C      -2.961327      2.206530      2.060165
  C      -1.743607      2.719297      1.628926
  C      -0.566651      1.991155      1.804262
  C      -0.628293      0.737060      2.413053
  C      -1.845656      0.220456      2.843557
  C      -3.013764      0.955848      2.669281
  H      -3.869406      2.777955      1.915501
  H      -3.962475      0.553675      3.001157
  H      -1.706314      3.689246      1.146000
  H       0.279794      0.159993      2.547415
  H      -1.883172     -0.755587      3.310482
  C       0.764936      2.552156      1.378017
  N       1.365583      3.421044      2.449453
  H       1.442934      2.876047      3.306658
  H       0.720371      4.177170      2.665490
  H       0.641051      3.184564      0.499387
  H       1.279381      1.979660      1.223682
  Cu      3.109078      4.188191      2.050554
18
Coordinates from ORCA-job ./orca E -1967.063663836779
  C      -2.960560      2.206208      2.059633
  C      -1.742669      2.718558      1.628380
  C      -0.565902      1.990201      1.804091
  C      -0.627908      0.736314      2.413274
  C      -1.845442      0.220126      2.843793
  C      -3.013359      0.955732      2.669140
  H      -3.868490      2.777796      1.914676
  H      -3.962204      0.553882      3.001028
  H      -1.705094      3.688345      1.145150
  H       0.280030      0.159080      2.547930
  H      -1.883240     -0.755760      3.311023
  C       0.765866      2.550760      1.377831
  N       1.366582      3.419850      2.449065
  H       1.443702      2.875108      3.306452
  H       0.721517      4.176193      2.664783
  H       0.642234      3.182917      0.498985
  H       1.267092      1.992682      1.227673
  Cu      3.110303      4.186469      2.050135
18
Coordinates from ORCA-job ./orca E -1967.063645798217
  C      -2.960477      2.206302      2.060466
  C      -1.742709      2.718945      1.629254
  C      -0.565959      1.990467      1.804274
  C      -0.627741      0.736162      2.412600
  C      -1.845204      0.219622      2.842971
  C      -3.013135      0.955368      2.669096
  H      -3.868447      2.777987      1.916152
  H      -3.961905      0.553308      3.000943
  H      -1.705228      3.689036      1.146628
  H       0.280239      0.158884      2.546841
  H      -1.882903     -0.756570      3.309572
  C       0.766000      2.550325      1.378142
  N       1.365881      3.421039      2.448419
  H       1.440176      2.878180      3.307265
  H       0.721907      4.179140      2.660925
  H       0.642628      3.181265      0.498586
  H       1.267368      1.991922      1.229676
  Cu      3.111967      4.183078      2.051230
18
Coordinates from ORCA-job ./orca E -1967.039629208403
  C      -2.959709      2.205979      2.059934
  C      -1.741770      2.718205      1.628710
  C      -0.565210      1.989512      1.804107
  C      -0.627356      0.735414      2.412824
  C      -1.844991      0.219292      2.843209
  C      -3.012731      0.955252      2.668956
  H      -3.867530      2.777828      1.915326
  H      -3.961634      0.553516      3.000813
  H      -1.704006      3.688134      1.145779
  H       0.280475      0.157970      2.547361
  H      -1.882972     -0.756743      3.310116
  C       0.766931      2.548927      1.377961
  N       1.366880      3.419844      2.448036
  H       1.440945      2.877241      3.307063
  H       0.723055      4.178160      2.660220
  H       0.643813      3.179616      0.498189
  H       1.255080      2.004960      1.233616
  Cu      3.113191      4.181354      2.050820
18
Coordinates from ORCA-job ./orca E -1967.039627734311
  C      -2.959624      2.206053      2.060810
  C      -1.741830      2.718607      1.629622
  C      -0.565285      1.989799      1.804276
  C      -0.627165      0.735266      2.412092
  C      -1.844708      0.218762      2.842344
  C      -3.012473      0.954853      2.668921
  H      -3.867496      2.777993      1.916889
  H      -3.961289      0.552887      3.000748
  H      -1.704184      3.688861      1.147335
  H       0.280725      0.157797      2.546173
  H      -1.882564     -0.757592      3.308589
  C       0.766995      2.548557      1.378329
  N       1.366118      3.421109      2.447355
  H       1.437081      2.880536      3.307939
  H       0.723553      4.181377      2.656076
  H       0.644279      3.177846      0.497729
  H       1.255279      2.004241      1.235764
  Cu      3.115048      4.177506      2.052049
