18
Coordinates from ORCA-job ./orca E -1967.142248992231
  C          -2.95282756176200      1.80225606025239      1.57194660420450
  C          -1.85172578326171      2.63213605206789      1.45670114026427
  C          -0.69154587165682      2.37463461391316      2.20560619320662
  C          -0.65393400282861      1.26689075732613      3.06892256133899
  C          -1.75956399758090      0.44491942634146      3.18033653113093
  C          -2.90792722853334      0.70830722577919      2.43216207114429
  H          -3.84474541100007      2.00451328554536      0.99453742835628
  H          -3.76786387838311      0.05749341956132      2.52246643859910
  H          -1.87438647790326      3.48236481266821      0.78694638197608
  H           0.22985354847759      1.04011666133829      3.65077074802618
  H          -1.73211537160364     -0.40535339476181      3.84834392066144
  C           0.41082461222776      3.28862778546675      2.03942716519157
  N           1.55567261266357      3.27075180928861      2.77975864972871
  H           1.66499155088668      2.61178919429403      3.54184767182936
  H           2.07064220396942      4.13723023958604      2.89030493096889
  H           0.22626956969242      4.21187558067285      1.50336125991917
  H           1.40105059627287      2.20430804894393     -0.46710992986802
  Cu          1.89979089032324      2.50159842171597      0.90671023332145
