18
Coordinates from ORCA-job ./orca E -1967.135064719030
  C          -2.94716022513933      1.81740334727783      1.58450721318571
  C          -1.82498706376084      2.61236792493901      1.41812603281562
  C          -0.65072376719862      2.33258154527547      2.12874028671849
  C          -0.61339211764437      1.23355291507143      2.99673384197473
  C          -1.73788516613423      0.44121892580910      3.15761913091057
  C          -2.90546935887545      0.73059730616864      2.45362041071344
  H          -3.85330955256632      2.04295198251603      1.03825945886469
  H          -3.78056211282732      0.10698530063809      2.58211656312372
  H          -1.84901652458804      3.45551683330386      0.73918352287112
  H           0.28797726143210      0.98048528211845      3.54044872294925
  H          -1.70590423763457     -0.40587455434219      3.82977067049573
  C           0.48131862342793      3.22839176987996      1.93442155903767
  N           1.53820219785957      3.29066400350501      2.81517810036490
  H           1.55461229087434      2.68848103778897      3.62787053585587
  H           2.01085892835905      4.17804622676178      2.93318149042207
  H           0.29665290049483      4.14099141811697      1.38296314935971
  H           1.12827941544985      2.33426331487426     -0.22488408291574
  Cu          1.99296850847160      2.42583542029692      0.97518339325200
