18
Coordinates from ORCA-job ./orca E -1967.123092867513
  C          -2.98997096863390      1.88514589335305      1.68023668254871
  C          -1.85086406224805      2.63686304469849      1.42170097229876
  C          -0.62881186786122      2.28000958896972      1.99435597274490
  C          -0.55752988138382      1.15376686264293      2.81846871169912
  C          -1.69654901696958      0.40474497595661      3.07442125779148
  C          -2.91529678452925      0.76902136301524      2.50666387674119
  H          -3.93495231298860      2.17233506769307      1.23790862076166
  H          -3.80200515944607      0.18142749329630      2.70615153692750
  H          -1.90813509990820      3.50691826854236      0.77923741308627
  H           0.38834841873598      0.84532418031321      3.24796181696453
  H          -1.63358238763706     -0.46779134763046      3.71145995558538
  C           0.55246162257444      3.12463046186892      1.72074792934696
  N           1.49122529323784      3.33436281717994      2.77190421217849
  H           1.28215806161329      2.86980293132873      3.64513609696548
  H           1.77840066623481      4.29523593719102      2.90005106501622
  H           0.33995578589246      4.02370263516473      1.15888244839115
  H           1.10831315007852      2.35766554954051      0.32718448931984
  Cu          2.39929454323872      2.26129427687477      1.21056694163146
