18
Coordinates from ORCA-job ./orca E -1967.165103837182
  C          -3.03173207446871      2.15436660310953      1.96832297138916
  C          -1.83029590227907      2.71487173364357      1.54616935565346
  C          -0.61920252174766      2.07490881943580      1.81028815870622
  C          -0.62881935330484      0.86206549387278      2.50268770821957
  C          -1.82650617810513      0.30331889473755      2.92862469445738
  C          -3.03137697738529      0.94927257239455      2.66179871877184
  H          -3.96586276156609      2.65726008769444      1.75281285908838
  H          -3.96552124682964      0.51006874830647      2.98784181965506
  H          -1.83237222078102      3.65338302912113      1.00437298418033
  H           0.30629684067930      0.34898733607172      2.69684359257580
  H          -1.82284064128592     -0.64001985918098      3.45974191064600
  C           0.66841548086832      2.70875267577770      1.38807716739445
  N           1.42501852698982      3.32137698330272      2.51205842894791
  H           1.59345740768457      2.61623506015080      3.22686776139689
  H           0.83397874902427      4.02328239082521      2.95691088315503
  H           0.52276315307844      3.45957013051139      0.61760937452529
  H           1.49520856446234      1.77076511584207      0.84052120652979
  Cu          3.13185115496671      4.14599418438235      2.05149040470624
