18
Coordinates from ORCA-job ./orca E -1967.140831918926
  C          -2.94591363861219      1.80078928382951      1.56771703530998
  C          -1.83875169662198      2.62143289652051      1.44062643670196
  C          -0.67843555065250      2.36272475575928      2.18686818652264
  C          -0.64510033040979      1.26200966684641      3.05742674467382
  C          -1.75640656721316      0.44794905743873      3.18059387774830
  C          -2.90616106876472      0.71337983045487      2.43647870832206
  H          -3.83871899933785      2.00548758873011      0.99241442437639
  H          -3.77060537539400      0.06989528852780      2.53579305860650
  H          -1.85832665819979      3.46584662626982      0.76336513733518
  H           0.24029758537252      1.03174747416949      3.63561638465131
  H          -1.73095780584927     -0.39747008348644      3.85490120147568
  C           0.43266261567369      3.27150096625475      2.01391613846594
  N           1.55821558319679      3.26914250622446      2.79104758622641
  H           1.64494167927297      2.62120269606996      3.56472833431354
  H           2.06304054519544      4.14019322386556      2.90798549733585
  H           0.24762476563552      4.19531054659524      1.47945339763026
  H           1.29169582131642      2.26370080025563     -0.41335100160292
  Cu          1.91335909539199      2.48961687567401      0.91745885190682
