18
Coordinates from ORCA-job ./orca E -1967.141909775733
  C          -2.95042749446826      1.80139472136951      1.57058133652704
  C          -1.84706049023856      2.62786921239461      1.45111824826344
  C          -0.68718860997635      2.37034420833099      2.19969293858137
  C          -0.65135047540628      1.26536112688729      3.06587151364753
  C          -1.75914253447809      0.44630923783999      3.18151739466128
  C          -2.90776799250506      0.71015379862243      2.43437398305025
  H          -3.84240599088993      2.00428208620611      0.99344114020284
  H          -3.76940003441783      0.06205405514063      2.52791570390510
  H          -1.86830192576200      3.47563533609692      0.77816524469811
  H           0.23281409377721      1.03728818277431      3.64671311270722
  H          -1.73260919959245     -0.40196164142189      3.85213337523586
  C           0.41849096116289      3.28254456493456      2.03111846188567
  N           1.55629824208835      3.26961208047846      2.78408785361401
  H           1.65735207110105      2.61367257244169      3.54967938713409
  H           2.06715111329348      4.13789279988149      2.89817375560486
  H           0.23287321295056      4.20677526950042      1.49722271416829
  H           1.36743759249948      2.22619913949829     -0.45722626400024
  Cu          1.90569746086190      2.49903324902394      0.90846010011304
