18
Coordinates from ORCA-job ./orca E -1967.124999428007
  C          -3.00122427983443      1.89679996260894      1.70002104924910
  C          -1.86169924573084      2.64377455487381      1.42802260261774
  C          -0.63244521404965      2.27470610363320      1.97653941671017
  C          -0.55442916208807      1.14120110458660      2.79008546087627
  C          -1.69363807568014      0.39760991295153      3.06044303992086
  C          -2.91972407576609      0.77420652874766      2.51667483659903
  H          -3.95176016854907      2.19334194742063      1.27607965226014
  H          -3.80678652782168      0.19101480988641      2.72727335738590
  H          -1.92478141681376      3.51994678732025      0.79448293107493
  H           0.39778168223687      0.82529194533212      3.19985267174572
  H          -1.62563044153950     -0.48024531524781      3.68965283765419
  C           0.55267435025513      3.11164489120070      1.69131630960524
  N           1.48858386839380      3.33696610473837      2.75592060398857
  H           1.24514925608248      2.89318728729505      3.63173565504879
  H           1.73544082850438      4.30936115291689      2.88522802549444
  H           0.33780383561177      4.00928608955296      1.12724226202513
  H           1.14888656070533      2.34203780521197      0.39021645157314
  Cu          2.48825822608380      2.25432832696981      1.27225283616972
