18
Coordinates from ORCA-job ./orca E -1967.118807582952
  C          -2.96298735126512      2.20698799503278      2.05982470629694
  C          -1.74540365502366      2.72011459916901      1.62853298915049
  C          -0.56803310577234      1.99261625268631      1.80427935475760
  C          -0.62932071510596      0.73881494882626      2.41376472245386
  C          -1.84645291875608      0.22195747733144      2.84449398610027
  C          -3.01492887582620      0.95667324577153      2.66964393507888
  H          -3.87130099658463      2.77791814174669      1.91466963062864
  H          -3.96350042572025      0.55419846387796      3.00155452054462
  H          -1.70853321715494      3.68988666418622      1.14521476764993
  H           0.27899684200808      0.16216802102905      2.54818898077241
  H          -1.88356980732246     -0.75389034037432      3.31185954410311
  C           0.76269818123122      2.55587150661190      1.37797688929665
  N           1.36472292352970      3.42141710952125      2.45131238547341
  H           1.44718829197387      2.87278312969632      3.30567939611026
  H           0.71749276180943      4.17424336992818      2.67333058923348
  H           0.63817175573483      3.19052870490282      0.50084864774445
  H           1.30333024558083      1.95513415328299      1.21227654865440
  Cu          3.10389006666413      4.19703655677224      2.04958840594920
