18
Coordinates from ORCA-job ./orca E -1967.133745820254
  C          -2.94956162407040      1.82289693941218      1.59131942205179
  C          -1.82460851611013      2.61247344942403      1.41570117791603
  C          -0.64619687979041      2.32624730582873      2.11579709747360
  C          -0.60634742573348      1.22565944799485      2.98105829937324
  C          -1.73324172372533      0.43821387972500      3.15083300876712
  C          -2.90584480265848      0.73472183664563      2.45844532757282
  H          -3.85950160966628      2.05426126295094      1.05381631296351
  H          -3.78303732236000      0.11559836604860      2.59414709657477
  H          -1.85090280599486      3.45708607508111      0.73862683575287
  H           0.29941476775511      0.96686108689659      3.51496808474748
  H          -1.69897094130228     -0.41054534595897      3.82080082308062
  C           0.48902622259403      3.21999933812303      1.91813250872978
  N           1.53006629616541      3.29735731294810      2.81912238465286
  H           1.53055821809397      2.70596798728047      3.63959692530595
  H           1.99666341796563      4.18791383928881      2.93537472411490
  H           0.30480712245528      4.12860945667349      1.36043253528925
  H           1.11539073367667      2.34016122513146     -0.18585829608316
  Cu          2.01474687270573      2.41097653650550      0.99072573171609
