18
Coordinates from ORCA-job ./orca E -1967.191155991233
  C          -2.98849017304754      2.19718931266273      2.03792867910009
  C          -1.77607726573132      2.72416272374631      1.60710205296989
  C          -0.58744943938153      2.02007312213181      1.80380337615598
  C          -0.63245060014162      0.77645118342013      2.43576865179425
  C          -1.84305030520804      0.24774783589683      2.86810952261209
  C          -3.02337015504667      0.95838252290860      2.67059657380998
  H          -3.90516347079087      2.74963693929888      1.87501764232014
  H          -3.96726260862592      0.54490215011912      3.00225914639825
  H          -1.75182484204704      3.68647406376659      1.10864208737863
  H           0.28465015828508      0.21718440948945      2.58195658950405
  H          -1.86694225003247     -0.72036281504174      3.35210505758426
  C           0.72593598689179      2.61319764910311      1.37887033565939
  N           1.37309135885340      3.40092343695648      2.47512699178040
  H           1.49577828640543      2.79789248069027      3.28652339328227
  H           0.73225469657087      4.13367526090045      2.77571102496194
  H           0.59913520877169      3.28032109337971      0.52876485814604
  H           1.46298784141125      1.79143361491005      1.07475944830263
  Cu          3.09070757286390      4.21517501565995      2.04999456823842
