18
Coordinates from ORCA-job ./orca E -1967.138514292634
  C          -2.94233993089791      1.80402020824543      1.56929394390157
  C          -1.82851094414948      2.61387680091045      1.42684475879506
  C          -0.66475519220160      2.34976055655278      2.16322418955081
  C          -0.63265361530622      1.25353354822167      3.03715428223909
  C          -1.74992900646495      0.44832641574237      3.17520223469864
  C          -2.90460473690259      0.72002101510595      2.44239250649866
  H          -3.83879805631464      2.01472762994159      1.00172439678897
  H          -3.77367599984701      0.08461775091718      2.55272742330167
  H          -1.84759552129411      3.45464634157064      0.74492410425224
  H           0.25750132536749      1.01650903901967      3.60548501440714
  H          -1.72370577254958     -0.39494750216213      3.85226496255327
  C           0.45692964856966      3.25201998919605      1.98054967829122
  N           1.55481690140371      3.27308442427769      2.80280562569488
  H           1.61206125046137      2.64101019753435      3.59143192936997
  H           2.04586302314767      4.15066789011976      2.92453278850230
  H           0.27116464032495      4.17418056246632      1.44431476748274
  H           1.18932862022431      2.31192445593975     -0.33587796517946
  Cu          1.94136336642908      2.46648067640011      0.93404535885088
