18
Coordinates from ORCA-job ./orca E -1967.150036156020
  C          -3.06288108719061      2.10442648192109      1.89664562627037
  C          -1.87054450592190      2.69931364331751      1.49572818621049
  C          -0.64431621296471      2.12626426691996      1.83341727956469
  C          -0.63008781922787      0.94442099807424      2.57912378747965
  C          -1.81837068863144      0.35334152139479      2.98466831272140
  C          -3.03885660390576      0.93255603227096      2.64354306667618
  H          -4.00797528185307      2.55718358137617      1.62519634658579
  H          -3.96534109437496      0.46732683747302      2.95489083062645
  H          -1.89118674642175      3.61414648110928      0.91551582365827
  H           0.31496317567447      0.47539786079139      2.82866543658649
  H          -1.79528481295650     -0.56460639186840      3.55804233023683
  C           0.62381440008234      2.79116465638363      1.41428085129287
  N           1.48416950205078      3.24262294489240      2.53129760449447
  H           1.68566681485371      2.45609695287394      3.14488808735590
  H           0.95590804733685      3.90445599755381      3.10064992522943
  H           0.45629252718482      3.61793824648445      0.73264641575990
  H           1.44345208280647      1.84962485117608      0.64752021708653
  Cu          3.18303830345951      4.06278503785455      2.02631987216316
