18
Coordinates from ORCA-job ./orca E -1967.192874225260
  C          -2.98306091437428      2.19999640789510      2.04251442591838
  C          -1.76929023998107      2.72333175417921      1.61139427057865
  C          -0.58318731578491      2.01375374398671      1.80359864852352
  C          -0.63224450946560      0.76811034131457      2.43108297674916
  C          -1.84444056582787      0.24257792334057      2.86330973374740
  C          -3.02201709694497      0.95885789206412      2.67061956773555
  H          -3.89774373153065      2.75684350271015      1.88336386106613
  H          -3.96704872493408      0.54820682060089      3.00257112720285
  H          -1.74196522264308      3.68718759897341      1.11602539054275
  H           0.28283031500466      0.20478870220842      2.57469072182451
  H          -1.87150076592477     -0.72711969714969      3.34396218851752
  C           0.73394398458665      2.60075425679175      1.37789324205091
  N           1.37096544146747      3.40504860767710      2.47052423662591
  H           1.48924582309358      2.81188350940552      3.28987817273188
  H           0.72624042751381      4.13932432938982      2.75777597199180
  H           0.60705913985680      3.26193247883187      0.52246082394021
  H           1.43545106293922      1.82009507691559      1.10278586430875
  Cu          3.08922289294951      4.21888675086359      2.04858877594281
