18
Coordinates from ORCA-job ./orca E -1967.128000838612
  C          -2.95203919983694      1.83264676593077      1.60346393714515
  C          -1.81965722713974      2.60669367503611      1.40173857625921
  C          -0.63218821463955      2.30653581229873      2.07682521232845
  C          -0.58873677958214      1.20834514101912      2.94207400134048
  C          -1.72291893444142      0.43569532190875      3.13901643022993
  C          -2.90602547286311      0.74627508345519      2.47251831758057
  H          -3.86985755606899      2.07624053531659      1.08485180067086
  H          -3.78900838875537      0.14046718077313      2.62919383279531
  H          -1.84984175941588      3.45043371856714      0.72350646035065
  H           0.32622515245075      0.93891104934474      3.45534603871518
  H          -1.68488447106866     -0.41190121610845      3.81041280741855
  C           0.51731696819972      3.19035619721313      1.86370896108655
  N           1.51526896611682      3.30261449546461      2.82053023829444
  H           1.46765494200433      2.73254750682060      3.65356330905896
  H           1.95263083339426      4.20565493008064      2.94597907935138
  H           0.32606234003687      4.09966624210589      1.31134650779094
  H           1.04180513685381      2.39920396802825     -0.03750518065656
  Cu          2.09065366475548      2.37407359274450      1.01646967023934
