18
Coordinates from ORCA-job ./orca E -1967.084641952125
  C          -2.96132708240326      2.20653017123758      2.06016492979336
  C          -1.74360680775275      2.71929688595902      1.62892635123089
  C          -0.56665127690068      1.99115501036809      1.80426159791268
  C          -0.62829347273485      0.73706034197835      2.41305330059276
  C          -1.84565648946014      0.22045561776907      2.84355702095616
  C          -3.01376379589568      0.95584779733148      2.66928107591999
  H          -3.86940641130377      2.77795525675988      1.91550104087311
  H          -3.96247548997777      0.55367450419474      3.00115735712841
  H          -1.70631391350388      3.68924633287119      1.14599956479827
  H           0.27979357243355      0.15999312742171      2.54741474065195
  H          -1.88317223737886     -0.75558736382940      3.31048160664862
  C           0.76493595934585      2.55215586891903      1.37801737985875
  N           1.36558274282313      3.42104439693209      2.44945327124471
  H           1.44293362516927      2.87604720455099      3.30665790778389
  H           0.72037060230086      4.17717002935416      2.66549034436465
  H           0.64105057909382      3.18456365842628      0.49938714745833
  H           1.27938145796475      1.97966021711235      1.22368150696868
  Cu          3.10907843818089      4.18819094264200      2.05055385581337
