18
Coordinates from ORCA-job ./orca E -1967.192153938937
  C          -2.98738173381474      2.19737442840343      2.03818000751512
  C          -1.77464023808683      2.72365812185171      1.60745998623623
  C          -0.58642551536449      2.01870538433821      1.80380338389314
  C          -0.63223554312576      0.77491429680961      2.43532408094792
  C          -1.84318603201193      0.24685161625576      2.86753369123497
  C          -3.02303146891350      0.95835638470954      2.67041857873987
  H          -3.90370759471122      2.75049807085804      1.87556340006543
  H          -3.96716291803560      0.54543039559332      3.00209905862661
  H          -1.74978346490274      3.68609119197063      1.10927397612565
  H           0.28451914135976      0.21500428840326      2.58139174144607
  H          -1.86768067460740     -0.72138209545002      3.35125590774087
  C           0.72770744500356      2.61050963081939      1.37849177951809
  N           1.37349942121101      3.40083773878998      2.47418485079956
  H           1.49568099846368      2.79927699288098      3.28676047688521
  H           0.73218047937387      4.13381012242699      2.77298564570259
  H           0.60084053523093      3.27682228675412      0.52755721532225
  H           1.45212341902741      1.80265568835881      1.08147578088760
  Cu          3.09114374390444      4.21504545622495      2.04928043831153
