18
Coordinates from ORCA-job ./orca E -1967.136305741226
  C          -2.94408320944550      1.81116131156930      1.57687264256826
  C          -1.82496279562909      2.61180412296109      1.42004724627816
  C          -0.65538081369414      2.33905271500306      2.14206799357354
  C          -0.62094594046297      1.24225961710829      3.01370558822649
  C          -1.74281844983190      0.44487890716385      3.16547189723775
  C          -2.90472012089902      0.72632454540362      2.44870575890982
  H          -3.84598511750077      2.03024626427792      1.02110682916117
  H          -3.77754760476083      0.09806364913372      2.56975597566325
  H          -1.84640476191812      3.45307826155936      0.73873525077447
  H           0.27553019037442      0.99620294702716      3.56837361416263
  H          -1.71358011478145     -0.39991487708383      3.84059160926712
  C           0.47335094295418      3.23691422873252      1.95171046457585
  N           1.54637102891135      3.28253589239938      2.81079767539256
  H           1.57883546826421      2.66796602907971      3.61395337235896
  H           2.02589245260065      4.16614033359326      2.93132102969360
  H           0.28795165747141      4.15404690234832      1.40760013675848
  H           1.13944387857114      2.33207363846147     -0.26477516393092
  Cu          1.97151330977658      2.44162551126140      0.95699807932839
