18
Coordinates from ORCA-job ./orca E -1967.122446623640
  C          -2.96780979807486      1.85609930680318      1.63561379437424
  C          -1.83000082030876      2.61584743261242      1.40290066020903
  C          -0.62563373091970      2.28897375418637      2.03036753669363
  C          -0.57019341018729      1.18190040926620      2.88109461019125
  C          -1.70927602242031      0.42414946587286      3.11096152532036
  C          -2.91002943080452      0.75966854255463      2.49039575069745
  H          -3.89896014861534      2.12057584994484      1.15189174044720
  H          -3.79655624500780      0.16581208435380      2.67109688313249
  H          -1.87224993200988      3.46905797052161      0.73706326491970
  H           0.35996200935863      0.89300667135519      3.35551508996612
  H          -1.66008939817161     -0.43183032750573      3.77111742012966
  C           0.54350693420028      3.15238372106206      1.78491168504599
  N           1.50326712008008      3.31475465120933      2.79935063096938
  H           1.37921847551800      2.78892137084631      3.65297785991610
  H           1.86591512088626      4.24802684439801      2.93624188266860
  H           0.33566184638740      4.06212562183303      1.23979860078000
  H           1.03599811827167      2.40338758491250      0.17231062877428
  Cu          2.23972931181806      2.32159904577264      1.08943043576373
