14
Coordinates from ORCA-job ./backwardopt E -399.097671191262
  O       1.685002     -0.242537     -0.697009
  N      -1.947018     -0.095310      0.018256
  C      -0.705045     -0.101419     -0.746950
  C       0.520927     -0.240320      0.131397
  H      -0.643786      0.824825     -1.321341
  H      -0.738238     -0.925562     -1.462276
  H       0.457837     -1.172901      0.699115
  H       0.559830      0.593109      0.837922
  H      -2.008286     -0.938571      0.576305
  H      -1.944073      0.678800      0.671174
  H       2.455495     -0.317774     -0.127166
  O      -4.943476      0.077198     -0.695901
  C      -4.263572     -0.050297     -1.622230
  O      -3.622665     -0.178554     -2.575936
14
Coordinates from ORCA-job ./backwardopt E -399.097860504456
  O       1.688657     -0.241832     -0.698810
  N      -1.946476     -0.095997      0.021921
  C      -0.702412     -0.102929     -0.742484
  C       0.527366     -0.240407      0.134732
  H      -0.641222      0.822953     -1.316931
  H      -0.736931     -0.926981     -1.457341
  H       0.469172     -1.172720      0.703542
  H       0.570013      0.593547      0.840629
  H      -2.009792     -0.939043      0.579408
  H      -1.944015      0.677333      0.675653
  H       2.462746     -0.316425     -0.133481
  O      -4.960593      0.079592     -0.707029
  C      -4.277749     -0.049116     -1.630891
  O      -3.635831     -0.177290     -2.583555
14
Coordinates from ORCA-job ./backwardopt E -399.098239805472
  O       1.693713     -0.240337     -0.703753
  N      -1.942752     -0.097667      0.030288
  C      -0.695613     -0.106239     -0.731393
  C       0.540003     -0.240146      0.142102
  H      -0.634448      0.819106     -1.306160
  H      -0.732790     -0.930945     -1.444588
  H       0.492270     -1.171422      0.713275
  H       0.590310      0.595346      0.845475
  H      -2.010444     -0.941329      0.586164
  H      -1.940754      0.673813      0.686216
  H       2.475233     -0.313888     -0.148537
  O      -4.997445      0.084044     -0.731367
  C      -4.310683     -0.045331     -1.651968
  O      -3.663669     -0.174318     -2.600392
14
Coordinates from ORCA-job ./backwardopt E -399.098477569609
  O       1.696583     -0.239270     -0.706518
  N      -1.938574     -0.098714      0.035773
  C      -0.690792     -0.108136     -0.724473
  C       0.547060     -0.239700      0.145675
  H      -0.629730      0.816849     -1.299953
  H      -0.729089     -0.933772     -1.436507
  H       0.504588     -1.170297      0.718175
  H       0.600430      0.596768      0.847516
  H      -2.008625     -0.943144      0.590260
  H      -1.936235      0.671526      0.693198
  H       2.481352     -0.312823     -0.155903
  O      -5.019996      0.086754     -0.745483
  C      -4.333116     -0.043025     -1.665836
  O      -3.680924     -0.172329     -2.610562
14
Coordinates from ORCA-job ./backwardopt E -399.098817657149
  O       1.701903     -0.237830     -0.709098
  N      -1.930683     -0.099947      0.043998
  C      -0.683499     -0.110251     -0.715611
  C       0.556794     -0.238833      0.149237
  H      -0.623040      0.813913     -1.292897
  H      -0.722687     -0.937400     -1.426099
  H       0.519540     -1.168534      0.723448
  H       0.612343      0.598824      0.849443
  H      -2.003393     -0.945823      0.596094
  H      -1.927138      0.668485      0.703590
  H       2.489120     -0.312423     -0.162168
  O      -5.052415      0.089956     -0.764275
  C      -4.367255     -0.039838     -1.685719
  O      -3.706658     -0.169612     -2.624582
14
Coordinates from ORCA-job ./backwardopt E -399.099292026780
  O       1.711653     -0.236163     -0.710901
  N      -1.917789     -0.101227      0.056683
  C      -0.672731     -0.112281     -0.704479
  C       0.571274     -0.237473      0.153377
  H      -0.614095      0.810301     -1.284957
  H      -0.712688     -0.941273     -1.413108
  H       0.538884     -1.166090      0.729669
  H       0.628587      0.601493      0.851982
  H      -1.993308     -0.949315      0.605063
  H      -1.911935      0.664631      0.719269
  H       2.500694     -0.313570     -0.167041
  O      -5.100971      0.093614     -0.791206
  C      -4.418032     -0.036024     -1.713974
  O      -3.746612     -0.165938     -2.645015
14
Coordinates from ORCA-job ./backwardopt E -399.099843900778
  O       1.727154     -0.234664     -0.712127
  N      -1.898138     -0.102690      0.076349
  C      -0.656774     -0.114110     -0.689603
  C       0.592984     -0.235363      0.159617
  H      -0.601918      0.806075     -1.274572
  H      -0.697791     -0.945254     -1.395849
  H       0.565529     -1.162482      0.738636
  H       0.653162      0.605385      0.856019
  H      -1.976386     -0.953986      0.619295
  H      -1.888360      0.659432      0.743168
  H       2.518712     -0.317260     -0.172733
  O      -5.174856      0.097510     -0.832029
  C      -4.491978     -0.031265     -1.754542
  O      -3.808409     -0.160642     -2.676268
14
Coordinates from ORCA-job ./backwardopt E -399.100225526324
  O       1.743281     -0.234409     -0.711994
  N      -1.878612     -0.103705      0.095918
  C      -0.640851     -0.114645     -0.676146
  C       0.614430     -0.233114      0.166050
  H      -0.590422      0.803547     -1.264660
  H      -0.682615     -0.947514     -1.380313
  H       0.589697     -1.158814      0.747457
  H       0.678117      0.609277      0.860258
  H      -1.957156     -0.958047      0.634138
  H      -1.863680      0.654796      0.766922
  H       2.537380     -0.323242     -0.177330
  O      -5.250887      0.099621     -0.873432
  C      -4.563219     -0.027629     -1.792543
  O      -3.872533     -0.155437     -2.708965
14
Coordinates from ORCA-job ./backwardopt E -399.100490828588
  O       1.758843     -0.235552     -0.710870
  N      -1.859715     -0.104238      0.114570
  C      -0.625590     -0.113982     -0.664263
  C       0.634386     -0.230814      0.172292
  H      -0.579763      0.803029     -1.254851
  H      -0.668066     -0.948121     -1.366818
  H       0.610366     -1.155168      0.755865
  H       0.702172      0.613138      0.864285
  H      -1.935849     -0.961121      0.649073
  H      -1.838275      0.650763      0.789431
  H       2.555255     -0.331277     -0.180843
  O      -5.325164      0.099520     -0.913391
  C      -4.630207     -0.025204     -1.827552
  O      -3.935461     -0.150287     -2.741569
14
Coordinates from ORCA-job ./backwardopt E -399.100678401694
  O       1.774563     -0.238067     -0.709243
  N      -1.839977     -0.104451      0.133702
  C      -0.609908     -0.112528     -0.652691
  C       0.654148     -0.228482      0.178596
  H      -0.568803      0.804064     -1.244107
  H      -0.653647     -0.947535     -1.354034
  H       0.629803     -1.151284      0.764611
  H       0.726731      0.617199      0.868031
  H      -1.911414     -0.963560      0.665383
  H      -1.810541      0.647045      0.812323
  H       2.573035     -0.341074     -0.183710
  O      -5.401343      0.097236     -0.954389
  C      -4.699184     -0.023408     -1.863646
  O      -4.000532     -0.144467     -2.775466
14
Coordinates from ORCA-job ./backwardopt E -399.100810036531
  O       1.790434     -0.241576     -0.707383
  N      -1.819578     -0.104298      0.153160
  C      -0.593841     -0.110731     -0.641322
  C       0.673721     -0.226511      0.184799
  H      -0.557199      0.806062     -1.232559
  H      -0.639791     -0.946134     -1.341926
  H       0.648800     -1.147613      0.773447
  H       0.751376      0.620908      0.871555
  H      -1.884773     -0.965102      0.683135
  H      -1.781287      0.643946      0.835178
  H       2.590578     -0.351403     -0.185805
  O      -5.478389      0.093133     -0.995813
  C      -4.770303     -0.022150     -1.901135
  O      -4.066817     -0.137844     -2.809971
14
Coordinates from ORCA-job ./backwardopt E -399.100900599768
  O       1.805719     -0.245484     -0.705494
  N      -1.799822     -0.103610      0.171762
  C      -0.578285     -0.109000     -0.630703
  C       0.692177     -0.225439      0.190565
  H      -0.545277      0.808428     -1.221036
  H      -0.627511     -0.944298     -1.331110
  H       0.666913     -1.145037      0.781514
  H       0.774595      0.623371      0.875037
  H      -1.858140     -0.965273      0.701484
  H      -1.752826      0.642151      0.856258
  H       2.607146     -0.360556     -0.187038
  O      -5.552110      0.087615     -1.035218
  C      -4.839286     -0.021354     -1.937629
  O      -4.130359     -0.130830     -2.843032
14
Coordinates from ORCA-job ./backwardopt E -399.100960588821
  O       1.821237     -0.249524     -0.703544
  N      -1.779764     -0.102197      0.190384
  C      -0.562517     -0.107485     -0.620136
  C       0.710611     -0.225491      0.196254
  H      -0.532314      0.810824     -1.209139
  H      -0.616273     -0.942247     -1.320761
  H       0.685431     -1.144038      0.788793
  H       0.797512      0.624151      0.879115
  H      -1.830839     -0.963818      0.721274
  H      -1.724251      0.642040      0.876210
  H       2.623833     -0.368117     -0.187694
  O      -5.626360      0.080685     -1.074737
  C      -4.909151     -0.020969     -1.974549
  O      -4.194224     -0.123129     -2.876110
14
Coordinates from ORCA-job ./backwardopt E -399.100993545616
  O       1.835259     -0.253042     -0.701760
  N      -1.761732     -0.100078      0.206840
  C      -0.548344     -0.106379     -0.610708
  C       0.727067     -0.226784      0.201258
  H      -0.519658      0.812822     -1.198317
  H      -0.607229     -0.940321     -1.311840
  H       0.702295     -1.145091      0.794150
  H       0.817640      0.622844      0.883629
  H      -1.806440     -0.960777      0.740157
  H      -1.699238      0.644041      0.892466
  H       2.638932     -0.372949     -0.187878
  O      -5.692938      0.073022     -1.109963
  C      -4.971561     -0.021014     -2.007299
  O      -4.251120     -0.115607     -2.905376
14
Coordinates from ORCA-job ./backwardopt E -399.101008964779
  O       1.845523     -0.255555     -0.700507
  N      -1.748581     -0.097638      0.218616
  C      -0.537944     -0.105709     -0.603744
  C       0.739104     -0.228947      0.204868
  H      -0.509340      0.814201     -1.190202
  H      -0.601408     -0.938767     -1.305504
  H       0.714783     -1.147850      0.796841
  H       0.832175      0.619859      0.887893
  H      -1.788982     -0.956805      0.755010
  H      -1.681972      0.647776      0.902595
  H       2.650137     -0.374743     -0.187915
  O      -5.741677      0.065755     -1.135541
  C      -5.016650     -0.021521     -2.030677
  O      -4.292234     -0.109369     -2.926373
14
Coordinates from ORCA-job ./backwardopt E -399.101017726202
  O       1.854415     -0.257904     -0.699582
  N      -1.737123     -0.094495      0.228669
  C      -0.528791     -0.105108     -0.597437
  C       0.749713     -0.232099      0.208031
  H      -0.499151      0.815497     -1.182723
  H      -0.596989     -0.937086     -1.300040
  H       0.725772     -1.152340      0.797951
  H       0.845042      0.615114      0.892683
  H      -1.774279     -0.951375      0.769109
  H      -1.668325      0.653660      0.909487
  H       2.660117     -0.374875     -0.188173
  O      -5.784389      0.057084     -1.157801
  C      -5.055509     -0.022564     -2.050575
  O      -4.327572     -0.102822     -2.944240
14
Coordinates from ORCA-job ./backwardopt E -399.101030490777
  O       1.863554     -0.260948     -0.698953
  N      -1.725196     -0.089796      0.238904
  C      -0.519115     -0.104208     -0.590411
  C       0.761005     -0.236976      0.211379
  H      -0.486960      0.817300     -1.174124
  H      -0.593054     -0.934582     -1.294388
  H       0.737188     -1.159589      0.797634
  H       0.859172      0.607459      0.899008
  H      -1.759681     -0.943001      0.785378
  H      -1.656268      0.663417      0.914057
  H       2.670786     -0.373872     -0.189030
  O      -5.829288      0.044157     -1.181041
  C      -5.095640     -0.024633     -2.070868
  O      -4.363572     -0.094042     -2.962185
14
Coordinates from ORCA-job ./backwardopt E -399.101045235246
  O       1.872483     -0.265447     -0.698944
  N      -1.713211     -0.083104      0.248964
  C      -0.509158     -0.102534     -0.582516
  C       0.772803     -0.243781      0.214854
  H      -0.472701      0.820237     -1.163971
  H      -0.589650     -0.930538     -1.288689
  H       0.748374     -1.169833      0.795727
  H       0.875090      0.596508      0.906891
  H      -1.745943     -0.930868      0.803873
  H      -1.647356      0.678076      0.915225
  H       2.681802     -0.372696     -0.191097
  O      -5.875178      0.024756     -1.204768
  C      -5.135839     -0.028254     -2.090987
  O      -4.398583     -0.081836     -2.979200
14
Coordinates from ORCA-job ./backwardopt E -399.101057596944
  O       1.877376     -0.270470     -0.699760
  N      -1.706090     -0.077085      0.254808
  C      -0.502945     -0.100127     -0.576805
  C       0.780368     -0.249351      0.217095
  H      -0.462455      0.823908     -1.155975
  H      -0.587656     -0.925834     -1.285319
  H       0.754281     -1.178144      0.793601
  H       0.887207      0.587373      0.912722
  H      -1.738569     -0.919931      0.816990
  H      -1.645601      0.691541      0.912676
  H       2.688501     -0.373911     -0.194017
  O      -5.903577      0.005198     -1.219627
  C      -5.159831     -0.032284     -2.102913
  O      -4.418075     -0.070195     -2.988116
14
Coordinates from ORCA-job ./backwardopt E -399.101064964843
  O       1.877257     -0.274270     -0.700760
  N      -1.705485     -0.074285      0.255132
  C      -0.502049     -0.097744     -0.575262
  C       0.781596     -0.251093      0.217508
  H      -0.459951      0.827108     -1.152986
  H      -0.587082     -0.922183     -1.285310
  H       0.753387     -1.180557      0.792878
  H       0.891741      0.584395      0.914108
  H      -1.738494     -0.915044      0.820250
  H      -1.649400      0.697717      0.909209
  H       2.689071     -0.378142     -0.196228
  O      -5.907589     -0.006601     -1.221856
  C      -5.162019     -0.034967     -2.103900
  O      -4.418049     -0.063646     -2.987420
14
Coordinates from ORCA-job ./backwardopt E -399.101070048776
  O       1.873434     -0.278300     -0.702027
  N      -1.709631     -0.072999      0.251270
  C      -0.504911     -0.094571     -0.576636
  C       0.778287     -0.250439      0.216586
  H      -0.462594      0.831051     -1.153057
  H      -0.587531     -0.918093     -1.288117
  H       0.746853     -1.179215      0.792916
  H       0.891656      0.585201      0.912519
  H      -1.743609     -0.913262      0.816932
  H      -1.658202      0.700237      0.904104
  H       2.685111     -0.386235     -0.198136
  O      -5.894537     -0.016212     -1.215057
  C      -5.148269     -0.037495     -2.096692
  O      -4.403125     -0.058982     -2.979244
14
Coordinates from ORCA-job ./backwardopt E -399.101073924552
  O       1.867211     -0.281720     -0.703135
  N      -1.717137     -0.073142      0.244411
  C      -0.510527     -0.091309     -0.580478
  C       0.771539     -0.247835      0.214585
  H      -0.469207      0.834946     -1.155886
  H      -0.589087     -0.914307     -1.293068
  H       0.736478     -1.174874      0.793478
  H       0.887269      0.589131      0.908581
  H      -1.751935     -0.914392      0.808459
  H      -1.669193      0.699126      0.898627
  H       2.677819     -0.396385     -0.199008
  O      -5.869287     -0.022382     -1.201705
  C      -5.123143     -0.039457     -2.083524
  O      -4.377868     -0.056715     -2.965976
14
Coordinates from ORCA-job ./backwardopt E -399.101076455494
  O       1.862616     -0.283234     -0.703580
  N      -1.723018     -0.073646      0.239085
  C      -0.515060     -0.089468     -0.584005
  C       0.765947     -0.245527      0.212831
  H      -0.474741      0.837120     -1.158916
  H      -0.590948     -0.912284     -1.297094
  H       0.728662     -1.171144      0.793828
  H       0.882368      0.592700      0.905214
  H      -1.757835     -0.916113      0.801339
  H      -1.675812      0.696939      0.895434
  H       2.671970     -0.403239     -0.198677
  O      -5.849499     -0.024736     -1.191210
  C      -5.103413     -0.040409     -2.073096
  O      -4.358307     -0.056273     -2.955792
14
Coordinates from ORCA-job ./backwardopt E -399.101078625410
  O       1.859279     -0.284135     -0.703722
  N      -1.727447     -0.073426      0.235154
  C      -0.518538     -0.088103     -0.587014
  C       0.761474     -0.243927      0.211307
  H      -0.478724      0.838790     -1.161460
  H      -0.593254     -0.910675     -1.300485
  H       0.722540     -1.168568      0.793717
  H       0.877990      0.595183      0.902622
  H      -1.761458     -0.916732      0.796323
  H      -1.679239      0.695618      0.893395
  H       2.667300     -0.408961     -0.197851
  O      -5.835530     -0.027817     -1.183970
  C      -5.088556     -0.041391     -2.065122
  O      -4.342903     -0.055171     -2.947535
14
Coordinates from ORCA-job ./backwardopt E -399.101081773708
  O       1.856598     -0.284933     -0.703742
  N      -1.730982     -0.071309      0.232192
  C      -0.521437     -0.086613     -0.589872
  C       0.757451     -0.243446      0.209745
  H      -0.481024      0.840675     -1.163651
  H      -0.596964     -0.908647     -1.303838
  H       0.716932     -1.167817      0.792440
  H       0.873768      0.595798      0.900941
  H      -1.763120     -0.914615      0.793727
  H      -1.679895      0.696786      0.891530
  H       2.663067     -0.415092     -0.196734
  O      -5.826461     -0.035410     -1.179812
  C      -5.076537     -0.043310     -2.058491
  O      -4.328465     -0.051380     -2.939076
14
Coordinates from ORCA-job ./backwardopt E -399.101087916123
  O       1.855081     -0.285100     -0.703800
  N      -1.732650     -0.066986      0.231064
  C      -0.523099     -0.085464     -0.591763
  C       0.754842     -0.245077      0.208520
  H      -0.480339      0.842050     -1.165033
  H      -0.601722     -0.906868     -1.306095
  H       0.713407     -1.170611      0.789274
  H       0.870581      0.592803      0.901475
  H      -1.762942     -0.908881      0.795081
  H      -1.677992      0.701847      0.889387
  H       2.660497     -0.418857     -0.196050
  O      -5.824792     -0.047048     -1.180150
  C      -5.070184     -0.046032     -2.054824
  O      -4.317756     -0.045090     -2.931726
14
Coordinates from ORCA-job ./backwardopt E -399.101091224920
  O       1.853986     -0.283886     -0.703961
  N      -1.733385     -0.062104      0.230787
  C      -0.524333     -0.085268     -0.593042
  C       0.752940     -0.248138      0.207549
  H      -0.478168      0.841986     -1.166483
  H      -0.606761     -0.906467     -1.307174
  H       0.711662     -1.175983      0.784598
  H       0.867369      0.587233      0.903746
  H      -1.763401     -0.901897      0.798058
  H      -1.675989      0.708714      0.886551
  H       2.659172     -0.418137     -0.195979
  O      -5.825195     -0.057531     -1.181767
  C      -5.066038     -0.048468     -2.052447
  O      -4.308930     -0.039368     -2.925077
14
Coordinates from ORCA-job ./backwardopt E -399.101093387105
  O       1.852725     -0.281428     -0.704155
  N      -1.734209     -0.058434      0.230294
  C      -0.525856     -0.086077     -0.594264
  C       0.751004     -0.251174      0.206660
  H      -0.476496      0.840457     -1.168596
  H      -0.611147     -0.907720     -1.307540
  H       0.710737     -1.181521      0.779733
  H       0.863490      0.581570      0.906306
  H      -1.765944     -0.896549      0.799857
  H      -1.675458      0.714384      0.883497
  H       2.658255     -0.413630     -0.196190
  O      -5.823144     -0.062858     -1.181748
  C      -5.060855     -0.049759     -2.049642
  O      -4.300170     -0.036575     -2.918851
14
Coordinates from ORCA-job ./backwardopt E -399.101094751127
  O       1.851575     -0.279243     -0.704313
  N      -1.735157     -0.057008      0.229502
  C      -0.527339     -0.087117     -0.595335
  C       0.749368     -0.252697      0.205968
  H      -0.476338      0.838710     -1.170646
  H      -0.613591     -0.909510     -1.307609
  H       0.710086     -1.184487      0.776761
  H       0.860286      0.578591      0.907584
  H      -1.769472     -0.894708      0.799354
  H      -1.676177      0.716614      0.881642
  H       2.657494     -0.409039     -0.196360
  O      -5.819226     -0.062790     -1.180119
  C      -5.055523     -0.049824     -2.046772
  O      -4.293054     -0.036807     -2.914299
14
Coordinates from ORCA-job ./backwardopt E -399.101095072275
  O       1.850736     -0.277994     -0.704485
  N      -1.735917     -0.056610      0.228809
  C      -0.528502     -0.087833     -0.596190
  C       0.748192     -0.253052      0.205425
  H      -0.476977      0.837504     -1.172227
  H      -0.614772     -0.910933     -1.307605
  H       0.709452     -1.185340      0.775447
  H       0.858248      0.577788      0.907691
  H      -1.772830     -0.894789      0.797642
  H      -1.676793      0.716760      0.881166
  H       2.656853     -0.406237     -0.196466
  O      -5.816081     -0.061224     -1.178717
  C      -5.051230     -0.049520     -2.044361
  O      -4.287447     -0.037834     -2.910767
14
Coordinates from ORCA-job ./backwardopt E -399.101100009752
  O       1.850282     -0.277456     -0.704781
  N      -1.736185     -0.056296      0.228567
  C      -0.529319     -0.088330     -0.596849
  C       0.747524     -0.252731      0.204913
  H      -0.477837      0.836573     -1.173579
  H      -0.615435     -0.912227     -1.307283
  H       0.709046     -1.184905      0.775143
  H       0.857232      0.578332      0.906949
  H      -1.776431     -0.895827      0.795033
  H      -1.676204      0.715760      0.882346
  H       2.656489     -0.404646     -0.196650
  O      -5.815599     -0.059596     -1.178978
  C      -5.048384     -0.049153     -2.042514
  O      -4.282246     -0.038812     -2.906957
14
Coordinates from ORCA-job ./backwardopt E -399.101102829256
  O       1.850758     -0.278258     -0.705278
  N      -1.735236     -0.055632      0.229470
  C      -0.529096     -0.088306     -0.596774
  C       0.748170     -0.251727      0.204658
  H      -0.478213      0.836277     -1.174088
  H      -0.615324     -0.912929     -1.306255
  H       0.709515     -1.183002      0.776347
  H       0.858494      0.580383      0.905340
  H      -1.779284     -0.897454      0.792129
  H      -1.673099      0.713776      0.886118
  H       2.656966     -0.405258     -0.197103
  O      -5.821495     -0.059359     -1.183129
  C      -5.049806     -0.049009     -2.042637
  O      -4.279417     -0.038817     -2.903438
14
Coordinates from ORCA-job ./backwardopt E -399.101103009040
  O       1.852544     -0.280479     -0.705910
  N      -1.732645     -0.054398      0.231923
  C      -0.527219     -0.087653     -0.595416
  C       0.750761     -0.250467      0.204977
  H      -0.477169      0.836746     -1.173146
  H      -0.614251     -0.912655     -1.304287
  H       0.711598     -1.180276      0.779010
  H       0.862749      0.583216      0.903518
  H      -1.779835     -0.898869      0.790333
  H      -1.667135      0.711556      0.892271
  H       2.658804     -0.408057     -0.197947
  O      -5.835680     -0.061343     -1.192135
  C      -5.057876     -0.049281     -2.046083
  O      -4.281715     -0.037353     -2.901748
14
Coordinates from ORCA-job ./backwardopt E -399.101104558281
  O       1.855021     -0.282751     -0.706377
  N      -1.729352     -0.053158      0.234994
  C      -0.524287     -0.086897     -0.593108
  C       0.754449     -0.249808      0.205877
  H      -0.474697      0.837388     -1.171126
  H      -0.612567     -0.911828     -1.301910
  H       0.714996     -1.178481      0.781727
  H       0.868231      0.585011      0.902785
  H      -1.777704     -0.899325      0.790806
  H      -1.660889      0.710242      0.898036
  H       2.661583     -0.410598     -0.198938
  O      -5.852621     -0.063801     -1.202317
  C      -5.070009     -0.049686     -2.051855
  O      -4.289223     -0.035621     -2.903235
14
Coordinates from ORCA-job ./backwardopt E -399.101105895686
  O       1.857334     -0.284187     -0.706664
  N      -1.726386     -0.052092      0.237701
  C      -0.521385     -0.086409     -0.590663
  C       0.757997     -0.249950      0.206957
  H      -0.471641      0.837701     -1.169005
  H      -0.610929     -0.911108     -1.299638
  H       0.718664     -1.178221      0.783473
  H       0.873106      0.585185      0.903290
  H      -1.774759     -0.898914      0.792609
  H      -1.656070      0.710029      0.902074
  H       2.664471     -0.411335     -0.199946
  O      -5.867472     -0.065346     -1.210900
  C      -5.081901     -0.050013     -2.057718
  O      -4.298097     -0.034653     -2.906210
14
Coordinates from ORCA-job ./backwardopt E -399.101106183836
  O       1.858468     -0.284544     -0.706828
  N      -1.724945     -0.051408      0.238961
  C      -0.519810     -0.086229     -0.589183
  C       0.759911     -0.250502      0.207639
  H      -0.469519      0.837688     -1.167821
  H      -0.610042     -0.910772     -1.298315
  H       0.720864     -1.178999      0.783827
  H       0.875614      0.584295      0.904296
  H      -1.773164     -0.898227      0.793949
  H      -1.654076      0.710441      0.903623
  H       2.666166     -0.410498     -0.200702
  O      -5.875122     -0.065456     -1.215194
  C      -5.088314     -0.050205     -2.060884
  O      -4.303100     -0.034898     -2.908007
14
Coordinates from ORCA-job ./backwardopt E -399.101106337907
  O       1.858835     -0.284543     -0.707073
  N      -1.724395     -0.050550      0.239398
  C      -0.519059     -0.086013     -0.588298
  C       0.760844     -0.251232      0.207999
  H      -0.467909      0.837705     -1.167202
  H      -0.609741     -0.910458     -1.297538
  H       0.722011     -1.180255      0.783377
  H       0.876955      0.582894      0.905402
  H      -1.772904     -0.897321      0.794473
  H      -1.653259      0.711138      0.904242
  H       2.667076     -0.409124     -0.201476
  O      -5.879561     -0.065186     -1.217820
  C      -5.091372     -0.050536     -2.062236
  O      -4.304588     -0.035833     -2.907885
14
Coordinates from ORCA-job ./backwardopt E -399.101107549288
  O       1.858373     -0.284199     -0.707240
  N      -1.724944     -0.050166      0.238814
  C      -0.519322     -0.085790     -0.588287
  C       0.760527     -0.251759      0.207973
  H      -0.467455      0.837905     -1.167173
  H      -0.609853     -0.910121     -1.297704
  H       0.721731     -1.181356      0.782444
  H       0.876745      0.581669      0.906194
  H      -1.773692     -0.896876      0.793977
  H      -1.654079      0.711493      0.903745
  H       2.666913     -0.407748     -0.201878
  O      -5.878987     -0.063724     -1.217551
  C      -5.090239     -0.050799     -2.061454
  O      -4.302787     -0.037843     -2.906500
14
Coordinates from ORCA-job ./backwardopt E -399.101107474260
  O       1.857105     -0.283498     -0.707504
  N      -1.726511     -0.049720      0.237222
  C      -0.520399     -0.085216     -0.588903
  C       0.759185     -0.252486      0.207615
  H      -0.467413      0.838719     -1.167302
  H      -0.610345     -0.909198     -1.298813
  H       0.720198     -1.183086      0.780478
  H       0.875483      0.579729      0.907257
  H      -1.775789     -0.896593      0.792102
  H      -1.656098      0.711586      0.902631
  H       2.665935     -0.405502     -0.202243
  O      -5.875553     -0.059798     -1.215763
  C      -5.085734     -0.051346     -2.058681
  O      -4.297130     -0.042906     -2.902735
14
Coordinates from ORCA-job ./backwardopt E -399.101110633121
  O       1.856036     -0.284073     -0.707679
  N      -1.727736     -0.049047      0.236026
  C      -0.521412     -0.084095     -0.589764
  C       0.757810     -0.252788      0.207102
  H      -0.467881      0.840483     -1.167058
  H      -0.611082     -0.907400     -1.300481
  H       0.717846     -1.183791      0.779249
  H       0.874648      0.578828      0.907354
  H      -1.776893     -0.895860      0.791014
  H      -1.657838      0.712366      0.901367
  H       2.664628     -0.406719     -0.202196
  O      -5.872086     -0.060225     -1.214094
  C      -5.081311     -0.052370     -2.056105
  O      -4.291797     -0.044622     -2.899374
14
Coordinates from ORCA-job ./backwardopt E -399.101110485971
  O       1.854468     -0.287321     -0.708163
  N      -1.729135     -0.046384      0.234351
  C      -0.522726     -0.079331     -0.591457
  C       0.755527     -0.253746      0.205890
  H      -0.467715      0.848187     -1.163772
  H      -0.612416     -0.899457     -1.305766
  H       0.711661     -1.185841      0.775983
  H       0.875178      0.576023      0.907802
  H      -1.777522     -0.893751      0.788580
  H      -1.659735      0.714425      0.900450
  H       2.662204     -0.412355     -0.201897
  O      -5.871159     -0.060724     -1.214655
  C      -5.075101     -0.056514     -2.051636
  O      -4.280596     -0.052524     -2.890350
14
Coordinates from ORCA-job ./backwardopt E -399.101110183918
  O       1.855498     -0.289179     -0.708067
  N      -1.727629     -0.045500      0.235515
  C      -0.521615     -0.077211     -0.591137
  C       0.756472     -0.254042      0.205921
  H      -0.466522      0.851777     -1.161012
  H      -0.612083     -0.895607     -1.307318
  H       0.710967     -1.186278      0.775654
  H       0.877485      0.575272      0.908125
  H      -1.774909     -0.893137      0.789411
  H      -1.658153      0.715111      0.901802
  H       2.662854     -0.415646     -0.201533
  O      -5.877204     -0.061029     -1.218198
  C      -5.079271     -0.058216     -2.053413
  O      -4.282957     -0.055630     -2.890392
14
Coordinates from ORCA-job ./backwardopt E -399.101110597982
  O       1.857563     -0.290941     -0.707820
  N      -1.724809     -0.044458      0.237837
  C      -0.519382     -0.075125     -0.589982
  C       0.758735     -0.254430      0.206358
  H      -0.464330      0.855143     -1.157746
  H      -0.611397     -0.891701     -1.308070
  H       0.711863     -1.186768      0.775809
  H       0.881020      0.574430      0.908890
  H      -1.770913     -0.892462      0.791258
  H      -1.655012      0.715906      0.904331
  H       2.664688     -0.419074     -0.201323
  O      -5.887701     -0.061486     -1.224116
  C      -5.087852     -0.059899     -2.057552
  O      -4.289542     -0.058451     -2.892512
14
Coordinates from ORCA-job ./backwardopt E -399.101111202655
  O       1.859870     -0.292174     -0.707745
  N      -1.721612     -0.042841      0.240521
  C      -0.516757     -0.073285     -0.588259
  C       0.761603     -0.255068      0.206995
  H      -0.461377      0.857754     -1.154730
  H      -0.610604     -0.888446     -1.307767
  H       0.713839     -1.187776      0.775770
  H       0.885126      0.573030      0.910236
  H      -1.767549     -0.891421      0.793062
  H      -1.651091      0.716913      0.907610
  H       2.667137     -0.421446     -0.201757
  O      -5.900806     -0.061938     -1.231711
  C      -5.098093     -0.061479     -2.062431
  O      -4.296756     -0.061135     -2.894432
14
Coordinates from ORCA-job ./backwardopt E -399.101111029070
  O       1.860907     -0.291678     -0.707572
  N      -1.720291     -0.042477      0.241637
  C      -0.515662     -0.073298     -0.587409
  C       0.762904     -0.255229      0.207414
  H      -0.460301      0.857477     -1.154333
  H      -0.610154     -0.888516     -1.306796
  H       0.715480     -1.188150      0.775868
  H       0.886317      0.572597      0.911019
  H      -1.766473     -0.891120      0.794045
  H      -1.649602      0.717240      0.908752
  H       2.668350     -0.421537     -0.202021
  O      -5.905185     -0.062040     -1.234028
  C      -5.102419     -0.061503     -2.064690
  O      -4.300938     -0.061080     -2.896525
14
Coordinates from ORCA-job ./backwardopt E -399.101111316427
  O       1.862160     -0.290490     -0.707274
  N      -1.718667     -0.041326      0.242892
  C      -0.514330     -0.072905     -0.586426
  C       0.764387     -0.255564      0.207903
  H      -0.458752      0.857468     -1.154016
  H      -0.609764     -0.888214     -1.305628
  H       0.717297     -1.189185      0.775231
  H       0.887603      0.571380      0.912617
  H      -1.765535     -0.890116      0.795013
  H      -1.647650      0.718198      0.910186
  H       2.669710     -0.422491     -0.202460
  O      -5.910608     -0.062708     -1.236938
  C      -5.107442     -0.061992     -2.067196
  O      -4.305477     -0.061370     -2.898542
14
Coordinates from ORCA-job ./backwardopt E -399.101111788176
  O       1.862601     -0.289544     -0.707011
  N      -1.718180     -0.040466      0.243106
  C      -0.513895     -0.072277     -0.586206
  C       0.764745     -0.255666      0.208063
  H      -0.458120      0.858015     -1.153910
  H      -0.609578     -0.887543     -1.305436
  H       0.717605     -1.189892      0.774377
  H       0.887867      0.570519      0.913704
  H      -1.765471     -0.889408      0.794957
  H      -1.647060      0.718809      0.910672
  H       2.669977     -0.423989     -0.202570
  O      -5.911938     -0.063002     -1.237500
  C      -5.108780     -0.062586     -2.067755
  O      -4.306840     -0.062282     -2.899132
14
Coordinates from ORCA-job ./backwardopt E -399.101111392979
  O       1.863446     -0.287780     -0.706433
  N      -1.717318     -0.037921      0.243323
  C      -0.513078     -0.070190     -0.585987
  C       0.765220     -0.256002      0.208275
  H      -0.456503      0.860376     -1.153143
  H      -0.609354     -0.884939     -1.305730
  H       0.717472     -1.191745      0.771983
  H       0.888452      0.568244      0.916194
  H      -1.765541     -0.887296      0.794448
  H      -1.645601      0.720611      0.911681
  H       2.670126     -0.428683     -0.202657
  O      -5.914713     -0.064487     -1.238706
  C      -5.111027     -0.064613     -2.068443
  O      -4.308649     -0.064888     -2.899445
14
Coordinates from ORCA-job ./backwardopt E -399.101111460721
  O       1.864187     -0.286537     -0.705911
  N      -1.716641     -0.035423      0.243379
  C      -0.512361     -0.068013     -0.585887
  C       0.765548     -0.256365      0.208445
  H      -0.454772      0.863180     -1.151889
  H      -0.609160     -0.881947     -1.306459
  H       0.717032     -1.193469      0.769770
  H       0.889067      0.566130      0.918361
  H      -1.765673     -0.885269      0.793717
  H      -1.644076      0.722285      0.912583
  H       2.670076     -0.433406     -0.202565
  O      -5.917150     -0.065900     -1.239680
  C      -5.112965     -0.066768     -2.068934
  O      -4.310181     -0.067813     -2.899570
14
Coordinates from ORCA-job ./backwardopt E -399.101111219747
  O       1.865233     -0.285536     -0.705278
  N      -1.715701     -0.031914      0.243461
  C      -0.511275     -0.065050     -0.585665
  C       0.766112     -0.257000      0.208728
  H      -0.451921      0.867281     -1.149584
  H      -0.608902     -0.877576     -1.307671
  H       0.716480     -1.195743      0.767141
  H       0.890232      0.563354      0.921018
  H      -1.765992     -0.882470      0.792614
  H      -1.641648      0.724592      0.913863
  H       2.670053     -0.439587     -0.202357
  O      -5.920897     -0.068185     -1.241153
  C      -5.116088     -0.069822     -2.069815
  O      -4.312755     -0.071657     -2.899942
