14
Coordinates from ORCA-job ./orca E -398.955900379196
  O           1.61394857150587     -0.20374850483047     -0.63634687956364
  N          -2.05694694172090     -0.13040473939300     -0.13213499773778
  C          -0.76304788819665     -0.07324926153481     -0.81528006487966
  C           0.40774268925436     -0.23399822443850      0.14297905895036
  H          -0.69131906602481      0.88387507625963     -1.33523356319955
  H          -0.73751322441356     -0.86834381944137     -1.56287988445128
  H           0.32369344247685     -1.18646239047843      0.67845475484127
  H           0.41008089801877      0.57863508433503      0.87711926433345
  H          -2.16200042803712     -0.99224282646870      0.39750717913438
  H          -2.18236480450210      0.64764588485204      0.50988827288223
  H           2.36429823227621     -0.26991592943102     -0.03177365781124
  O          -4.57354844432664      0.04996804706116     -0.57203902263716
  C          -3.64623384864778     -0.08780778223929     -1.31138084243703
  O          -3.25377123796217     -0.21526394175226     -2.42955995832416
