14
Coordinates from ORCA-job ./orca E -398.964077901727
  O           1.82484076893475     -0.32233044909677     -0.59798228069401
  N          -1.83867742654103      0.03117535841026      0.03769507806820
  C          -0.56193097170053     -0.05684950323058     -0.68316796230620
  C           0.64634240774768     -0.24299353083080      0.22450380542149
  H          -0.43146998778076      0.85556767333262     -1.27276127600300
  H          -0.61499056287691     -0.89357692617279     -1.38628557697788
  H           0.53261721154339     -1.16231578900874      0.81132036858908
  H           0.72618898269568      0.60234061258068      0.91766956917854
  H          -1.95532104218793     -0.79121934561535      0.62482453548044
  H          -1.81733573782704      0.82543881003296      0.67189675696863
  H           2.59263363661512     -0.41216222043073     -0.01910162036490
  O          -5.29433135218376     -0.51551426186096     -0.92349173708215
  C          -4.67985834831457     -0.17784391686063     -1.84740009212008
  O          -4.07568962842393      0.15897016125082     -2.77839990905803
