14
Coordinates from ORCA-job ./orca E -398.957637845361
  O           1.73811237948670     -0.25097669182451     -0.54198831229224
  N          -1.97575223678127     -0.09456582790518     -0.19385150650466
  C          -0.64539295938072     -0.10993514125552     -0.81161835505387
  C           0.49745115441720     -0.22975391333038      0.18683217608343
  H          -0.52092368695002      0.80843932086958     -1.39351156460996
  H          -0.59811233780720     -0.94841445670397     -1.51347394559175
  H           0.38617938868183     -1.15110790969396      0.77069316757684
  H           0.48065583105783      0.62102052385753      0.87767771886752
  H          -2.10447923233368     -0.93264769396228      0.36765191621661
  H          -2.04707460546867      0.68912088643705      0.45074230430065
  H           2.46197828020999     -0.29820574283929      0.09577724080228
  O          -4.78508842520525     -0.24339550263760     -0.51472889945973
  C          -4.15297040365415     -0.06781883520620     -1.47581819681200
  O          -3.68156519657231      0.10692765669472     -2.52506408442294
