14
Coordinates from ORCA-job ./orca E -398.954845089876
  O           1.62484284196689     -0.20596987030575     -0.63364318870601
  N          -2.05010218091532     -0.12488733479078     -0.12826043269774
  C          -0.75543047960379     -0.07070137632273     -0.80822218437773
  C           0.41836663726823     -0.23584659950764      0.14624579546076
  H          -0.67884170460155      0.88665355848989     -1.32813401806096
  H          -0.72963025819367     -0.86390873696729     -1.55880067618176
  H           0.33359892985617     -1.18955942324009      0.67962165337346
  H           0.42310250367241      0.57478634482367      0.88278725883818
  H          -2.15259669278917     -0.98380484655295      0.40612247434328
  H          -2.17210092814594      0.65416153735162      0.51283259554779
  H           2.37539536366296     -0.27402470845450     -0.02953568310302
  O          -4.60053843437637      0.03831701974935     -0.57664883478873
  C          -3.70012841807759     -0.09104528543804     -1.34071546744345
  O          -3.28291923002292     -0.21548360633475     -2.44432963310386
