14
Coordinates from ORCA-job ./orca E -398.960064957881
  O           1.73195000212766     -0.30362045124940     -0.59048421974477
  N          -1.95721394252690      0.01194478173023     -0.09503875837975
  C          -0.65259799553316     -0.05772105735953     -0.76328235720345
  C           0.52216746287138     -0.24371397192265      0.18734960286417
  H          -0.50751092426273      0.86182361714740     -1.33858960685844
  H          -0.67082562886466     -0.88714164993514     -1.47713378221992
  H           0.39476802813850     -1.17054066949475      0.75931997129953
  H           0.56784792579466      0.59419783015014      0.89247689668800
  H          -2.09701533967874     -0.82128402929796      0.47100800202994
  H          -1.96721813336963      0.79492011689718      0.55370060682067
  H           2.47792527674903     -0.39356537391944      0.01629975102825
  O          -4.86384890273492     -0.44009264935395     -0.65928371594930
  C          -4.23477102180856     -0.15935559620040     -1.59406314094321
  O          -3.69063885720168      0.11283577530828     -2.58295959033157
