14
Coordinates from ORCA-job ./orca E -398.964459600730
  O           1.89908954865606     -0.34937355352986     -0.65744335145050
  N          -1.69608044397869      0.07324779875521      0.26633077555135
  C          -0.48379147885377     -0.05058287645073     -0.55411867579803
  C           0.79224948926060     -0.23504024108044      0.25511757077542
  H          -0.39094900499482      0.84588559785390     -1.17465598203203
  H          -0.60583868891567     -0.90248309570653     -1.22989517012635
  H           0.71521023542403     -1.14000119355120      0.86933243540116
  H           0.93963089170335      0.62289488883014      0.92146584184055
  H          -1.77997559312175     -0.73945850855098      0.87208261040517
  H          -1.60666960135542      0.87446615348661      0.88591574248138
  H           2.70640173407337     -0.46182772960961     -0.13931627879475
  O          -5.82612562187169     -0.63260655378732     -1.33841861452614
  C          -5.14498142163488     -0.21296396410508     -2.17811877954785
  O          -4.46515209469061      0.20652994994589     -3.01895846507930
