14
Coordinates from ORCA-job ./orca E -398.959333692449
  O           1.59830362613772     -0.20407871985248     -0.62820052042053
  N          -2.06933880242928     -0.13404500839667     -0.15795301538982
  C          -0.76999307327151     -0.06948781544363     -0.83956081543657
  C           0.38437208612270     -0.23258363066950      0.13677114233616
  H          -0.70060421085452      0.89050895470001     -1.35230123078802
  H          -0.74054998657477     -0.86348969196521     -1.58630907583810
  H           0.29066456745963     -1.18505033046688      0.67034803249956
  H           0.37857416308323      0.57971734660647      0.87086634251975
  H          -2.16566635432166     -0.99850164561444      0.37207142664525
  H          -2.19453848238577      0.63997943570780      0.49100899246781
  H           2.34117065512021     -0.26868784311467     -0.01421589425717
  O          -4.51740937273778      0.06865283121091     -0.53921908437125
  C          -3.55464134568883     -0.09047814477104     -1.24758792197851
  O          -3.22732551995903     -0.23376906543067     -2.39639871888836
