14
Coordinates from ORCA-job ./orca E -398.964424110623
  O           1.87758595975258     -0.34277367603312     -0.62229184431252
  N          -1.75435931284837      0.05423526032475      0.15499148137576
  C          -0.50772197166089     -0.05444428974419     -0.61427947464972
  C           0.73479079708182     -0.23843582481495      0.24629734285252
  H          -0.39411549854139      0.84837004165320     -1.22192101587741
  H          -0.59505937420412     -0.90078020719023     -1.30229190706259
  H           0.63664055923222     -1.14751641589788      0.85150297853279
  H           0.85192944683488      0.61627579444268      0.92249749267773
  H          -1.85379582610353     -0.75923559004182      0.75750821648307
  H          -1.70188328977575      0.85692954320284      0.77668919466315
  H           2.66614906854803     -0.44087597066980     -0.07345163739489
  O          -5.62635879581704     -0.60185425367935     -1.16610015755051
  C          -4.96805076587046     -0.19763008086078     -2.03118708790798
  O          -4.31273304692786      0.20642234180863     -2.89864392272932
