14
Coordinates from ORCA-job ./orca E -398.959304331872
  O           1.72409861163858     -0.30015467364647     -0.58977941227790
  N          -1.96743382769855      0.00347398480926     -0.10756185559640
  C          -0.66077660156205     -0.06166471143461     -0.77107758652362
  C           0.51137197490009     -0.24374154282582      0.18359564355781
  H          -0.51663317702803      0.85858975798028     -1.34551966755767
  H          -0.67409286901430     -0.89089895553518     -1.48525526941649
  H           0.38493765917967     -1.17038366745947      0.75604105003821
  H           0.55182254141501      0.59496506782244      0.88810916295082
  H          -2.11079417561109     -0.83193939654016      0.45411802570603
  H          -1.98237105653759      0.78476422451199      0.54309955654593
  H           2.46850757259160     -0.38083805205386      0.02024495756953
  O          -4.83221811382722     -0.41773697855893     -0.63576559900435
  C          -4.19041447850682     -0.15083140201927     -1.56671256591617
  O          -3.65298611023902      0.10508301744979     -2.56421678097559
