14
Coordinates from ORCA-job ./orca E -398.965178616367
  O           1.57765976191025     -0.19439905015076     -0.60477368871355
  N          -2.09126468036617     -0.16448090139853     -0.20645229090194
  C          -0.77873823295047     -0.09737790069461     -0.88831816916699
  C           0.34540106616994     -0.22095093997425      0.12604236836647
  H          -0.72209655920822      0.85358620696482     -1.41578283113073
  H          -0.73367419775294     -0.91004910396585     -1.61085702425516
  H           0.24758514996012     -1.16029012782469      0.68152464708788
  H           0.30517425354994      0.61033981979813      0.83728546212547
  H          -2.17933068116847     -1.04601351304838      0.30269034192345
  H          -2.17428580715515      0.57935293249470      0.48758893717098
  H           2.30289449344706     -0.22735946740624      0.03252891735266
  O          -4.42612259035405      0.12154589750423     -0.46885388550932
  C          -3.42498685525864     -0.05917875550555     -1.15049093419011
  O          -3.19519717112283     -0.18603842429300     -2.34281219105890
