14
Coordinates from ORCA-job ./orca E -398.964406767785
  O           1.87078629729793     -0.34082511761900     -0.61778323146053
  N          -1.76613753390203      0.05137046117444      0.13726483798443
  C          -0.51477998597551     -0.05332897436199     -0.62521862462172
  C           0.72193262940065     -0.23937203909193      0.24318242356883
  H          -0.39819921820604      0.85210436643906     -1.22832312503897
  H          -0.59754145747419     -0.89696604481143     -1.31705783404454
  H           0.61979234774777     -1.15019014725328      0.84512806773092
  H           0.83405671787417      0.61351273530696      0.92250284653919
  H          -1.86661168151347     -0.76315420795291      0.73820097060068
  H          -1.71887811960196      0.85332507721809      0.76030271668938
  H           2.65580507180749     -0.43908111188208     -0.06392788563646
  O          -5.58096133442536     -0.59021928994177     -1.13036001786423
  C          -4.92780812195638     -0.19615411823274     -2.00398891200577
  O          -4.27843766137293      0.19766508350859     -2.88060257334110
