14
Coordinates from ORCA-job ./orca E -398.954258261595
  O           1.63571765893381     -0.21644468351525     -0.63028788279147
  N          -2.04338301008491     -0.12613121985203     -0.12436287128911
  C          -0.74858350729281     -0.09801825774099     -0.80442658086710
  C           0.42920148745895     -0.22902051187872      0.15088148272833
  H          -0.66990667271560      0.84027984553465     -1.35869833323864
  H          -0.72253226799201     -0.91617327851388     -1.52845879242070
  H           0.35066057682985     -1.16637670404750      0.71345058573319
  H           0.43038155155873      0.60366307022354      0.86278469398540
  H          -2.15568091164951     -0.97639400116725      0.42104146219193
  H          -2.14704747656537      0.66049734478983      0.51062560283861
  H           2.38662394417091     -0.27213775561426     -0.02535172940646
  O          -4.63198797423609     -0.07220131264177     -0.57643363485681
  C          -3.75410597848595     -0.07219598153960     -1.36901856944526
  O          -3.30633947022969     -0.06065988153678     -2.46242577406171
