14
Coordinates from ORCA-job ./orca E -398.963944543308
  O           1.81722968467366     -0.31898042792691     -0.59444481464289
  N          -1.85051367254134      0.02753916826960      0.02078931681707
  C          -0.56956043267339     -0.05779997807238     -0.69282470866157
  C           0.63385917865179     -0.24339684011828      0.22139577635975
  H          -0.43694658830683      0.85555535184342     -1.28049894727528
  H          -0.61742587064455     -0.89364999304719     -1.39737874189912
  H           0.51851566588230     -1.16396725309133      0.80593768537303
  H           0.70798544706862      0.60086807946669      0.91649743364692
  H          -1.96993753334352     -0.79624237926533      0.60540514205380
  H          -1.83334914434214      0.82032449903440      0.65699161402767
  H           2.58198987488144     -0.40727157507691     -0.01132082142903
  O          -5.24795833322174     -0.50278409165693     -0.89017715493930
  C          -4.63874617242697     -0.17441142410687     -1.82090771139509
  O          -4.04212415395717      0.15290353624802     -2.76014440893580
