14
Coordinates from ORCA-job ./orca E -398.963481788681
  O           1.58427856007549     -0.20289210947056     -0.61441347179343
  N          -2.08346568989959     -0.14414638645211     -0.18982732791753
  C          -0.77556441112095     -0.07663079734666     -0.86995831806760
  C           0.35908119477772     -0.22785712347441      0.12983771808881
  H          -0.71034053946136      0.88163450472115     -1.38430516503357
  H          -0.73835580245150     -0.87694716070017     -1.60758460235698
  H           0.25765174027913     -1.17537556895730      0.67060465028657
  H           0.33751415188184      0.59132702688137      0.85571181798751
  H          -2.17026479135334     -1.01433151060255      0.33645722318926
  H          -2.18994368277982      0.61752912488777      0.47969206860448
  H           2.31623786378065     -0.25645767864442      0.01369132622524
  O          -4.45957348625300      0.08669298362137     -0.49551642111143
  C          -3.46846733587948     -0.08174326490902     -1.18365825310451
  O          -3.20576982189543     -0.22211536705445     -2.36141158589659
