14
Coordinates from ORCA-job ./orca E -398.960748300764
  O           1.74072839246632     -0.30432490264452     -0.59153796035377
  N          -1.94667258654676      0.01163024557547     -0.08214096786284
  C          -0.64418515411154     -0.05921586962687     -0.75495424635519
  C           0.53432839926856     -0.24275146954017      0.19149068161109
  H          -0.50130254107242      0.85904362335401     -1.33285808995601
  H          -0.66465974031733     -0.89024348712481     -1.46684912012969
  H           0.40953280160764     -1.16827648805685      0.76613724223124
  H           0.58295827821487      0.59686055081919      0.89439036782810
  H          -2.08451018069093     -0.82131220649452      0.48485204528887
  H          -1.95364939159148      0.79470693318076      0.56646849553732
  H           2.48942878366841     -0.39352987584121      0.01196620233061
  O          -4.90088057509846     -0.44343108431949     -0.68258425120166
  C          -4.27994491210034     -0.15916992320434     -1.62123870148891
  O          -3.72815362399628      0.11870062642334     -2.60382203837901
