14
Coordinates from ORCA-job ./orca E -398.961421529438
  O           1.59141229263510     -0.20425799157128     -0.62144334769212
  N          -2.07591265640759     -0.13669116400817     -0.17346407597153
  C          -0.77268690542271     -0.07038297919315     -0.85455415008777
  C           0.37179667824851     -0.23109327623286      0.13315251807659
  H          -0.70456752664121      0.88972409402689     -1.36614670186073
  H          -0.74046528635384     -0.86610739944717     -1.59833320068846
  H           0.27300761664722     -1.18221617839921      0.66812014657889
  H           0.35922012797109      0.58293616329595      0.86510240672542
  H          -2.16654784244001     -1.00287964338228      0.35662780743148
  H          -2.19397416768443      0.63305792695500      0.48325208386274
  H           2.32878045799246     -0.26569038906611     -0.00048180660780
  O          -4.48918333019618      0.07471687981119     -0.51830248464325
  C          -3.51124428697825     -0.08906860748983     -1.21531340322847
  O          -3.21661722166981     -0.23336076279896     -2.37889613279478
