14
Coordinates from ORCA-job ./orca E -398.964178728448
  O           1.83238998808264     -0.32580519328849     -0.60156194866927
  N          -1.82676661785763      0.03486611402412      0.05460199097665
  C          -0.55426808132723     -0.05588645354613     -0.67346070945391
  C           0.65886257850200     -0.24251883504808      0.22759392487287
  H          -0.42598628715231      0.85555238538857     -1.26503135803261
  H          -0.61251251309274     -0.89352889336711     -1.37505959417387
  H           0.54676128639418     -1.16049728995774      0.81681598507398
  H           0.74452084879358      0.60396449212491      0.91865915284044
  H          -1.94065794980791     -0.78615541306432      0.64419346362591
  H          -1.80122994925668      0.83057386691803      0.68681437400533
  H           2.60319863970594     -0.41723037343741     -0.02696111882499
  O          -5.34136977114709     -0.52861715098455     -0.95745821787978
  C          -4.72094339562596     -0.18131572350293     -1.87378007918877
  O          -4.10898082651063      0.16528514024111     -2.79604620607185
