14
Coordinates from ORCA-job ./orca E -398.954999088532
  O           1.66523568805183     -0.21300323583846     -0.62325495531650
  N          -2.02590408958688     -0.13613750884915     -0.11092504106102
  C          -0.72669583569198     -0.11840582991156     -0.78625170481750
  C           0.45962732225869     -0.22564513257950      0.16178680272333
  H          -0.64778247265793      0.80835501729732     -1.36187971004838
  H          -0.69588906322582     -0.94865214278963     -1.49798615776709
  H           0.39368429389369     -1.15541971239573      0.73875865818772
  H           0.45636646122710      0.61703827223479      0.86242921481358
  H          -2.12450715176401     -0.98136990960863      0.44559677322626
  H          -2.10307254163134      0.64683093114711      0.53302641751705
  H           2.41846668265262     -0.25970246382794     -0.02049946288786
  O          -4.71188280285597     -0.09293994797516     -0.60218207984964
  C          -3.91477658522757     -0.04972728646352     -1.45781611651253
  O          -3.38985195574215      0.00746562206005     -2.50148297910723
