14
Coordinates from ORCA-job ./orca E -398.963548939106
  O           1.79944310467740     -0.31230386718086     -0.59132305426007
  N          -1.87510528381029      0.01881798928246     -0.00784201887281
  C          -0.58755328822712     -0.06114450532276     -0.70987799771946
  C           0.60876343665940     -0.24291660511041      0.21443477987137
  H          -0.45292862577806      0.85314023697777     -1.29569628649820
  H          -0.62610281510047     -0.89655838671431     -1.41557284573416
  H           0.49244798367208     -1.16470164108949      0.79686570985225
  H           0.67311764830321      0.60077301802883      0.91120261224890
  H          -1.99830300164913     -0.80777823017232      0.57199904795887
  H          -1.86482433352036      0.80858010283643      0.63235516183512
  H           2.55965163354660     -0.39723637939901     -0.00177085868773
  O          -5.15466563719542     -0.47730941486305     -0.82997383471253
  C          -4.55215636996296     -0.16613741233504     -1.77099880058094
  O          -3.96876650191471      0.14346176756175     -2.72448195560050
