14
Coordinates from ORCA-job ./orca E -398.964351467955
  O           1.85521940588324     -0.33573605826568     -0.61171923606317
  N          -1.79056223369435      0.04543679110724      0.10454442308388
  C          -0.53075488662258     -0.05359632091214     -0.64444775501611
  C           0.69662352959319     -0.24084969025614      0.23690078683353
  H          -0.40917614191799      0.85458260498981     -1.24240656069516
  H          -0.60404377361501     -0.89437111957748     -1.34084453693077
  H           0.58988097682083     -1.15458146492780      0.83363644468159
  H           0.79901687275880      0.60931193120845      0.92114153964006
  H          -1.89613924884306     -0.77144271808989      0.70139929517722
  H          -1.75236653410540      0.84530657886277      0.73083243390710
  H           2.63473366609997     -0.43166598352348     -0.04974627569044
  O          -5.48526130581717     -0.56742831988454     -1.06135730547226
  C          -4.84480394259558     -0.19109981202663     -1.95207341027079
  O          -4.20934843424473      0.18482025379550     -2.84654018408460
