14
Coordinates from ORCA-job ./orca E -398.958559377501
  O           1.75862492567730     -0.25176430111476     -0.52092957383069
  N          -1.95955829288339     -0.09483226945632     -0.21273796710315
  C          -0.62246597657016     -0.11225588745858     -0.81681894351699
  C           0.50995113562092     -0.22990907526543      0.19385275742153
  H          -0.49065064809376      0.80451192428700     -1.39974559109039
  H          -0.56755288087748     -0.95231739546529     -1.51626400181030
  H           0.39258792269835     -1.15032914341848      0.77808149104162
  H           0.48508265880721      0.62196828530170      0.88315373191023
  H          -2.09325474373785     -0.93355098070014      0.34665747626679
  H          -2.03287724812915      0.68686070153715      0.43413419560633
  H           2.47533996144736     -0.29652106496047      0.12507674145924
  O          -4.81649125303700     -0.24671356227871     -0.49939930870835
  C          -4.22297497396799     -0.06414248646740     -1.48192148416649
  O          -3.76274263725407      0.11768192795973     -2.53381986437922
