14
Coordinates from ORCA-job ./orca E -398.956674347877
  O           1.71769998603706     -0.24673828680611     -0.56266216595092
  N          -1.99098877837904     -0.09911769846224     -0.17472180252973
  C          -0.66830590039790     -0.11184606438699     -0.80693631269610
  C           0.48515749604235     -0.22933745491912      0.17973054197999
  H          -0.55225663909147      0.80704296259651     -1.38963242781082
  H          -0.62716099263061     -0.95021931933521     -1.50915762533003
  H           0.38252321901180     -1.15130809220410      0.76414056062288
  H           0.47336496600074      0.62103205583056      0.87111817657501
  H          -2.11605586579894     -0.93761164375449      0.38684466091769
  H          -2.06049794473424      0.68581076860796      0.46833916893533
  H           2.44870651664628     -0.29103461418567      0.06709165741587
  O          -4.75646531279233     -0.23023157848254     -0.53168212244056
  C          -4.08174036818334     -0.06604686178777     -1.46741933228505
  O          -3.60096243203008      0.09829249978922     -2.51573331830339
