14
Coordinates from ORCA-job ./orca E -398.954427707997
  O           1.66003298413051     -0.21637333293312     -0.61850652951439
  N          -2.02934146452316     -0.12732381936708     -0.12513987516420
  C          -0.72862616121141     -0.10628983985148     -0.79585807605460
  C           0.45045796133307     -0.22838389444171      0.15963136248923
  H          -0.64432213518478      0.82662537899831     -1.35996416567202
  H          -0.69697734797022     -0.92960889903214     -1.51511591556063
  H           0.37478394641961     -1.16269268135392      0.72794373759746
  H           0.44796842382476      0.60826291208006      0.86727468235818
  H          -2.13587879148393     -0.97431893648439      0.42691008793618
  H          -2.11820432224197      0.65670425054229      0.51572460329770
  H           2.40966145689894     -0.26890166184729     -0.01172795961470
  O          -4.68377414997011     -0.08864118367519     -0.57863712329233
  C          -3.86981627437562     -0.06342446606575     -1.42323091427799
  O          -3.38294617594537     -0.02694715406860     -2.48998425542770
