14
Coordinates from ORCA-job ./orca E -398.957427994878
  O           1.60539577679433     -0.20292651320052     -0.63416639136450
  N          -2.06318096821235     -0.13338678103190     -0.14270635827670
  C          -0.76739037993693     -0.07177700711665     -0.82580540802081
  C           0.39654400909306     -0.23322489899881      0.13996240410214
  H          -0.69791903700482      0.88687909969253     -1.34212963965381
  H          -0.74054120227804     -0.86612988241187     -1.57319575791217
  H           0.30906000287103     -1.18585046465718      0.67442460258380
  H           0.39541980815408      0.57917322636008      0.87415032154245
  H          -2.16582202579670     -0.99740358666635      0.38507603379147
  H          -2.19053176730566      0.64254790018719      0.50232985101856
  H           2.35313057640467     -0.26777926718369     -0.02619565751107
  O          -4.54562644512718      0.06430568188137     -0.55942083170606
  C          -3.59834239119499     -0.08834779901181     -1.27996975428014
  O          -3.23717800676014     -0.22739303534239     -2.41303375521296
