14
Coordinates from ORCA-job ./orca E -398.964439306491
  O           1.88243590531807     -0.34539551407165     -0.62886794487064
  N          -1.74267320801188      0.05943572525552      0.17632043732967
  C          -0.50234567570424     -0.05259108577033     -0.60266970362895
  C           0.74646444090405     -0.23840338980541      0.24827110701716
  H          -0.39168327598975      0.84947384651425     -1.21197645768220
  H          -0.59691141132475     -0.89934244213535     -1.28920961530620
  H           0.65131059265634     -1.14695225099608      0.85473123714130
  H           0.87036081666298      0.61643304217922      0.92312847608207
  H          -1.83904357588637     -0.75333115062782      0.78025922240233
  H          -1.68352029732038      0.86253931555110      0.79691102793666
  H           2.67461979903999     -0.44677425638134     -0.08585509091543
  O          -5.66819905251266     -0.61189035826387     -1.20158306472262
  C          -5.00446421818989     -0.20207655428206     -2.05986939722290
  O          -4.34333288994138      0.20756174533382     -2.92027057446018
