14
Coordinates from ORCA-job ./orca E -398.955799271995
  O           1.67854776161256     -0.21155151085219     -0.61548997863512
  N          -2.01671096578603     -0.14272410450239     -0.11299600948403
  C          -0.71455202851591     -0.12604740699261     -0.78368577231359
  C           0.47090809891612     -0.22399492028869      0.16686590438217
  H          -0.63499324066661      0.79734288888811     -1.36512359036144
  H          -0.67845039864660     -0.96032707757312     -1.49073814840476
  H           0.40716526751247     -1.15061933121877      0.74920314887055
  H           0.46335819584035      0.62280276746253      0.86262730425679
  H          -2.11510411254314     -0.98962346043461      0.44123353336093
  H          -2.08678516995522      0.63573362880410      0.53746420379957
  H           2.43055977407704     -0.25035766746129     -0.01065696746662
  O          -4.74190593136175     -0.08517678899703     -0.60332084532224
  C          -3.97353688990529     -0.03854795958323     -1.48110117414677
  O          -3.43548241087770      0.02177761524919     -2.51496194943526
