14
Coordinates from ORCA-job ./orca E -398.964450485635
  O           1.88706311564525     -0.34740114035492     -0.63562729900953
  N          -1.73096025471467      0.06413296699455      0.19808059034430
  C          -0.49724105497374     -0.05118295140210     -0.59092072120654
  C           0.75801263216521     -0.23826602923606      0.25010805649054
  H          -0.38990504317388      0.84999466370314     -1.20214765316347
  H          -0.59901258791937     -0.89854446613436     -1.27566911931962
  H           0.66635657815151     -1.14630725148489      0.85784262477165
  H           0.88829146868598      0.61676513513496      0.92354267952450
  H          -1.82412729443344     -0.74800235318079      0.80334175265745
  H          -1.66487276242976      0.86753433918323      0.81760951451025
  H           2.68289667124214     -0.45176870740705     -0.09852695005792
  O          -5.70936057558538     -0.62030887923458     -1.23673932129578
  C          -5.04039532273905     -0.20602656370236     -2.08879855085419
  O          -4.37372762022068      0.20806790962124     -2.94277594429155
