14
Coordinates from ORCA-job ./orca E -398.964456841591
  O       1.899059     -0.349415     -0.657424
  N      -1.696066      0.073260      0.266332
  C      -0.483797     -0.050551     -0.554117
  C       0.792230     -0.235032      0.255129
  H      -0.390973      0.845905     -1.174667
  H      -0.605826     -0.902447     -1.229901
  H       0.715141     -1.139992      0.869337
  H       0.939641      0.622904      0.921464
  H      -1.779940     -0.739439      0.872041
  H      -1.606651      0.874422      0.885908
  H       2.706389     -0.461853     -0.139330
  O      -5.826101     -0.632633     -1.338399
  C      -5.144968     -0.212976     -2.178114
  O      -4.465121      0.206532     -3.018939
14
Coordinates from ORCA-job ./orca E -398.964459600730
  O       1.899090     -0.349374     -0.657443
  N      -1.696080      0.073248      0.266331
  C      -0.483791     -0.050583     -0.554119
  C       0.792249     -0.235040      0.255118
  H      -0.390949      0.845886     -1.174656
  H      -0.605839     -0.902483     -1.229895
  H       0.715210     -1.140001      0.869332
  H       0.939631      0.622895      0.921466
  H      -1.779976     -0.739459      0.872083
  H      -1.606670      0.874466      0.885916
  H       2.706402     -0.461828     -0.139316
  O      -5.826126     -0.632607     -1.338419
  C      -5.144981     -0.212964     -2.178119
  O      -4.465152      0.206530     -3.018958
14
Coordinates from ORCA-job ./orca E -398.963047754645
  O       1.900804     -0.350083     -0.659490
  N      -1.727734      0.072575      0.251727
  C      -0.481862     -0.049369     -0.557381
  C       0.793569     -0.235479      0.252558
  H      -0.379576      0.849534     -1.177959
  H      -0.596230     -0.904117     -1.230139
  H       0.715456     -1.140764      0.866161
  H       0.941440      0.621995      0.919392
  H      -1.792350     -0.751989      0.876761
  H      -1.619731      0.888913      0.891782
  H       2.707753     -0.463514     -0.141008
  O      -5.827802     -0.632301     -1.337939
  C      -5.119029     -0.214135     -2.155358
  O      -4.461692      0.207422     -3.019788
14
Coordinates from ORCA-job ./orca E -398.964205926835
  O       1.893106     -0.351214     -0.653147
  N      -1.718265      0.072630      0.243028
  C      -0.484375     -0.046913     -0.560594
  C       0.785055     -0.234740      0.256544
  H      -0.384353      0.851672     -1.176603
  H      -0.597637     -0.899995     -1.235769
  H       0.703480     -1.139859      0.869877
  H       0.932667      0.622725      0.923519
  H      -1.778066     -0.737205      0.857045
  H      -1.610486      0.866966      0.871260
  H       2.698509     -0.465660     -0.132546
  O      -5.812450     -0.634535     -1.323726
  C      -5.118272     -0.213150     -2.151846
  O      -4.455895      0.207964     -3.007721
14
Coordinates from ORCA-job ./orca E -398.964347882216
  O       1.892340     -0.352040     -0.649366
  N      -1.714173      0.072417      0.239165
  C      -0.485877     -0.046362     -0.565190
  C       0.780826     -0.234857      0.256483
  H      -0.386322      0.852820     -1.179897
  H      -0.598007     -0.897822     -1.243140
  H       0.696595     -1.139924      0.869590
  H       0.926827      0.622241      0.924334
  H      -1.776713     -0.737420      0.851617
  H      -1.610590      0.866165      0.865884
  H       2.696102     -0.466417     -0.126137
  O      -5.801050     -0.635290     -1.313769
  C      -5.117759     -0.213124     -2.150647
  O      -4.449181      0.208302     -2.999607
14
Coordinates from ORCA-job ./orca E -398.964430696258
  O       1.894059     -0.352365     -0.646028
  N      -1.710570      0.071983      0.237532
  C      -0.487176     -0.046859     -0.569929
  C       0.777914     -0.235484      0.255038
  H      -0.387699      0.852908     -1.184215
  H      -0.598782     -0.896288     -1.250748
  H       0.691294     -1.140711      0.867594
  H       0.921259      0.621058      0.924076
  H      -1.780029     -0.738930      0.848635
  H      -1.614448      0.868650      0.862838
  H       2.695945     -0.465556     -0.119705
  O      -5.790483     -0.635080     -1.304519
  C      -5.116489     -0.213093     -2.149012
  O      -4.441778      0.208453     -2.992237
14
Coordinates from ORCA-job ./orca E -398.964438962265
  O       1.895386     -0.351855     -0.645704
  N      -1.709136      0.071706      0.238604
  C      -0.487505     -0.047790     -0.570715
  C       0.777939     -0.236029      0.254069
  H      -0.388026      0.851936     -1.185326
  H      -0.599842     -0.896565     -1.252111
  H       0.691258     -1.141570      0.866156
  H       0.920011      0.620333      0.923519
  H      -1.783914     -0.739569      0.848607
  H      -1.617865      0.870417      0.862104
  H       2.696880     -0.463690     -0.118549
  O      -5.788051     -0.634097     -1.302540
  C      -5.115033     -0.212826     -2.148036
  O      -4.439083      0.208285     -2.990758
14
Coordinates from ORCA-job ./orca E -398.964452089474
  O       1.896556     -0.350568     -0.646801
  N      -1.707449      0.071277      0.241153
  C      -0.487784     -0.049450     -0.569901
  C       0.779090     -0.236844      0.253100
  H      -0.388488      0.849879     -1.185314
  H      -0.602002     -0.898023     -1.251066
  H       0.693701     -1.142996      0.864490
  H       0.919981      0.619441      0.922829
  H      -1.790156     -0.740315      0.849174
  H      -1.622986      0.872923      0.861422
  H       2.698365     -0.460188     -0.119709
  O      -5.787110     -0.632101     -1.302376
  C      -5.112385     -0.212152     -2.146989
  O      -4.436314      0.207803     -2.990692
14
Coordinates from ORCA-job ./orca E -398.964461419956
  O       1.896321     -0.349782     -0.648199
  N      -1.707170      0.071104      0.242411
  C      -0.487862     -0.050148     -0.568429
  C       0.780053     -0.237070      0.253130
  H      -0.388828      0.848813     -1.184398
  H      -0.603148     -0.899197     -1.248843
  H       0.696054     -1.143491      0.864331
  H       0.921034      0.619276      0.922782
  H      -1.792748     -0.740593      0.849494
  H      -1.625002      0.873710      0.861330
  H       2.698852     -0.458680     -0.122033
  O      -5.787761     -0.631034     -1.303606
  C      -5.111209     -0.211716     -2.147082
  O      -4.435567      0.207494     -2.991567
14
Coordinates from ORCA-job ./orca E -398.964462992192
  O       1.895794     -0.349350     -0.649288
  N      -1.707399      0.071031      0.242924
  C      -0.487910     -0.050362     -0.567262
  C       0.780641     -0.237012      0.253385
  H      -0.389132      0.848304     -1.183658
  H      -0.603647     -0.899925     -1.247022
  H       0.697669     -1.143498      0.864626
  H       0.922046      0.619392      0.922902
  H      -1.793846     -0.740763      0.849575
  H      -1.625891      0.873813      0.861510
  H       2.698929     -0.458308     -0.124030
  O      -5.788258     -0.630480     -1.304592
  C      -5.110778     -0.211477     -2.147545
  O      -4.435202      0.207323     -2.992205
14
Coordinates from ORCA-job ./orca E -398.963043657280
  O       1.897589     -0.350089     -0.651120
  N      -1.739034      0.070331      0.228418
  C      -0.485889     -0.049106     -0.570789
  C       0.781873     -0.237447      0.250820
  H      -0.377725      0.852055     -1.187275
  H      -0.593999     -0.901496     -1.247545
  H       0.697690     -1.144254      0.861420
  H       0.923662      0.618500      0.920840
  H      -1.806051     -0.753287      0.854249
  H      -1.638903      0.888207      0.867380
  H       2.700255     -0.460045     -0.125352
  O      -5.789891     -0.630190     -1.304004
  C      -5.084743     -0.212676     -2.124796
  O      -4.431815      0.208183     -2.992926
14
Coordinates from ORCA-job ./orca E -398.964201497343
  O       1.889607     -0.351081     -0.644978
  N      -1.729469      0.070280      0.219594
  C      -0.488495     -0.046773     -0.573835
  C       0.773252     -0.236566      0.254822
  H      -0.382791      0.853878     -1.185837
  H      -0.595507     -0.897658     -1.252755
  H       0.685847     -1.143127      0.865246
  H       0.914818      0.619441      0.924886
  H      -1.791659     -0.738759      0.834429
  H      -1.629327      0.866158      0.847013
  H       2.690829     -0.462128     -0.117289
  O      -5.774372     -0.632228     -1.289761
  C      -5.083901     -0.211535     -2.121312
  O      -4.425814      0.208783     -2.980904
14
Coordinates from ORCA-job ./orca E -398.964343383557
  O       1.888648     -0.351802     -0.641440
  N      -1.725472      0.069985      0.215761
  C      -0.490062     -0.046279     -0.578152
  C       0.769091     -0.236529      0.254785
  H      -0.384998      0.854832     -1.189047
  H      -0.595890     -0.895716     -1.259617
  H       0.679289     -1.142967      0.865106
  H       0.909180      0.619182      0.925591
  H      -1.790470     -0.739132      0.828972
  H      -1.629530      0.865153      0.841853
  H       2.688339     -0.462982     -0.111377
  O      -5.762901     -0.632787     -1.279955
  C      -5.083337     -0.211406     -2.120268
  O      -4.418869      0.209135     -2.972893
14
Coordinates from ORCA-job ./orca E -398.964425336405
  O       1.890126     -0.352027     -0.638497
  N      -1.722120      0.069457      0.214290
  C      -0.491421     -0.046777     -0.582446
  C       0.766372     -0.236925      0.253381
  H      -0.386671      0.854736     -1.193240
  H      -0.596583     -0.894427     -1.266492
  H       0.674515     -1.143405      0.863351
  H       0.904076      0.618345      0.925154
  H      -1.794138     -0.740842      0.825997
  H      -1.633699      0.867286      0.839228
  H       2.688102     -0.462414     -0.105719
  O      -5.752362     -0.632318     -1.271047
  C      -5.082003     -0.211276     -2.118914
  O      -4.411176      0.209272     -2.965725
14
Coordinates from ORCA-job ./orca E -398.964434189707
  O       1.891339     -0.351514     -0.638347
  N      -1.720782      0.069112      0.215464
  C      -0.491793     -0.047659     -0.583059
  C       0.766476     -0.237317      0.252428
  H      -0.387200      0.853721     -1.194357
  H      -0.597549     -0.894754     -1.267598
  H       0.674663     -1.144017      0.862079
  H       0.903066      0.617856      0.924474
  H      -1.798261     -0.741665      0.825877
  H      -1.637351      0.868827      0.838758
  H       2.688979     -0.460824     -0.104894
  O      -5.749846     -0.631192     -1.269156
  C      -5.080485     -0.210968     -2.118078
  O      -4.408239      0.209081     -2.964271
14
Coordinates from ORCA-job ./orca E -398.964447672029
  O       1.892393     -0.350260     -0.639646
  N      -1.719171      0.068558      0.218181
  C      -0.492131     -0.049233     -0.582058
  C       0.767724     -0.237886      0.251473
  H      -0.387977      0.851638     -1.194383
  H      -0.599564     -0.896241     -1.266289
  H       0.677282     -1.145032      0.860690
  H       0.903338      0.617353      0.923572
  H      -1.804804     -0.742760      0.826233
  H      -1.642743      0.870961      0.838490
  H       2.690395     -0.457764     -0.106414
  O      -5.748842     -0.628966     -1.269102
  C      -5.077721     -0.210225     -2.117176
  O      -4.405161      0.208544     -2.964252
14
Coordinates from ORCA-job ./orca E -398.964457431223
  O       1.892141     -0.349488     -0.641118
  N      -1.718873      0.068299      0.219551
  C      -0.492239     -0.049926     -0.580526
  C       0.768732     -0.237998      0.251501
  H      -0.388471      0.850541     -1.193480
  H      -0.600686     -0.897452     -1.263977
  H       0.679697     -1.145326      0.860670
  H       0.904488      0.617391      0.923406
  H      -1.807540     -0.743262      0.826419
  H      -1.644817      0.871564      0.838598
  H       2.690883     -0.456379     -0.108851
  O      -5.749541     -0.627726     -1.270395
  C      -5.076454     -0.209729     -2.117289
  O      -4.404303      0.208178     -2.965191
14
Coordinates from ORCA-job ./orca E -398.964458979685
  O       1.891631     -0.349068     -0.642207
  N      -1.719091      0.068161      0.220100
  C      -0.492306     -0.050158     -0.579369
  C       0.769328     -0.237867      0.251755
  H      -0.388863      0.850015     -1.192763
  H      -0.601183     -0.898222     -1.262147
  H       0.681311     -1.145198      0.861063
  H       0.905508      0.617644      0.923448
  H      -1.808647     -0.743590      0.826401
  H      -1.645608      0.871512      0.838907
  H       2.690974     -0.456030     -0.110830
  O      -5.750112     -0.627033     -1.271404
  C      -5.076003     -0.209438     -2.117752
  O      -4.403920      0.207957     -2.965882
14
Coordinates from ORCA-job ./orca E -398.963028599174
  O       1.894687     -0.350188     -0.643374
  N      -1.751032      0.068363      0.204631
  C      -0.489268     -0.049066     -0.582675
  C       0.771486     -0.238724      0.249429
  H      -0.376783      0.853459     -1.196103
  H      -0.592465     -0.898145     -1.264222
  H       0.681856     -1.146515      0.857816
  H       0.907347      0.615847      0.922384
  H      -1.819980     -0.753600      0.830651
  H      -1.659701      0.886151      0.844136
  H       2.693325     -0.458447     -0.111198
  O      -5.754521     -0.629317     -1.270470
  C      -5.050996     -0.210523     -2.094853
  O      -4.400938      0.209391     -2.966834
14
Coordinates from ORCA-job ./orca E -398.964210992754
  O       1.886061     -0.350624     -0.635649
  N      -1.740315      0.068295      0.194401
  C      -0.492073     -0.046462     -0.587665
  C       0.760994     -0.238111      0.253389
  H      -0.381526      0.856021     -1.196183
  H      -0.593190     -0.894450     -1.271097
  H       0.667405     -1.146096      0.860841
  H       0.895689      0.616231      0.926915
  H      -1.804070     -0.740184      0.810135
  H      -1.647827      0.864750      0.822424
  H       2.682461     -0.460195     -0.100445
  O      -5.734086     -0.630552     -1.253224
  C      -5.050240     -0.209976     -2.090797
  O      -4.396266      0.210040     -2.953726
14
Coordinates from ORCA-job ./orca E -398.964342344832
  O       1.885249     -0.350801     -0.631753
  N      -1.736259      0.067661      0.190711
  C      -0.493885     -0.046140     -0.592457
  C       0.756417     -0.238122      0.253153
  H      -0.383536      0.856818     -1.199798
  H      -0.593132     -0.893191     -1.277909
  H       0.660476     -1.146135      0.860249
  H       0.889225      0.615926      0.927489
  H      -1.803212     -0.741091      0.804717
  H      -1.647566      0.863674      0.817141
  H       2.679926     -0.460334     -0.093900
  O      -5.720928     -0.630070     -1.242394
  C      -5.049585     -0.209789     -2.089653
  O      -4.390173      0.210281     -2.946276
14
Coordinates from ORCA-job ./orca E -398.964413562810
  O       1.886638     -0.350499     -0.629775
  N      -1.733580      0.066721      0.190457
  C      -0.495462     -0.046996     -0.595714
  C       0.754347     -0.238352      0.251726
  H      -0.385225      0.856103     -1.203170
  H      -0.593735     -0.893115     -1.282650
  H       0.657261     -1.146374      0.858608
  H       0.885165      0.615512      0.926609
  H      -1.807815     -0.743161      0.802637
  H      -1.651683      0.865240      0.815424
  H       2.680085     -0.458915     -0.089918
  O      -5.711397     -0.628509     -1.234926
  C      -5.047903     -0.209065     -2.088658
  O      -4.383678      0.210098     -2.941331
14
Coordinates from ORCA-job ./orca E -398.964427906692
  O       1.887706     -0.349688     -0.630313
  N      -1.732113      0.065890      0.192453
  C      -0.496300     -0.048343     -0.595843
  C       0.754675     -0.238554      0.250634
  H      -0.386526      0.854426     -1.204136
  H      -0.595076     -0.894226     -1.282901
  H       0.658268     -1.146668      0.857475
  H       0.884515      0.615430      0.925467
  H      -1.813422     -0.744715      0.802642
  H      -1.656320      0.866556      0.815451
  H       2.681134     -0.456571     -0.090178
  O      -5.708379     -0.626196     -1.233077
  C      -5.045564     -0.208313     -2.088122
  O      -4.379580      0.209659     -2.940232
14
Coordinates from ORCA-job ./orca E -398.964441518974
  O       1.888114     -0.348403     -0.632698
  N      -1.730802      0.064867      0.195901
  C      -0.497026     -0.050198     -0.593900
  C       0.756289     -0.238678      0.249806
  H      -0.388317      0.851821     -1.203668
  H      -0.597391     -0.896449     -1.280153
  H       0.662043     -1.146898      0.856856
  H       0.885766      0.615750      0.924097
  H      -1.820529     -0.746545      0.803194
  H      -1.662059      0.867850      0.816247
  H       2.682462     -0.453287     -0.093554
  O      -5.707771     -0.622960     -1.233994
  C      -5.042227     -0.207012     -2.087891
  O      -4.375533      0.208829     -2.940924
14
Coordinates from ORCA-job ./orca E -398.964449744030
  O       1.887595     -0.347693     -0.634582
  N      -1.730685      0.064382      0.197533
  C      -0.497202     -0.050981     -0.592013
  C       0.757456     -0.238536      0.249878
  H      -0.389313      0.850518     -1.202692
  H      -0.598593     -0.897858     -1.277364
  H       0.664878     -1.146722      0.857257
  H       0.887298      0.616252      0.923674
  H      -1.823292     -0.747450      0.803425
  H      -1.664220      0.867930      0.816982
  H       2.682873     -0.451946     -0.096660
  O      -5.708768     -0.621165     -1.235729
  C      -5.040785     -0.206400     -2.088309
  O      -4.374224      0.208356     -2.942082
14
Coordinates from ORCA-job ./orca E -398.964450485635
  O       1.887063     -0.347401     -0.635627
  N      -1.730960      0.064133      0.198081
  C      -0.497241     -0.051183     -0.590921
  C       0.758013     -0.238266      0.250108
  H      -0.389905      0.849995     -1.202148
  H      -0.599013     -0.898544     -1.275669
  H       0.666357     -1.146307      0.857843
  H       0.888291      0.616765      0.923543
  H      -1.824127     -0.748002      0.803342
  H      -1.664873      0.867534      0.817610
  H       2.682897     -0.451769     -0.098527
  O      -5.709361     -0.620309     -1.236739
  C      -5.040395     -0.206027     -2.088799
  O      -4.373728      0.208068     -2.942776
14
Coordinates from ORCA-job ./orca E -398.963020603903
  O       1.890196     -0.348540     -0.636540
  N      -1.762823      0.064325      0.182644
  C      -0.494110     -0.050056     -0.594527
  C       0.760058     -0.239100      0.247771
  H      -0.377785      0.853497     -1.205830
  H      -0.590249     -0.898421     -1.278041
  H       0.666648     -1.147594      0.854565
  H       0.889871      0.615010      0.922465
  H      -1.835268     -0.758047      0.807530
  H      -1.678856      0.882096      0.822828
  H       2.685199     -0.454207     -0.098462
  O      -5.713733     -0.622606     -1.235592
  C      -5.015313     -0.207134     -2.065874
  O      -4.370819      0.209464     -2.943619
14
Coordinates from ORCA-job ./orca E -398.964199854613
  O       1.881518     -0.348911     -0.628699
  N      -1.751852      0.064150      0.172304
  C      -0.496964     -0.047627     -0.599671
  C       0.749359     -0.238440      0.251619
  H      -0.382679      0.855821     -1.206044
  H      -0.591070     -0.894903     -1.284994
  H       0.651985     -1.147053      0.857543
  H       0.877800      0.615532      0.926789
  H      -1.818986     -0.744813      0.787032
  H      -1.666411      0.860671      0.801140
  H       2.674184     -0.455756     -0.087461
  O      -5.693167     -0.623684     -1.218185
  C      -5.014486     -0.206444     -2.061576
  O      -4.366214      0.210145     -2.930479
14
Coordinates from ORCA-job ./orca E -398.964331041109
  O       1.880709     -0.349027     -0.624777
  N      -1.747768      0.063417      0.168614
  C      -0.498816     -0.047409     -0.604454
  C       0.744757     -0.238404      0.251320
  H      -0.384807      0.856485     -1.209690
  H      -0.591048     -0.893765     -1.291740
  H       0.645078     -1.147004      0.856951
  H       0.871216      0.615336      0.927219
  H      -1.818038     -0.745818      0.781644
  H      -1.666008      0.859448      0.795922
  H       2.671616     -0.455771     -0.080868
  O      -5.679963     -0.622979     -1.207340
  C      -5.013810     -0.206189     -2.060397
  O      -4.360098      0.210366     -2.923086
14
Coordinates from ORCA-job ./orca E -398.964402108505
  O       1.882087     -0.348665     -0.622842
  N      -1.745175      0.062371      0.168426
  C      -0.500436     -0.048326     -0.607626
  C       0.742731     -0.238590      0.249852
  H      -0.386622      0.855679     -1.213056
  H      -0.591647     -0.893779     -1.296349
  H       0.641980     -1.147163      0.855335
  H       0.867162      0.615021      0.926223
  H      -1.822650     -0.747985      0.779627
  H      -1.670139      0.860808      0.794339
  H       2.671767     -0.454257     -0.076961
  O      -5.670393     -0.621141     -1.199902
  C      -5.012128     -0.205384     -2.059475
  O      -4.353518      0.210099     -2.918272
14
Coordinates from ORCA-job ./orca E -398.964416186299
  O       1.883120     -0.347814     -0.623433
  N      -1.743789      0.061451      0.170484
  C      -0.501307     -0.049685     -0.607691
  C       0.743089     -0.238763      0.248759
  H      -0.388021      0.853972     -1.214007
  H      -0.592955     -0.894925     -1.296525
  H       0.643066     -1.147407      0.854246
  H       0.866544      0.614996      0.925042
  H      -1.828265     -0.749641      0.779649
  H      -1.674823      0.861947      0.794485
  H       2.672805     -0.451851     -0.077312
  O      -5.667326     -0.618572     -1.198044
  C      -5.009779     -0.204575     -2.059034
  O      -4.349340      0.209554     -2.917300
14
Coordinates from ORCA-job ./orca E -398.964429821970
  O       1.883485     -0.346481     -0.625886
  N      -1.742531      0.060305      0.174036
  C      -0.502084     -0.051551     -0.605687
  C       0.744725     -0.238850      0.247946
  H      -0.389954      0.851348     -1.213526
  H      -0.595242     -0.897178     -1.293727
  H       0.646911     -1.147582      0.853689
  H       0.867826      0.615375      0.923661
  H      -1.835406     -0.751652      0.780179
  H      -1.680656      0.863030      0.795429
  H       2.674133     -0.448470     -0.080803
  O      -5.666631     -0.614972     -1.198908
  C      -5.006386     -0.203179     -2.058909
  O      -4.345172      0.208545     -2.918174
14
Coordinates from ORCA-job ./orca E -398.964438370488
  O       1.882964     -0.345724     -0.627813
  N      -1.742407      0.059740      0.175744
  C      -0.502292     -0.052363     -0.603769
  C       0.745907     -0.238690      0.248030
  H      -0.391040      0.850015     -1.212532
  H      -0.596469     -0.898625     -1.290913
  H       0.649803     -1.147385      0.854121
  H       0.869373      0.615898      0.923249
  H      -1.838218     -0.752686      0.780376
  H      -1.682878      0.863011      0.796238
  H       2.674576     -0.447024     -0.083974
  O      -5.667607     -0.612924     -1.200607
  C      -5.004880     -0.202500     -2.059365
  O      -4.343816      0.207943     -2.919467
14
Coordinates from ORCA-job ./orca E -398.964439306491
  O       1.882436     -0.345396     -0.628868
  N      -1.742673      0.059436      0.176320
  C      -0.502346     -0.052591     -0.602670
  C       0.746464     -0.238403      0.248271
  H      -0.391683      0.849474     -1.211976
  H      -0.596911     -0.899342     -1.289210
  H       0.651311     -1.146952      0.854731
  H       0.870361      0.616433      0.923128
  H      -1.839044     -0.753331      0.780259
  H      -1.683520      0.862539      0.796911
  H       2.674620     -0.446774     -0.085855
  O      -5.668199     -0.611890     -1.201583
  C      -5.004464     -0.202077     -2.059869
  O      -4.343333      0.207562     -2.920271
14
Coordinates from ORCA-job ./orca E -398.963008233026
  O       1.885645     -0.346549     -0.629511
  N      -1.774442      0.059617      0.160907
  C      -0.499115     -0.051431     -0.606593
  C       0.748389     -0.239212      0.245922
  H      -0.379522      0.853029     -1.216018
  H      -0.588104     -0.899171     -1.291894
  H       0.651335     -1.148202      0.851423
  H       0.871664      0.614728      0.922029
  H      -1.849978     -0.763429      0.784374
  H      -1.697373      0.877017      0.802117
  H       2.676864     -0.449227     -0.085333
  O      -5.672532     -0.614196     -1.200204
  C      -4.979310     -0.203207     -2.036904
  O      -4.340504      0.208918     -2.920997
14
Coordinates from ORCA-job ./orca E -398.964184145524
  O       1.876864     -0.346814     -0.621682
  N      -1.763282      0.059353      0.150520
  C      -0.502050     -0.049212     -0.611767
  C       0.737535     -0.238520      0.249671
  H      -0.384560      0.855074     -1.216256
  H      -0.589059     -0.895919     -1.298740
  H       0.636621     -1.147589      0.854341
  H       0.859285      0.615347      0.926176
  H      -1.833452     -0.750311      0.763981
  H      -1.684457      0.855625      0.780454
  H       2.665714     -0.450510     -0.074312
  O      -5.651844     -0.615092     -1.182729
  C      -4.978370     -0.202363     -2.032445
  O      -4.335924      0.209618     -2.907892
14
Coordinates from ORCA-job ./orca E -398.964315072761
  O       1.876016     -0.346813     -0.617846
  N      -1.759223      0.058548      0.146883
  C      -0.503974     -0.049122     -0.616436
  C       0.732954     -0.238469      0.249320
  H      -0.386802      0.855571     -1.219843
  H      -0.589117     -0.894966     -1.305260
  H       0.629884     -1.147523      0.853718
  H       0.852666      0.615193      0.926511
  H      -1.832532     -0.751355      0.758711
  H      -1.683996      0.854329      0.775301
  H       2.663128     -0.450327     -0.067861
  O      -5.638593     -0.614145     -1.171951
  C      -4.977642     -0.202038     -2.031303
  O      -4.329751      0.209804     -2.900626
14
Coordinates from ORCA-job ./orca E -398.964386338019
  O       1.877325     -0.346322     -0.616056
  N      -1.756747      0.057429      0.146798
  C      -0.505675     -0.050124     -0.619441
  C       0.730989     -0.238651      0.247827
  H      -0.388734      0.854642     -1.223121
  H      -0.589752     -0.895126     -1.309619
  H       0.627025     -1.147695      0.852084
  H       0.848665      0.614889      0.925466
  H      -1.837272     -0.753544      0.756835
  H      -1.688228      0.855571      0.773818
  H       2.663263     -0.448643     -0.064201
  O      -5.628899     -0.612022     -1.164570
  C      -4.975918     -0.201156     -2.030516
  O      -4.323025      0.209439     -2.895983
14
Coordinates from ORCA-job ./orca E -398.964400335344
  O       1.878299     -0.345389     -0.616746
  N      -1.755448      0.056451      0.148940
  C      -0.506596     -0.051496     -0.619403
  C       0.731386     -0.238820      0.246742
  H      -0.390221      0.852903     -1.224016
  H      -0.591058     -0.896316     -1.309669
  H       0.628246     -1.147956      0.850992
  H       0.848100      0.614853      0.924304
  H      -1.842949     -0.755243      0.756925
  H      -1.693007      0.856607      0.774055
  H       2.664284     -0.446163     -0.064720
  O      -5.625724     -0.609227     -1.162719
  C      -4.973534     -0.200301     -2.030194
  O      -4.318761      0.208785     -2.895172
14
Coordinates from ORCA-job ./orca E -398.964414139182
  O       1.878622     -0.343956     -0.619291
  N      -1.754241      0.055212      0.152616
  C      -0.507432     -0.053372     -0.617317
  C       0.733050     -0.238904      0.245946
  H      -0.392278      0.850257     -1.223498
  H      -0.593351     -0.898595     -1.306801
  H       0.632202     -1.148151      0.850438
  H       0.849414      0.615211      0.922974
  H      -1.850170     -0.757372      0.757482
  H      -1.698984      0.857561      0.775114
  H       2.665619     -0.442680     -0.068365
  O      -5.624870     -0.605298     -1.163524
  C      -4.970057     -0.198827     -2.030185
  O      -4.314504      0.207601     -2.896270
14
Coordinates from ORCA-job ./orca E -398.964422945926
  O       1.878104     -0.343144     -0.621235
  N      -1.754106      0.054589      0.154384
  C      -0.507660     -0.054196     -0.615383
  C       0.734235     -0.238737      0.246046
  H      -0.393430      0.848921     -1.222489
  H      -0.594596     -0.900048     -1.303991
  H       0.635118     -1.147960      0.850880
  H       0.850955      0.615728      0.922602
  H      -1.852983     -0.758505      0.757655
  H      -1.701244      0.857466      0.775978
  H       2.666084     -0.441173     -0.071567
  O      -5.625796     -0.603045     -1.165172
  C      -4.968496     -0.198100     -2.030671
  O      -4.313168      0.206889     -2.897717
14
Coordinates from ORCA-job ./orca E -398.964424110623
  O       1.877586     -0.342774     -0.622292
  N      -1.754359      0.054235      0.154991
  C      -0.507722     -0.054444     -0.614279
  C       0.734791     -0.238436      0.246297
  H      -0.394115      0.848370     -1.221921
  H      -0.595059     -0.900780     -1.302292
  H       0.636641     -1.147516      0.851503
  H       0.851929      0.616276      0.922497
  H      -1.853796     -0.759236      0.757508
  H      -1.701883      0.856930      0.776689
  H       2.666149     -0.440876     -0.073452
  O      -5.626359     -0.601854     -1.166100
  C      -4.968051     -0.197630     -2.031187
  O      -4.312733      0.206422     -2.898644
14
Coordinates from ORCA-job ./orca E -398.962975816101
  O       1.880231     -0.343668     -0.623934
  N      -1.786821      0.054103      0.140302
  C      -0.504800     -0.053801     -0.617159
  C       0.737049     -0.239038      0.244110
  H      -0.381967      0.851359     -1.225021
  H      -0.586556     -0.901250     -1.303751
  H       0.638209     -1.148699      0.848332
  H       0.854316      0.615063      0.921060
  H      -1.865857     -0.769464      0.762360
  H      -1.716508      0.871192      0.782406
  H       2.668425     -0.442736     -0.074735
  O      -5.631021     -0.603478     -1.165520
  C      -4.942649     -0.198402     -2.008974
  O      -4.309033      0.207506     -2.900158
14
Coordinates from ORCA-job ./orca E -398.964145036109
  O       1.869755     -0.343821     -0.620171
  N      -1.777250      0.055604      0.132925
  C      -0.509247     -0.050152     -0.618641
  C       0.727150     -0.239199      0.247441
  H      -0.388570      0.854622     -1.221827
  H      -0.589129     -0.896382     -1.307052
  H       0.625747     -1.149961      0.849486
  H       0.845220      0.613466      0.926059
  H      -1.851402     -0.754197      0.745727
  H      -1.705969      0.852351      0.763037
  H       2.657142     -0.445402     -0.070318
  O      -5.609634     -0.604371     -1.151106
  C      -4.939569     -0.198256     -2.006630
  O      -4.301226      0.204384     -2.889611
14
Coordinates from ORCA-job ./orca E -398.964290417767
  O       1.867399     -0.344257     -0.617674
  N      -1.773070      0.055903      0.130394
  C      -0.511866     -0.048363     -0.622493
  C       0.722198     -0.239520      0.247022
  H      -0.391830      0.857234     -1.223997
  H      -0.590076     -0.893194     -1.313520
  H       0.618281     -1.150860      0.847847
  H       0.839638      0.611940      0.927385
  H      -1.849867     -0.753966      0.741660
  H      -1.705754      0.852212      0.758701
  H       2.653383     -0.447447     -0.066037
  O      -5.595013     -0.603143     -1.140453
  C      -4.937087     -0.200125     -2.006390
  O      -4.293318      0.202271     -2.883125
14
Coordinates from ORCA-job ./orca E -398.964369250436
  O       1.868102     -0.344547     -0.615456
  N      -1.769778      0.055547      0.130601
  C      -0.513740     -0.047809     -0.626589
  C       0.719260     -0.239782      0.245301
  H      -0.394181      0.858614     -1.227267
  H      -0.591416     -0.890938     -1.320073
  H       0.612968     -1.151314      0.845420
  H       0.835161      0.610875      0.926918
  H      -1.852880     -0.755654      0.739921
  H      -1.709158      0.854121      0.757742
  H       2.652387     -0.448322     -0.061526
  O      -5.583521     -0.601652     -1.131881
  C      -4.934406     -0.200488     -2.005275
  O      -4.285782      0.200035     -2.878517
14
Coordinates from ORCA-job ./orca E -398.964380209604
  O       1.869546     -0.343958     -0.614976
  N      -1.768004      0.054656      0.132469
  C      -0.514344     -0.048753     -0.627920
  C       0.719079     -0.239875      0.243995
  H      -0.395346      0.857879     -1.228620
  H      -0.593027     -0.891095     -1.322088
  H       0.612474     -1.151376      0.844094
  H       0.833549      0.610860      0.925668
  H      -1.856946     -0.757480      0.739641
  H      -1.712564      0.854860      0.758129
  H       2.653181     -0.446809     -0.059996
  O      -5.580237     -0.598874     -1.129066
  C      -4.932075     -0.200282     -2.004364
  O      -4.282268      0.198933     -2.877647
14
Coordinates from ORCA-job ./orca E -398.964394195847
  O       1.870920     -0.342727     -0.615554
  N      -1.766274      0.053185      0.135269
  C      -0.514651     -0.050793     -0.627783
  C       0.720052     -0.239835      0.242944
  H      -0.396642      0.855657     -1.229080
  H      -0.595510     -0.892994     -1.321614
  H       0.614566     -1.151111      0.843594
  H       0.832940      0.611685      0.923813
  H      -1.862204     -0.760120      0.739231
  H      -1.716408      0.854953      0.758993
  H       2.654576     -0.443460     -0.060252
  O      -5.579419     -0.595088     -1.128518
  C      -4.929384     -0.198591     -2.003362
  O      -4.279544      0.197926     -2.878361
14
Coordinates from ORCA-job ./orca E -398.964401667232
  O       1.871084     -0.341664     -0.616663
  N      -1.765918      0.052163      0.136620
  C      -0.514706     -0.052275     -0.626542
  C       0.721110     -0.239673      0.242909
  H      -0.397467      0.853727     -1.228667
  H      -0.596869     -0.895087     -1.319420
  H       0.617320     -1.150743      0.844187
  H       0.833386      0.612585      0.922960
  H      -1.864905     -0.761810      0.738763
  H      -1.718023      0.854298      0.759609
  H       2.655376     -0.440879     -0.061971
  O      -5.580337     -0.592270     -1.129453
  C      -4.928211     -0.197415     -2.003476
  O      -4.278822      0.197730     -2.879536
14
Coordinates from ORCA-job ./orca E -398.964406767785
  O       1.870786     -0.340825     -0.617783
  N      -1.766138      0.051370      0.137265
  C      -0.514780     -0.053329     -0.625219
  C       0.721933     -0.239372      0.243182
  H      -0.398199      0.852104     -1.228323
  H      -0.597541     -0.896966     -1.317058
  H       0.619792     -1.150190      0.845128
  H       0.834057      0.613513      0.922503
  H      -1.866612     -0.763154      0.738201
  H      -1.718878      0.853325      0.760303
  H       2.655805     -0.439081     -0.063928
  O      -5.580961     -0.590219     -1.130360
  C      -4.927808     -0.196154     -2.003989
  O      -4.278438      0.197665     -2.880603
14
Coordinates from ORCA-job ./orca E -398.962750560902
  O       1.874558     -0.341307     -0.619462
  N      -1.800094      0.051451      0.123588
  C      -0.510735     -0.052729     -0.628621
  C       0.725111     -0.240066      0.240737
  H      -0.385354      0.854874     -1.231985
  H      -0.583826     -0.898038     -1.319728
  H       0.622432     -1.151830      0.841159
  H       0.837013      0.611919      0.921224
  H      -1.881596     -0.773022      0.744353
  H      -1.735807      0.867808      0.766471
  H       2.659094     -0.440641     -0.065114
  O      -5.591512     -0.591633     -1.128121
  C      -4.902867     -0.196684     -1.982299
  O      -4.273402      0.198585     -2.882881
14
Coordinates from ORCA-job ./orca E -398.964092831518
  O       1.862570     -0.342114     -0.615694
  N      -1.788805      0.052909      0.115280
  C      -0.516274     -0.048860     -0.629872
  C       0.714018     -0.240021      0.244352
  H      -0.393168      0.858394     -1.228653
  H      -0.590347     -0.892848     -1.321635
  H       0.608506     -1.152491      0.843066
  H       0.827300      0.610809      0.926059
  H      -1.864211     -0.757993      0.726423
  H      -1.722581      0.849092      0.746606
  H       2.646392     -0.443994     -0.060837
  O      -5.564746     -0.593890     -1.115383
  C      -4.899073     -0.196322     -1.979390
  O      -4.266563      0.196014     -2.871002
14
Coordinates from ORCA-job ./orca E -398.964267653655
  O       1.860144     -0.342526     -0.613420
  N      -1.784587      0.053128      0.112835
  C      -0.519321     -0.047358     -0.633424
  C       0.709025     -0.240280      0.243825
  H      -0.396664      0.860535     -1.230912
  H      -0.593015     -0.890081     -1.327418
  H       0.601204     -1.153167      0.841603
  H       0.821660      0.609495      0.927080
  H      -1.862615     -0.757987      0.722582
  H      -1.722109      0.849009      0.742587
  H       2.642676     -0.445659     -0.056894
  O      -5.548354     -0.592554     -1.105207
  C      -4.896286     -0.198632     -1.979406
  O      -4.258740      0.194765     -2.864511
14
Coordinates from ORCA-job ./orca E -398.964327375805
  O       1.860799     -0.342595     -0.611769
  N      -1.781868      0.052803      0.113496
  C      -0.521294     -0.047323     -0.636803
  C       0.706521     -0.240558      0.242104
  H      -0.398837      0.860998     -1.234026
  H      -0.595143     -0.888618     -1.332875
  H       0.596988     -1.153535      0.839460
  H       0.817615      0.608631      0.926322
  H      -1.866150     -0.759405      0.721479
  H      -1.725625      0.850619      0.742157
  H       2.641951     -0.445728     -0.053323
  O      -5.536820     -0.591289     -1.097558
  C      -4.893622     -0.198661     -1.978699
  O      -4.251497      0.193346     -2.860645
14
Coordinates from ORCA-job ./orca E -398.964354852391
  O       1.862104     -0.341766     -0.611545
  N      -1.780170      0.051909      0.115719
  C      -0.522085     -0.048569     -0.637958
  C       0.706352     -0.240750      0.240730
  H      -0.400147      0.859749     -1.235518
  H      -0.596854     -0.889096     -1.334758
  H       0.596887     -1.153731      0.838075
  H       0.815880      0.608531      0.924989
  H      -1.870939     -0.761147      0.721446
  H      -1.729415      0.851337      0.742788
  H       2.642734     -0.443642     -0.052176
  O      -5.532885     -0.588221     -1.094478
  C      -4.890948     -0.198368     -1.978069
  O      -4.247496      0.192450     -2.859926
14
Coordinates from ORCA-job ./orca E -398.964371664329
  O       1.863163     -0.340441     -0.612355
  N      -1.778584      0.050551      0.118608
  C      -0.522519     -0.050674     -0.637600
  C       0.707280     -0.240775      0.239781
  H      -0.401583      0.857286     -1.236014
  H      -0.598994     -0.891152     -1.334048
  H       0.599225     -1.153589      0.837659
  H       0.815315      0.609261      0.923281
  H      -1.876367     -0.763595      0.721173
  H      -1.733154      0.851404      0.743820
  H       2.643972     -0.440121     -0.052871
  O      -5.531803     -0.584579     -1.093958
  C      -4.888175     -0.196474     -1.977329
  O      -4.244757      0.191586     -2.860827
14
Coordinates from ORCA-job ./orca E -398.964377465276
  O       1.863298     -0.339264     -0.613611
  N      -1.778147      0.049429      0.120197
  C      -0.522654     -0.052272     -0.636226
  C       0.708406     -0.240589      0.239745
  H      -0.402666      0.855185     -1.235605
  H      -0.600262     -0.893439     -1.331640
  H       0.602214     -1.153200      0.838278
  H       0.815836      0.610208      0.922396
  H      -1.879491     -0.765503      0.720646
  H      -1.734921      0.850699      0.744595
  H       2.644823     -0.437330     -0.054826
  O      -5.532685     -0.581403     -1.094948
  C      -4.886755     -0.195175     -1.977481
  O      -4.243978      0.191342     -2.862199
14
Coordinates from ORCA-job ./orca E -398.964382954336
  O       1.862990     -0.338454     -0.614772
  N      -1.778346      0.048587      0.120907
  C      -0.522764     -0.053291     -0.634862
  C       0.709247     -0.240222      0.240034
  H      -0.403549      0.853607     -1.235238
  H      -0.600857     -0.895345     -1.329178
  H       0.604667     -1.152556      0.839271
  H       0.816627      0.611213      0.921929
  H      -1.881280     -0.766998      0.719991
  H      -1.735746      0.849654      0.745396
  H       2.645262     -0.435623     -0.056859
  O      -5.533263     -0.579280     -1.095915
  C      -4.886298     -0.193846     -1.977994
  O      -4.243672      0.191241     -2.863391
14
Coordinates from ORCA-job ./orca E -398.962716370140
  O       1.866801     -0.338939     -0.616398
  N      -1.812293      0.048647      0.107303
  C      -0.518667     -0.052673     -0.638362
  C       0.712417     -0.240893      0.237565
  H      -0.390686      0.856410     -1.239040
  H      -0.587123     -0.896435     -1.331984
  H       0.607265     -1.154162      0.835279
  H       0.819532      0.609649      0.920615
  H      -1.896295     -0.776929      0.726182
  H      -1.752767      0.864120      0.751641
  H       2.648555     -0.437184     -0.057945
  O      -5.543851     -0.580661     -1.093560
  C      -4.861291     -0.194342     -1.956331
  O      -4.238580      0.192077     -2.865644
14
Coordinates from ORCA-job ./orca E -398.964062138804
  O       1.854808     -0.339788     -0.612479
  N      -1.800782      0.050035      0.098847
  C      -0.524192     -0.048856     -0.639781
  C       0.701182     -0.240772      0.241148
  H      -0.398582      0.859847     -1.235837
  H      -0.593641     -0.891299     -1.333928
  H       0.593119     -1.154664      0.837240
  H       0.809575      0.608700      0.925330
  H      -1.878532     -0.762012      0.708159
  H      -1.739094      0.845336      0.731681
  H       2.635760     -0.440545     -0.053389
  O      -5.517104     -0.582923     -1.080770
  C      -4.857480     -0.193997     -1.953240
  O      -4.232019      0.189624     -2.853661
14
Coordinates from ORCA-job ./orca E -398.964235758296
  O       1.852442     -0.340189     -0.610131
  N      -1.796560      0.050181      0.096323
  C      -0.527226     -0.047432     -0.643358
  C       0.696201     -0.240967      0.240609
  H      -0.402113      0.861891     -1.238137
  H      -0.596277     -0.888658     -1.339640
  H       0.585837     -1.155218      0.835845
  H       0.803883      0.607518      0.926252
  H      -1.876870     -0.762097      0.704240
  H      -1.738491      0.845133      0.727656
  H       2.632067     -0.442159     -0.049332
  O      -5.500733     -0.581544     -1.070643
  C      -4.854796     -0.196227     -1.953187
  O      -4.224345      0.188454     -2.847176
14
Coordinates from ORCA-job ./orca E -398.964297355900
  O       1.853126     -0.340162     -0.608497
  N      -1.793958      0.049786      0.096949
  C      -0.529192     -0.047502     -0.646656
  C       0.693772     -0.241205      0.238898
  H      -0.404299      0.862205     -1.241240
  H      -0.598346     -0.887383     -1.344908
  H       0.581795     -1.155529      0.833752
  H       0.799866      0.606733      0.925446
  H      -1.880493     -0.763571      0.703099
  H      -1.741994      0.846592      0.727256
  H       2.631387     -0.442078     -0.045810
  O      -5.489216     -0.580105     -1.063052
  C      -4.852245     -0.196185     -1.952539
  O      -4.217184      0.187090     -2.843378
14
Coordinates from ORCA-job ./orca E -398.964322309313
  O       1.854397     -0.339253     -0.608329
  N      -1.792364      0.048860      0.099166
  C      -0.529991     -0.048796     -0.647721
  C       0.693653     -0.241385      0.237551
  H      -0.405625      0.860870     -1.242713
  H      -0.600002     -0.887975     -1.346636
  H       0.581837     -1.155717      0.832401
  H       0.798182      0.606651      0.924121
  H      -1.885385     -0.765347      0.703035
  H      -1.745814      0.847206      0.727945
  H       2.632169     -0.439904     -0.044774
  O      -5.485202     -0.576921     -1.060004
  C      -4.849638     -0.195799     -1.951988
  O      -4.213198      0.186198     -2.842734
14
Coordinates from ORCA-job ./orca E -398.964339010232
  O       1.855424     -0.337819     -0.609213
  N      -1.790827      0.047458      0.102125
  C      -0.530466     -0.050949     -0.647283
  C       0.694620     -0.241411      0.236613
  H      -0.407122      0.858318     -1.243211
  H      -0.602131     -0.890122     -1.345817
  H       0.584312     -1.155604      0.831983
  H       0.797648      0.607364      0.922443
  H      -1.891025     -0.767874      0.702709
  H      -1.749678      0.847183      0.729080
  H       2.633413     -0.436266     -0.045599
  O      -5.483939     -0.573038     -1.059428
  C      -4.846814     -0.193841     -1.951345
  O      -4.210397      0.185288     -2.843738
14
Coordinates from ORCA-job ./orca E -398.964345382452
  O       1.855542     -0.336572     -0.610530
  N      -1.790373      0.046299      0.103799
  C      -0.530632     -0.052581     -0.645848
  C       0.695774     -0.241225      0.236590
  H      -0.408265      0.856160     -1.242792
  H      -0.603436     -0.892461     -1.343342
  H       0.587398     -1.155229      0.832618
  H       0.798197      0.608307      0.921578
  H      -1.894312     -0.769880      0.702119
  H      -1.751538      0.846415      0.729954
  H       2.634285     -0.433389     -0.047659
  O      -5.484720     -0.569675     -1.060398
  C      -4.845307     -0.192459     -1.951534
  O      -4.209597      0.184976     -2.845236
14
Coordinates from ORCA-job ./orca E -398.964351467955
  O       1.855219     -0.335736     -0.611719
  N      -1.790562      0.045437      0.104544
  C      -0.530755     -0.053596     -0.644448
  C       0.696624     -0.240850      0.236901
  H      -0.409176      0.854583     -1.242407
  H      -0.604044     -0.894371     -1.340845
  H       0.589881     -1.154581      0.833636
  H       0.799017      0.609312      0.921142
  H      -1.896139     -0.771443      0.701399
  H      -1.752367      0.845307      0.730832
  H       2.634734     -0.431666     -0.049746
  O      -5.485261     -0.567428     -1.061357
  C      -4.844804     -0.191100     -1.952073
  O      -4.209348      0.184820     -2.846540
14
Coordinates from ORCA-job ./orca E -398.962672257126
  O       1.859072     -0.336226     -0.613284
  N      -1.824494      0.045479      0.091009
  C      -0.526602     -0.052955     -0.648054
  C       0.699782     -0.241497      0.234406
  H      -0.396296      0.857421     -1.246360
  H      -0.590290     -0.895475     -1.343794
  H       0.592427     -1.156149      0.829623
  H       0.801866      0.607781      0.919792
  H      -1.911178     -0.781445      0.707617
  H      -1.769475      0.859752      0.737158
  H       2.638027     -0.433231     -0.050719
  O      -5.495886     -0.568773     -1.058879
  C      -4.819730     -0.191566     -1.930435
  O      -4.204207      0.185570     -2.848760
14
Coordinates from ORCA-job ./orca E -398.964021326769
  O       1.847071     -0.337095     -0.609212
  N      -1.812746      0.046808      0.082419
  C      -0.532116     -0.049214     -0.649646
  C       0.688397     -0.241329      0.237954
  H      -0.404252      0.860747     -1.243293
  H      -0.596806     -0.890394     -1.345805
  H       0.578086     -1.156539      0.831613
  H       0.791624      0.606956      0.924397
  H      -1.893037     -0.766609      0.689556
  H      -1.755363      0.840934      0.717082
  H       2.625139     -0.436541     -0.045884
  O      -5.469179     -0.571024     -1.046028
  C      -4.815880     -0.191227     -1.927156
  O      -4.197922      0.183211     -2.836677
14
Coordinates from ORCA-job ./orca E -398.964193928771
  O       1.844769     -0.337461     -0.606776
  N      -1.808499      0.046903      0.079814
  C      -0.535135     -0.047877     -0.653257
  C       0.683415     -0.241493      0.237400
  H      -0.407794      0.862687     -1.245642
  H      -0.599419     -0.887865     -1.351484
  H       0.570827     -1.157030      0.830250
  H       0.785831      0.605851      0.925251
  H      -1.891290     -0.766736      0.685581
  H      -1.754622      0.840658      0.713013
  H       2.621470     -0.438059     -0.041688
  O      -5.452836     -0.569609     -1.035936
  C      -4.813292     -0.193377     -1.927014
  O      -4.190406      0.182095     -2.830191
14
Coordinates from ORCA-job ./orca E -398.964258006802
  O       1.845495     -0.337341     -0.605130
  N      -1.805990      0.046460      0.080391
  C      -0.537094     -0.048039     -0.656500
  C       0.681044     -0.241722      0.235691
  H      -0.409967      0.862881     -1.248740
  H      -0.601437     -0.886730     -1.356631
  H       0.566935     -1.157333      0.828171
  H       0.781803      0.605091      0.924421
  H      -1.894972     -0.768224      0.684417
  H      -1.758119      0.842020      0.712594
  H       2.620828     -0.437833     -0.038160
  O      -5.441323     -0.568032     -1.028379
  C      -4.810853     -0.193279     -1.926395
  O      -4.183333      0.180766     -2.826431
14
Coordinates from ORCA-job ./orca E -398.964280209508
  O       1.846747     -0.336350     -0.604996
  N      -1.804496      0.045524      0.082584
  C      -0.537889     -0.049367     -0.657488
  C       0.680976     -0.241916      0.234372
  H      -0.411264      0.861483     -1.250184
  H      -0.603035     -0.887401     -1.358243
  H       0.567113     -1.157565      0.826819
  H       0.780156      0.604975      0.923138
  H      -1.899944     -0.769984      0.684340
  H      -1.761976      0.842581      0.713292
  H       2.621617     -0.435570     -0.037202
  O      -5.437265     -0.564766     -1.025364
  C      -4.808333     -0.192828     -1.925904
  O      -4.179389      0.179871     -2.825844
14
Coordinates from ORCA-job ./orca E -398.964296475019
  O       1.847756     -0.334799     -0.605939
  N      -1.803009      0.044102      0.085582
  C      -0.538384     -0.051555     -0.656976
  C       0.681982     -0.241972      0.233454
  H      -0.412765      0.858869     -1.250663
  H      -0.605141     -0.889607     -1.357346
  H       0.569713     -1.157534      0.826365
  H       0.779641      0.605614      0.921533
  H      -1.905776     -0.772533      0.683982
  H      -1.765974      0.842523      0.714465
  H       2.622874     -0.431813     -0.038135
  O      -5.435864     -0.560685     -1.024740
  C      -4.805487     -0.190829     -1.925340
  O      -4.176550      0.178907     -2.826921
14
Coordinates from ORCA-job ./orca E -398.964303415774
  O       1.847861     -0.333491     -0.607298
  N      -1.802535      0.042924      0.087312
  C      -0.538565     -0.053196     -0.655494
  C       0.683158     -0.241801      0.233448
  H      -0.413931      0.856692     -1.250221
  H      -0.606463     -0.891957     -1.354833
  H       0.572864     -1.157204      0.826986
  H       0.780214      0.606511      0.920723
  H      -1.909194     -0.774593      0.683328
  H      -1.767930      0.841732      0.715383
  H       2.623761     -0.428879     -0.040270
  O      -5.436562     -0.557182     -1.025687
  C      -4.803914     -0.189395     -1.925551
  O      -4.175744      0.178524     -2.828507
14
Coordinates from ORCA-job ./orca E -398.964310073439
  O       1.847537     -0.332637     -0.608492
  N      -1.802708      0.042059      0.088063
  C      -0.538691     -0.054191     -0.654076
  C       0.684010     -0.241433      0.233781
  H      -0.414844      0.855145     -1.249807
  H      -0.607074     -0.893836     -1.352338
  H       0.575348     -1.156582      0.828006
  H       0.781058      0.607483      0.920341
  H      -1.911042     -0.776189      0.682540
  H      -1.768773      0.840597      0.716285
  H       2.624222     -0.427158     -0.042377
  O      -5.437080     -0.554852     -1.026624
  C      -4.803387     -0.188030     -1.926101
  O      -4.175558      0.178311     -2.829881
14
Coordinates from ORCA-job ./orca E -398.962614596092
  O       1.851432     -0.333132     -0.609987
  N      -1.836619      0.042086      0.074595
  C      -0.534478     -0.053525     -0.657796
  C       0.687153     -0.242055      0.231261
  H      -0.401946      0.858020     -1.253921
  H      -0.593301     -0.894952     -1.355442
  H       0.577833     -1.158110      0.823971
  H       0.783844      0.605987      0.918953
  H      -1.926101     -0.786269      0.688779
  H      -1.785961      0.855018      0.722693
  H       2.627513     -0.428728     -0.043222
  O      -5.447737     -0.556157     -1.024017
  C      -4.778243     -0.188469     -1.904488
  O      -4.170372      0.178973     -2.832060
14
Coordinates from ORCA-job ./orca E -398.963966569882
  O       1.839426     -0.334004     -0.605781
  N      -1.824640      0.043351      0.065892
  C      -0.539983     -0.049879     -0.659549
  C       0.675631     -0.241844      0.234767
  H      -0.409956      0.861216     -1.250985
  H      -0.599822     -0.889950     -1.357503
  H       0.563328     -1.158396      0.825985
  H       0.773321      0.605282      0.923443
  H      -1.907602     -0.771513      0.670713
  H      -1.771432      0.836176      0.702500
  H       2.614545     -0.431955     -0.038137
  O      -5.421109     -0.558364     -1.011125
  C      -4.774341     -0.188137     -1.901024
  O      -4.164348      0.176704     -2.819877
14
Coordinates from ORCA-job ./orca E -398.964138054037
  O       1.837181     -0.334342     -0.603267
  N      -1.820366      0.043396      0.063210
  C      -0.542990     -0.048627     -0.663186
  C       0.670652     -0.241980      0.234199
  H      -0.413507      0.863055     -1.253370
  H      -0.602416     -0.887528     -1.363140
  H       0.556100     -1.158824      0.824658
  H       0.767441      0.604251      0.924223
  H      -1.905768     -0.771676      0.666686
  H      -1.770566      0.835836      0.698385
  H       2.610895     -0.433382     -0.033820
  O      -5.404817     -0.556933     -1.001094
  C      -4.771846     -0.190196     -1.900785
  O      -4.156975      0.175637     -2.813379
14
Coordinates from ORCA-job ./orca E -398.964204427771
  O       1.837945     -0.334144     -0.601614
  N      -1.817945      0.042916      0.063736
  C      -0.544937     -0.048867     -0.666367
  C       0.668344     -0.242207      0.232498
  H      -0.415656      0.863146     -1.256448
  H      -0.604380     -0.886516     -1.368167
  H       0.552359     -1.159126      0.822596
  H       0.763419      0.603511      0.923372
  H      -1.909502     -0.773161      0.665500
  H      -1.774076      0.837123      0.697934
  H       2.610292     -0.433030     -0.030300
  O      -5.393349     -0.555252     -0.993603
  C      -4.769522     -0.190058     -1.900187
  O      -4.149974      0.174350     -2.809631
14
Coordinates from ORCA-job ./orca E -398.964224184410
  O       1.839172     -0.333111     -0.601518
  N      -1.816545      0.041976      0.065899
  C      -0.545722     -0.050204     -0.667278
  C       0.668324     -0.242410      0.231208
  H      -0.416916      0.861721     -1.257846
  H      -0.605914     -0.887226     -1.369680
  H       0.552648     -1.159385      0.821261
  H       0.761836      0.603376      0.922119
  H      -1.914534     -0.774898      0.665406
  H      -1.777988      0.837646      0.698623
  H       2.611078     -0.430739     -0.029420
  O      -5.389281     -0.551970     -0.990656
  C      -4.767092     -0.189552     -1.899743
  O      -4.146048      0.173464     -2.809056
14
Coordinates from ORCA-job ./orca E -398.964239875688
  O       1.840163     -0.331483     -0.602511
  N      -1.815113      0.040547      0.068913
  C      -0.546226     -0.052395     -0.666696
  C       0.669373     -0.242496      0.230312
  H      -0.418402      0.859089     -1.258288
  H      -0.607979     -0.889444     -1.368728
  H       0.555353     -1.159430      0.820775
  H       0.761372      0.603933      0.920588
  H      -1.920528     -0.777443      0.665015
  H      -1.782131      0.837577      0.699799
  H       2.612344     -0.426926     -0.030448
  O      -5.387807     -0.547762     -0.990025
  C      -4.764249     -0.187549     -1.899246
  O      -4.143153      0.172469     -2.810140
14
Coordinates from ORCA-job ./orca E -398.964247240064
  O       1.840259     -0.330137     -0.603906
  N      -1.814625      0.039367      0.070676
  C      -0.546414     -0.054024     -0.665171
  C       0.670570     -0.242346      0.230327
  H      -0.419566      0.856923     -1.257809
  H      -0.609302     -0.891776     -1.366196
  H       0.558542     -1.159152      0.821381
  H       0.761985      0.604772      0.919843
  H      -1.924054     -0.779523      0.664303
  H      -1.784188      0.836787      0.700733
  H       2.613248     -0.423969     -0.032654
  O      -5.388476     -0.544185     -0.990980
  C      -4.762637     -0.186078     -1.899471
  O      -4.142323      0.172030     -2.811756
14
Coordinates from ORCA-job ./orca E -398.964254149750
  O       1.839935     -0.329276     -0.605101
  N      -1.814781      0.038512      0.071419
  C      -0.546533     -0.054987     -0.663742
  C       0.671424     -0.241992      0.230683
  H      -0.420459      0.855425     -1.257361
  H      -0.609899     -0.893601     -1.363723
  H       0.561007     -1.158567      0.822394
  H       0.762858      0.605695      0.919529
  H      -1.925910     -0.781126      0.663458
  H      -1.785053      0.835650      0.701632
  H       2.613724     -0.422274     -0.034778
  O      -5.389027     -0.541808     -0.991922
  C      -4.762096     -0.184733     -1.900021
  O      -4.142173      0.171767     -2.813147
14
Coordinates from ORCA-job ./orca E -398.962548117775
  O       1.843873     -0.329778     -0.606519
  N      -1.848667      0.038525      0.058021
  C      -0.542259     -0.054294     -0.667585
  C       0.674549     -0.242587      0.228137
  H      -0.407544      0.858338     -1.261645
  H      -0.596107     -0.894728     -1.366992
  H       0.563424     -1.160050      0.818338
  H       0.765574      0.604237      0.918099
  H      -1.940983     -0.791291      0.669716
  H      -1.802312      0.850044      0.708124
  H       2.617008     -0.423850     -0.035485
  O      -5.399709     -0.543070     -0.989181
  C      -4.736879     -0.185149     -1.878433
  O      -4.136950      0.172339     -2.815276
14
Coordinates from ORCA-job ./orca E -398.963892510238
  O       1.831864     -0.330633     -0.602193
  N      -1.836456      0.039721      0.049221
  C      -0.547757     -0.050761     -0.669489
  C       0.662896     -0.242337      0.231592
  H      -0.415613      0.861384     -1.258833
  H      -0.602644     -0.889821     -1.369083
  H       0.548782     -1.160244      0.820359
  H       0.754769      0.603643      0.922469
  H      -1.922143     -0.776613      0.651669
  H      -1.787373      0.831185      0.687818
  H       2.603962     -0.426962     -0.030165
  O      -5.373193     -0.545202     -0.976267
  C      -4.732908     -0.184826     -1.874783
  O      -4.131166      0.170153     -2.802994
14
Coordinates from ORCA-job ./orca E -398.964062961997
  O       1.829672     -0.330942     -0.599615
  N      -1.832154      0.039720      0.046473
  C      -0.550757     -0.049599     -0.673138
  C       0.657927     -0.242451      0.231009
  H      -0.419174      0.863117     -1.261248
  H      -0.605233     -0.887518     -1.374663
  H       0.541604     -1.160618      0.819069
  H       0.748815      0.602684      0.923173
  H      -1.920231     -0.776801      0.647597
  H      -1.786391      0.830795      0.683656
  H       2.600335     -0.428285     -0.025750
  O      -5.356985     -0.543773     -0.966327
  C      -4.730503     -0.186778     -1.874444
  O      -4.123907      0.169137     -2.796474
14
Coordinates from ORCA-job ./orca E -398.964136565894
  O       1.830466     -0.330682     -0.597957
  N      -1.829811      0.039211      0.046948
  C      -0.552695     -0.049902     -0.676258
  C       0.655680     -0.242676      0.229313
  H      -0.421301      0.863123     -1.264300
  H      -0.607154     -0.886609     -1.379576
  H       0.538002     -1.160918      0.817024
  H       0.744810      0.601959      0.922297
  H      -1.924008     -0.778273      0.646389
  H      -1.789918      0.832024      0.683160
  H       2.599761     -0.427834     -0.022238
  O      -5.345587     -0.542026     -0.958927
  C      -4.728287     -0.186611     -1.873857
  O      -4.116939      0.167900     -2.792697
14
Coordinates from ORCA-job ./orca E -398.964153112310
  O       1.831679     -0.329630     -0.597892
  N      -1.828496      0.038278      0.049076
  C      -0.553473     -0.051230     -0.677103
  C       0.655710     -0.242886      0.228045
  H      -0.422525      0.861692     -1.265657
  H      -0.608629     -0.887334     -1.381006
  H       0.538379     -1.161205      0.815704
  H       0.743298      0.601809      0.921073
  H      -1.929093     -0.779974      0.646274
  H      -1.793896      0.832523      0.683828
  H       2.600543     -0.425551     -0.021425
  O      -5.341532     -0.538774     -0.956067
  C      -4.725947     -0.186069     -1.873447
  O      -4.112999      0.167037     -2.792085
14
Coordinates from ORCA-job ./orca E -398.964163835837
  O       1.832629     -0.327997     -0.598943
  N      -1.827129      0.036861      0.052090
  C      -0.553972     -0.053377     -0.676447
  C       0.656798     -0.242987      0.227180
  H      -0.423974      0.859102     -1.266035
  H      -0.610624     -0.889509     -1.380011
  H       0.541142     -1.161279      0.815218
  H       0.742936      0.602314      0.919591
  H      -1.935193     -0.782495      0.645851
  H      -1.798178      0.832455      0.685006
  H       2.601800     -0.421795     -0.022558
  O      -5.340062     -0.534562     -0.955494
  C      -4.723128     -0.184095     -1.873013
  O      -4.110026      0.166055     -2.793115
14
Coordinates from ORCA-job ./orca E -398.964171844011
  O       1.832713     -0.326638     -0.600382
  N      -1.826631      0.035688      0.053888
  C      -0.554161     -0.054983     -0.674878
  C       0.658023     -0.242856      0.227217
  H      -0.425131      0.856966     -1.265512
  H      -0.611940     -0.891799     -1.377470
  H       0.544366     -1.161044      0.815817
  H       0.743619      0.603099      0.918904
  H      -1.938836     -0.784584      0.645086
  H      -1.800362      0.831683      0.685946
  H       2.602718     -0.418853     -0.024847
  O      -5.340756     -0.530957     -0.956498
  C      -4.721480     -0.182612     -1.873246
  O      -4.109125      0.165577     -2.794707
14
Coordinates from ORCA-job ./orca E -398.964178728448
  O       1.832390     -0.325805     -0.601562
  N      -1.826767      0.034866      0.054602
  C      -0.554268     -0.055886     -0.673461
  C       0.658863     -0.242519      0.227594
  H      -0.425986      0.855552     -1.265031
  H      -0.612513     -0.893529     -1.375060
  H       0.546761     -1.160497      0.816816
  H       0.744521      0.603964      0.918659
  H      -1.940658     -0.786155      0.644193
  H      -1.801230      0.830574      0.686814
  H       2.603199     -0.417230     -0.026961
  O      -5.341370     -0.528617     -0.957458
  C      -4.720943     -0.181316     -1.873780
  O      -4.108981      0.165285     -2.796046
14
Coordinates from ORCA-job ./orca E -398.962447590877
  O       1.836371     -0.326314     -0.602897
  N      -1.860624      0.034864      0.041275
  C      -0.549930     -0.055168     -0.677432
  C       0.661965     -0.243086      0.225020
  H      -0.413055      0.858501     -1.269492
  H      -0.598703     -0.894666     -1.378500
  H       0.549103     -1.161935      0.812741
  H       0.747159      0.602548      0.917184
  H      -1.955743     -0.796410      0.650472
  H      -1.818554      0.844936      0.693391
  H       2.606474     -0.418811     -0.027520
  O      -5.352072     -0.529830     -0.954585
  C      -4.695647     -0.181709     -1.852220
  O      -4.103726      0.165767     -2.798117
14
Coordinates from ORCA-job ./orca E -398.963819429876
  O       1.824356     -0.327134     -0.598478
  N      -1.848187      0.035985      0.032407
  C      -0.555432     -0.051768     -0.679468
  C       0.650194     -0.242803      0.228420
  H      -0.421191      0.861374     -1.266793
  H      -0.605275     -0.889882     -1.380598
  H       0.534363     -1.162047      0.814764
  H       0.736085      0.602055      0.921433
  H      -1.936593     -0.781807      0.632472
  H      -1.803218      0.826067      0.672989
  H       2.593361     -0.421769     -0.022012
  O      -5.325706     -0.531858     -0.941676
  C      -4.691588     -0.181392     -1.848391
  O      -4.098151      0.163664     -2.785749
14
Coordinates from ORCA-job ./orca E -398.963962841798
  O       1.822208     -0.327404     -0.595855
  N      -1.843853      0.035943      0.029612
  C      -0.558430     -0.050707     -0.683111
  C       0.645241     -0.242902      0.227818
  H      -0.424765      0.862984     -1.269221
  H      -0.607876     -0.887708     -1.386091
  H       0.527258     -1.162377      0.813504
  H       0.730063      0.601158      0.922057
  H      -1.934612     -0.782016      0.628374
  H      -1.802120      0.825643      0.668792
  H       2.589759     -0.422964     -0.017531
  O      -5.309625     -0.530433     -0.931870
  C      -4.689252     -0.183227     -1.847954
  O      -4.090978      0.162697     -2.779204
14
Coordinates from ORCA-job ./orca E -398.964035889906
  O       1.823022     -0.327103     -0.594206
  N      -1.841585      0.035413      0.030046
  C      -0.560374     -0.051063     -0.686163
  C       0.643052     -0.243122      0.226125
  H      -0.426887      0.862921     -1.272247
  H      -0.609774     -0.886893     -1.390892
  H       0.523787     -1.162668      0.811484
  H       0.726091      0.600458      0.921143
  H      -1.938443     -0.783470      0.627146
  H      -1.805681      0.826822      0.668256
  H       2.589209     -0.422439     -0.014048
  O      -5.298290     -0.528657     -0.924579
  C      -4.687131     -0.183034     -1.847380
  O      -4.083979      0.161522     -2.775365
14
Coordinates from ORCA-job ./orca E -398.964052104087
  O       1.824199     -0.326062     -0.594196
  N      -1.840365      0.034495      0.032152
  C      -0.561143     -0.052367     -0.686925
  C       0.643136     -0.243332      0.224885
  H      -0.428077      0.861500     -1.273543
  H      -0.611195     -0.887618     -1.392227
  H       0.524258     -1.162955      0.810197
  H       0.724695      0.600308      0.919929
  H      -1.943585     -0.785131      0.627021
  H      -1.809737      0.827307      0.668920
  H       2.589978     -0.420205     -0.013338
  O      -5.294293     -0.525485     -0.921853
  C      -4.684876     -0.182474     -1.847014
  O      -4.079978      0.160707     -2.774692
14
Coordinates from ORCA-job ./orca E -398.964062926066
  O       1.825104     -0.324453     -0.595326
  N      -1.839065      0.033101      0.035178
  C      -0.561642     -0.054455     -0.686185
  C       0.644271     -0.243437      0.224051
  H      -0.429501      0.858965     -1.273850
  H      -0.613135     -0.889729     -1.391174
  H       0.527072     -1.163047      0.809724
  H       0.724472      0.600782      0.918493
  H      -1.949809     -0.787617      0.626570
  H      -1.814177      0.827252      0.670108
  H       2.591223     -0.416554     -0.014613
  O      -5.292864     -0.521330     -0.921392
  C      -4.682071     -0.180549     -1.846643
  O      -4.076860      0.159759     -2.775621
14
Coordinates from ORCA-job ./orca E -398.964071193024
  O       1.825164     -0.323128     -0.596812
  N      -1.838557      0.031952      0.037004
  C      -0.561833     -0.056006     -0.684575
  C       0.645514     -0.243312      0.224109
  H      -0.430650      0.856894     -1.273274
  H      -0.614439     -0.891943     -1.388635
  H       0.530288     -1.162828      0.810335
  H       0.725250      0.601536      0.917847
  H      -1.953535     -0.789697      0.625752
  H      -1.816470      0.826505      0.671057
  H       2.592146     -0.413700     -0.016987
  O      -5.293614     -0.517783     -0.922480
  C      -4.680391     -0.179078     -1.846882
  O      -4.075856      0.159275     -2.777139
14
Coordinates from ORCA-job ./orca E -398.964077901727
  O       1.824841     -0.322330     -0.597982
  N      -1.838677      0.031175      0.037695
  C      -0.561931     -0.056850     -0.683168
  C       0.646342     -0.242994      0.224504
  H      -0.431470      0.855568     -1.272761
  H      -0.614991     -0.893577     -1.386286
  H       0.532617     -1.162316      0.811320
  H       0.726189      0.602341      0.917670
  H      -1.955321     -0.791219      0.624825
  H      -1.817336      0.825439      0.671897
  H       2.592634     -0.412162     -0.019102
  O      -5.294331     -0.515514     -0.923492
  C      -4.679858     -0.177844     -1.847400
  O      -4.075690      0.158970     -2.778400
14
Coordinates from ORCA-job ./orca E -398.962315494587
  O       1.828864     -0.322845     -0.599232
  N      -1.872504      0.031156      0.024444
  C      -0.557528     -0.056107     -0.687271
  C       0.649420     -0.243531      0.221902
  H      -0.418524      0.858551     -1.277404
  H      -0.601166     -0.894726     -1.389903
  H       0.534881     -1.163705      0.807226
  H       0.728746      0.600968      0.916147
  H      -1.970419     -0.801571      0.631124
  H      -1.834720      0.839767      0.678560
  H       2.595896     -0.413745     -0.019508
  O      -5.305043     -0.516671     -0.920492
  C      -4.654477     -0.178217     -1.825870
  O      -4.070408      0.159363     -2.780403
14
Coordinates from ORCA-job ./orca E -398.963687410193
  O       1.816839     -0.323613     -0.594743
  N      -1.859846      0.032207      0.015540
  C      -0.563044     -0.052853     -0.689423
  C       0.637544     -0.243220      0.225239
  H      -0.426735      0.861235     -1.274807
  H      -0.607794     -0.890080     -1.391985
  H       0.520073     -1.163748      0.809239
  H       0.717413      0.600568      0.920269
  H      -1.950984     -0.787037      0.613204
  H      -1.818994      0.820897      0.658089
  H       2.582722     -0.416527     -0.013847
  O      -5.278853     -0.518583     -0.907615
  C      -4.650305     -0.177901     -1.821867
  O      -4.065018      0.157342     -2.767973
14
Coordinates from ORCA-job ./orca E -398.963829774448
  O       1.814729     -0.323845     -0.592088
  N      -1.855477      0.032136      0.012709
  C      -0.566051     -0.051889     -0.693052
  C       0.632606     -0.243308      0.224616
  H      -0.430334      0.862726     -1.277244
  H      -0.610427     -0.888035     -1.397384
  H       0.513042     -1.164041      0.808004
  H       0.711332      0.599725      0.920813
  H      -1.948937     -0.787250      0.609088
  H      -1.817774      0.820449      0.653868
  H       2.579138     -0.417601     -0.009315
  O      -5.262897     -0.517193     -0.897953
  C      -4.648024     -0.179611     -1.821334
  O      -4.057909      0.156423     -2.761408
14
Coordinates from ORCA-job ./orca E -398.963902547584
  O       1.815545     -0.323522     -0.590464
  N      -1.853276      0.031599      0.013117
  C      -0.568006     -0.052283     -0.696026
  C       0.630471     -0.243523      0.222924
  H      -0.432457      0.862608     -1.280228
  H      -0.612316     -0.887293     -1.402064
  H       0.509696     -1.164317      0.806014
  H       0.707412      0.599054      0.919854
  H      -1.952819     -0.788678      0.607848
  H      -1.821360      0.821595      0.653308
  H       2.578598     -0.417033     -0.005885
  O      -5.251640     -0.515422     -0.890798
  C      -4.645975     -0.179419     -1.820779
  O      -4.050855      0.155323     -2.757501
14
Coordinates from ORCA-job ./orca E -398.963918791632
  O       1.816681     -0.322531     -0.590516
  N      -1.852150      0.030707      0.015214
  C      -0.568772     -0.053544     -0.696705
  C       0.630605     -0.243723      0.221710
  H      -0.433621      0.861222     -1.281459
  H      -0.613692     -0.887990     -1.403312
  H       0.510233     -1.164582      0.804777
  H       0.706154      0.598925      0.918631
  H      -1.958026     -0.790297      0.607712
  H      -1.825502      0.822071      0.653988
  H       2.579351     -0.414902     -0.005289
  O      -5.247690     -0.512386     -0.888219
  C      -4.643791     -0.178851     -1.820459
  O      -4.046761      0.154568     -2.756751
14
Coordinates from ORCA-job ./orca E -398.963929585822
  O       1.817530     -0.320991     -0.591733
  N      -1.850930      0.029361      0.018253
  C      -0.569274     -0.055545     -0.695878
  C       0.631784     -0.243824      0.220906
  H      -0.435019      0.858774     -1.281680
  H      -0.615581     -0.890005     -1.402210
  H       0.513081     -1.164670      0.804339
  H       0.706107      0.599386      0.917223
  H      -1.964361     -0.792726      0.607234
  H      -1.830088      0.822039      0.655201
  H       2.580575     -0.411419     -0.006717
  O      -5.246325     -0.508365     -0.887904
  C      -4.641006     -0.177010     -1.820160
  O      -4.043475      0.153682     -2.757553
14
Coordinates from ORCA-job ./orca E -398.963938056806
  O       1.817562     -0.319714     -0.593282
  N      -1.850415      0.028254      0.020121
  C      -0.569470     -0.057035     -0.694218
  C       0.633050     -0.243703      0.220986
  H      -0.436162      0.856774     -1.281044
  H      -0.616888     -0.892133     -1.399659
  H       0.516289     -1.164457      0.804961
  H       0.707000      0.600112      0.916620
  H      -1.968197     -0.794784      0.606366
  H      -1.832498      0.821335      0.656172
  H       2.581506     -0.408680     -0.009205
  O      -5.247146     -0.504920     -0.889105
  C      -4.639282     -0.175564     -1.820409
  O      -4.042329      0.153202     -2.758983
14
Coordinates from ORCA-job ./orca E -398.963944543308
  O       1.817230     -0.318980     -0.594445
  N      -1.850514      0.027539      0.020789
  C      -0.569560     -0.057800     -0.692825
  C       0.633859     -0.243397      0.221396
  H      -0.436947      0.855555     -1.280499
  H      -0.617426     -0.893650     -1.397379
  H       0.518516     -1.163967      0.805938
  H       0.707985      0.600868      0.916497
  H      -1.969938     -0.796242      0.605405
  H      -1.833349      0.820324      0.656992
  H       2.581990     -0.407272     -0.011321
  O      -5.247958     -0.502784     -0.890177
  C      -4.638746     -0.174411     -1.820908
  O      -4.042124      0.152904     -2.760144
14
Coordinates from ORCA-job ./orca E -398.962308235715
  O       1.820453     -0.318810     -0.596092
  N      -1.882322      0.027596      0.008101
  C      -0.566073     -0.057603     -0.696478
  C       0.636396     -0.244024      0.218827
  H      -0.431473      0.855800     -1.283629
  H      -0.603324     -0.895602     -1.400577
  H       0.521043     -1.165753      0.801542
  H       0.709766      0.599229      0.915238
  H      -1.983412     -0.805804      0.612122
  H      -1.848874      0.834925      0.663494
  H       2.584697     -0.407954     -0.012421
  O      -5.256449     -0.502608     -0.888232
  C      -4.610234     -0.173710     -1.800627
  O      -4.037177      0.153005     -2.761947
14
Coordinates from ORCA-job ./orca E -398.963500686048
  O       1.808781     -0.320029     -0.592231
  N      -1.871023      0.027841      0.000603
  C      -0.571596     -0.054706     -0.698478
  C       0.624999     -0.243313      0.221765
  H      -0.438167      0.859968     -1.283045
  H      -0.610351     -0.891722     -1.401851
  H       0.506626     -1.164848      0.803962
  H       0.699291      0.599784      0.918268
  H      -1.965923     -0.792728      0.595894
  H      -1.834626      0.815435      0.644672
  H       2.572015     -0.410931     -0.007534
  O      -5.230567     -0.504684     -0.875384
  C      -4.606534     -0.173297     -1.796629
  O      -4.029908      0.151916     -2.750693
14
Coordinates from ORCA-job ./orca E -398.963666610909
  O       1.806446     -0.320430     -0.590028
  N      -1.867232      0.027276     -0.001711
  C      -0.574726     -0.053831     -0.701803
  C       0.620193     -0.243030      0.221062
  H      -0.440624      0.861479     -1.285639
  H      -0.613502     -0.889861     -1.406641
  H       0.499752     -1.164456      0.803145
  H       0.693728      0.599645      0.918258
  H      -1.964279     -0.793468      0.592010
  H      -1.833851      0.814231      0.641069
  H       2.568369     -0.412069     -0.003665
  O      -5.214673     -0.503182     -0.866123
  C      -4.604494     -0.175026     -1.796144
  O      -4.022090      0.151407     -2.744472
14
Coordinates from ORCA-job ./orca E -398.963714915116
  O       1.806938     -0.320256     -0.588779
  N      -1.865381      0.026441     -0.001052
  C      -0.576885     -0.054259     -0.704536
  C       0.618085     -0.242953      0.219364
  H      -0.441714      0.861071     -1.288410
  H      -0.616034     -0.889223     -1.410921
  H       0.496553     -1.164163      0.801635
  H       0.690173      0.599575      0.916860
  H      -1.968139     -0.795449      0.590748
  H      -1.837673      0.814993      0.641038
  H       2.567665     -0.411518     -0.000818
  O      -5.203396     -0.501479     -0.859469
  C      -4.602564     -0.174675     -1.795741
  O      -4.014611      0.150583     -2.740600
14
Coordinates from ORCA-job ./orca E -398.963763385176
  O       1.807842     -0.319303     -0.589056
  N      -1.864504      0.025522      0.001045
  C      -0.577709     -0.055508     -0.704997
  C       0.618278     -0.243081      0.218272
  H      -0.442263      0.859539     -1.289300
  H      -0.617692     -0.889998     -1.411861
  H       0.497375     -1.164249      0.800750
  H       0.689145      0.599655      0.915565
  H      -1.972877     -0.797190      0.590627
  H      -1.841625      0.815280      0.641960
  H       2.568342     -0.409350     -0.000646
  O      -5.200101     -0.498473     -0.857481
  C      -4.600493     -0.174134     -1.795626
  O      -4.010700      0.149977     -2.739932
14
Coordinates from ORCA-job ./orca E -398.963763445748
  O       1.808587     -0.317613     -0.590440
  N      -1.863345      0.024207      0.004238
  C      -0.578375     -0.057652     -0.704111
  C       0.619452     -0.243268      0.217472
  H      -0.443292      0.856858     -1.289349
  H      -0.620016     -0.892174     -1.410689
  H       0.500558     -1.164409      0.800424
  H       0.688969      0.600093      0.914102
  H      -1.979118     -0.799690      0.590190
  H      -1.846320      0.815235      0.643404
  H       2.569572     -0.405519     -0.002346
  O      -5.198972     -0.494283     -0.857456
  C      -4.597575     -0.172138     -1.795473
  O      -4.007108      0.149040     -2.740646
14
Coordinates from ORCA-job ./orca E -398.963768827590
  O       1.808588     -0.316270     -0.591903
  N      -1.862851      0.023283      0.005984
  C      -0.578601     -0.059088     -0.702571
  C       0.620592     -0.243280      0.217558
  H      -0.444332      0.855002     -1.288694
  H      -0.621335     -0.894195     -1.408335
  H       0.503675     -1.164420      0.800902
  H       0.689618      0.600561      0.913668
  H      -1.982546     -0.801442      0.589461
  H      -1.848461      0.814663      0.644301
  H       2.570431     -0.402815     -0.004718
  O      -5.199952     -0.490961     -0.858696
  C      -4.595910     -0.170850     -1.795744
  O      -4.005899      0.148497     -2.741893
14
Coordinates from ORCA-job ./orca E -398.963773208522
  O       1.808310     -0.315479     -0.592928
  N      -1.862902      0.022735      0.006558
  C      -0.578667     -0.059784     -0.701330
  C       0.621299     -0.243086      0.217930
  H      -0.445141      0.853957     -1.288212
  H      -0.621801     -0.895563     -1.406297
  H       0.505711     -1.164161      0.801627
  H       0.690386      0.601052      0.913702
  H      -1.984099     -0.802591      0.588629
  H      -1.849129      0.813857      0.644962
  H       2.570879     -0.401515     -0.006598
  O      -5.200791     -0.489040     -0.859703
  C      -4.595427     -0.169806     -1.796149
  O      -4.005610      0.148111     -2.742872
14
Coordinates from ORCA-job ./orca E -398.962090381408
  O       1.811580     -0.315334     -0.594493
  N      -1.894660      0.022865     -0.006129
  C      -0.575112     -0.059550     -0.705084
  C       0.623827     -0.243705      0.215347
  H      -0.439634      0.854233     -1.291460
  H      -0.607706     -0.897501     -1.409677
  H       0.508167     -1.165925      0.797223
  H       0.692123      0.599426      0.912420
  H      -1.997594     -0.812226      0.595321
  H      -1.864744      0.828506      0.651520
  H       2.573585     -0.402236     -0.007558
  O      -5.209265     -0.488937     -0.857677
  C      -4.566881     -0.169126     -1.775848
  O      -4.000667      0.148196     -2.744584
14
Coordinates from ORCA-job ./orca E -398.963279786885
  O       1.799943     -0.316426     -0.590597
  N      -1.883177      0.023053     -0.013561
  C      -0.580613     -0.056759     -0.707164
  C       0.612390     -0.242994      0.218223
  H      -0.446394      0.858303     -1.290966
  H      -0.614738     -0.893679     -1.410926
  H       0.493739     -1.165072      0.799505
  H       0.681471      0.599955      0.915434
  H      -1.979969     -0.799072      0.579274
  H      -1.850186      0.809076      0.632617
  H       2.560893     -0.405097     -0.002582
  O      -5.183745     -0.490802     -0.844906
  C      -4.563032     -0.168829     -1.771710
  O      -3.993564      0.147032     -2.733321
14
Coordinates from ORCA-job ./orca E -398.963450480191
  O       1.797660     -0.316820     -0.588351
  N      -1.879332      0.022589     -0.015896
  C      -0.583725     -0.055892     -0.710486
  C       0.607599     -0.242733      0.217497
  H      -0.448842      0.859802     -1.293570
  H      -0.617919     -0.891819     -1.415681
  H       0.486857     -1.164725      0.798619
  H       0.675892      0.599776      0.915420
  H      -1.978275     -0.799640      0.575429
  H      -1.849292      0.808033      0.628932
  H       2.557262     -0.406310      0.001355
  O      -5.168003     -0.489679     -0.835821
  C      -4.561045     -0.170438     -1.771084
  O      -3.985819      0.146542     -2.727043
14
Coordinates from ORCA-job ./orca E -398.963512749098
  O       1.798180     -0.316635     -0.587069
  N      -1.877494      0.021841     -0.015300
  C      -0.585885     -0.056248     -0.713207
  C       0.605499     -0.242679      0.215781
  H      -0.449909      0.859490     -1.296306
  H      -0.620444     -0.891075     -1.420000
  H       0.483626     -1.164504      0.797009
  H       0.672352      0.599624      0.914057
  H      -1.982199     -0.801462      0.574172
  H      -1.853127      0.808934      0.628748
  H       2.556539     -0.405923      0.004253
  O      -5.156753     -0.488124     -0.829184
  C      -4.559159     -0.170310     -1.770659
  O      -3.978208      0.145758     -2.722976
14
Coordinates from ORCA-job ./orca E -398.963525435165
  O       1.799056     -0.315777     -0.587379
  N      -1.876687      0.021077     -0.013262
  C      -0.586670     -0.057363     -0.713606
  C       0.605731     -0.242825      0.214721
  H      -0.450373      0.858105     -1.297088
  H      -0.622049     -0.891689     -1.420920
  H       0.484426     -1.164630      0.796115
  H       0.671485      0.599657      0.912822
  H      -1.986951     -0.802995      0.574057
  H      -1.857108      0.809384      0.629586
  H       2.557191     -0.404061      0.004352
  O      -5.153586     -0.485575     -0.827388
  C      -4.557192     -0.169823     -1.770528
  O      -3.974255      0.145201     -2.722164
14
Coordinates from ORCA-job ./orca E -398.963540144690
  O       1.799753     -0.314243     -0.588829
  N      -1.875587      0.019959     -0.010098
  C      -0.587294     -0.059289     -0.712644
  C       0.606947     -0.243029      0.213953
  H      -0.451282      0.855690     -1.296967
  H      -0.624309     -0.893570     -1.419790
  H       0.487535     -1.164821      0.795763
  H       0.671543      0.600018      0.911433
  H      -1.993299     -0.805252      0.573609
  H      -1.861945      0.809572      0.630944
  H       2.558374     -0.400708      0.002521
  O      -5.152637     -0.481849     -0.827554
  C      -4.554298     -0.168144     -1.770398
  O      -3.970482      0.144352     -2.722623
14
Coordinates from ORCA-job ./orca E -398.963544493730
  O       1.799728     -0.313016     -0.590320
  N      -1.875079      0.019218     -0.008370
  C      -0.587505     -0.060569     -0.711089
  C       0.608086     -0.243070      0.214055
  H      -0.452223      0.854025     -1.296226
  H      -0.625639     -0.895371     -1.417508
  H       0.490543     -1.164886      0.796204
  H       0.672312      0.600395      0.911078
  H      -1.996791     -0.806807      0.572842
  H      -1.864179      0.809216      0.631773
  H       2.559219     -0.398332      0.000090
  O      -5.153706     -0.478966     -0.828913
  C      -4.552634     -0.166985     -1.770630
  O      -3.969114      0.143834     -2.723667
14
Coordinates from ORCA-job ./orca E -398.963548939106
  O       1.799443     -0.312304     -0.591323
  N      -1.875105      0.018818     -0.007842
  C      -0.587553     -0.061145     -0.709878
  C       0.608763     -0.242917      0.214435
  H      -0.452929      0.853140     -1.295696
  H      -0.626103     -0.896558     -1.415573
  H       0.492448     -1.164702      0.796866
  H       0.673118      0.600773      0.911203
  H      -1.998303     -0.807778      0.571999
  H      -1.864824      0.808580      0.632355
  H       2.559652     -0.397236     -0.001771
  O      -5.154666     -0.477309     -0.829974
  C      -4.552156     -0.166137     -1.770999
  O      -3.968767      0.143462     -2.724482
14
Coordinates from ORCA-job ./orca E -398.961809628741
  O       1.802759     -0.312154     -0.592817
  N      -1.906821      0.018938     -0.020507
  C      -0.583932     -0.060884     -0.713731
  C       0.611287     -0.243509      0.211834
  H      -0.447384      0.853438     -1.299057
  H      -0.612010     -0.898505     -1.419110
  H       0.494860     -1.166428      0.792449
  H       0.674807      0.599180      0.909890
  H      -2.011862     -0.817542      0.578692
  H      -1.880522      0.823221      0.638969
  H       2.562361     -0.397952     -0.002608
  O      -5.163154     -0.477140     -0.827871
  C      -4.523561     -0.165458     -1.750702
  O      -3.963810      0.143480     -2.726110
14
Coordinates from ORCA-job ./orca E -398.962995052333
  O       1.791087     -0.313220     -0.588982
  N      -1.895174      0.019147     -0.027821
  C      -0.589450     -0.058184     -0.715808
  C       0.599826     -0.242791      0.214676
  H      -0.454204      0.857408     -1.298568
  H      -0.619124     -0.894743     -1.420245
  H       0.480468     -1.165562      0.794712
  H       0.664099      0.599740      0.912839
  H      -1.994081     -0.804297      0.562817
  H      -1.865711      0.803874      0.620103
  H       2.549652     -0.400777      0.002278
  O      -5.137993     -0.479032     -0.815338
  C      -4.519517     -0.165234     -1.746463
  O      -3.956862      0.142359     -2.714881
14
Coordinates from ORCA-job ./orca E -398.963163961210
  O       1.788821     -0.313621     -0.586762
  N      -1.891296      0.018758     -0.030126
  C      -0.592571     -0.057333     -0.719074
  C       0.595070     -0.242536      0.213937
  H      -0.456645      0.858882     -1.301132
  H      -0.622371     -0.892912     -1.424888
  H       0.473652     -1.165218      0.793822
  H       0.658561      0.599562      0.912792
  H      -1.992344     -0.804766      0.559010
  H      -1.864717      0.802931      0.616438
  H       2.546045     -0.402020      0.006164
  O      -5.122508     -0.478143     -0.806496
  C      -4.517524     -0.166792     -1.745761
  O      -3.949155      0.141894     -2.708603
14
Coordinates from ORCA-job ./orca E -398.963226025531
  O       1.789314     -0.313495     -0.585513
  N      -1.889481      0.018132     -0.029545
  C      -0.594773     -0.057611     -0.721740
  C       0.592975     -0.242492      0.212209
  H      -0.457683      0.858652     -1.303802
  H      -0.624965     -0.892080     -1.429172
  H       0.470408     -1.165010      0.792190
  H       0.655101      0.599388      0.911420
  H      -1.996313     -0.806440      0.557743
  H      -1.868568      0.803949      0.616215
  H       2.545293     -0.401812      0.009000
  O      -5.111294     -0.476850     -0.799983
  C      -4.515645     -0.166820     -1.745341
  O      -3.941351      0.141175     -2.704362
14
Coordinates from ORCA-job ./orca E -398.963238628789
  O       1.790139     -0.312753     -0.585887
  N      -1.888750      0.017520     -0.027521
  C      -0.595548     -0.058594     -0.722065
  C       0.593237     -0.242644      0.211169
  H      -0.458071      0.857406     -1.304485
  H      -0.626565     -0.892546     -1.430052
  H       0.471184     -1.165143      0.791304
  H       0.654402      0.599399      0.910208
  H      -2.001099     -0.807798      0.557632
  H      -1.872578      0.804526      0.617051
  H       2.545909     -0.400224      0.008986
  O      -5.108250     -0.474687     -0.798376
  C      -4.513731     -0.166448     -1.745232
  O      -3.937260      0.140673     -2.703412
14
Coordinates from ORCA-job ./orca E -398.963253416658
  O       1.790766     -0.311398     -0.587434
  N      -1.887728      0.016649     -0.024345
  C      -0.596165     -0.060302     -0.721025
  C       0.594481     -0.242867      0.210421
  H      -0.458867      0.855232     -1.304224
  H      -0.628838     -0.894149     -1.428932
  H       0.474213     -1.165367      0.790928
  H       0.654703      0.599689      0.908879
  H      -2.007560     -0.809783      0.557188
  H      -1.877519      0.804955      0.618413
  H       2.547046     -0.397320      0.006990
  O      -5.107461     -0.471500     -0.798777
  C      -4.510845     -0.165050     -1.745142
  O      -3.933210      0.139899     -2.703619
14
Coordinates from ORCA-job ./orca E -398.963257648664
  O       1.790697     -0.310309     -0.588994
  N      -1.887212      0.016103     -0.022572
  C      -0.596382     -0.061428     -0.719433
  C       0.595624     -0.242932      0.210528
  H      -0.459741      0.853751     -1.303384
  H      -0.630231     -0.895737     -1.426690
  H       0.477130     -1.165466      0.791343
  H       0.655621      0.599998      0.908568
  H      -2.011163     -0.811146      0.556406
  H      -1.879827      0.804811      0.619254
  H       2.547868     -0.395259      0.004442
  O      -5.108638     -0.469036     -0.800312
  C      -4.509124     -0.164069     -1.745365
  O      -3.931604      0.139403     -2.704469
14
Coordinates from ORCA-job ./orca E -398.963262100031
  O       1.790387     -0.309697     -0.590015
  N      -1.887211      0.015867     -0.022038
  C      -0.596432     -0.061883     -0.718225
  C       0.596279     -0.242808      0.210909
  H      -0.460391      0.853019     -1.302796
  H      -0.630744     -0.896755     -1.424816
  H       0.478916     -1.165330      0.791959
  H       0.656495      0.600295      0.908748
  H      -2.012679     -0.811941      0.555564
  H      -1.880442      0.804352      0.619821
  H       2.548283     -0.394387      0.002544
  O      -5.109698     -0.467699     -0.801484
  C      -4.508608     -0.163391     -1.745710
  O      -3.931137      0.139044     -2.705142
14
Coordinates from ORCA-job ./orca E -398.961445222052
  O       1.793745     -0.309538     -0.591464
  N      -1.918897      0.015961     -0.034666
  C      -0.592753     -0.061609     -0.722150
  C       0.598812     -0.243375      0.208292
  H      -0.454815      0.853324     -1.306244
  H      -0.616662     -0.898723     -1.428482
  H       0.481318     -1.167019      0.787534
  H       0.658157      0.598738      0.907403
  H      -2.026326     -0.821833      0.562274
  H      -1.896252      0.818989      0.626501
  H       2.551004     -0.395086      0.001786
  O      -5.118196     -0.467448     -0.799347
  C      -4.479957     -0.162693     -1.725432
  O      -3.926159      0.139000     -2.706685
14
Coordinates from ORCA-job ./orca E -398.962626260997
  O       1.782076     -0.310596     -0.587647
  N      -1.907055      0.016156     -0.041884
  C      -0.598283     -0.059002     -0.724252
  C       0.587329     -0.242663      0.211077
  H      -0.461705      0.857190     -1.305788
  H      -0.623864     -0.895030     -1.429531
  H       0.466942     -1.166126      0.789793
  H       0.647375      0.599337      0.910246
  H      -2.008355     -0.808556      0.546542
  H      -1.881120      0.799658      0.607668
  H       2.538284     -0.397790      0.006684
  O      -5.093445     -0.469354     -0.787030
  C      -4.475745     -0.162447     -1.721041
  O      -3.919416      0.137911     -2.695518
14
Coordinates from ORCA-job ./orca E -398.962792543458
  O       1.779864     -0.311007     -0.585410
  N      -1.903125      0.015802     -0.044188
  C      -0.601393     -0.058188     -0.727494
  C       0.582611     -0.242432      0.210316
  H      -0.464134      0.858621     -1.308341
  H      -0.627148     -0.893248     -1.434103
  H       0.460185     -1.165791      0.788904
  H       0.641844      0.599154      0.910154
  H      -2.006551     -0.808975      0.542744
  H      -1.879969      0.798767      0.604015
  H       2.534717     -0.398946      0.010605
  O      -5.078306     -0.468593     -0.778391
  C      -4.473765     -0.163938     -1.720236
  O      -3.911811      0.137461     -2.689255
14
Coordinates from ORCA-job ./orca E -398.962854229262
  O       1.780379     -0.310948     -0.584123
  N      -1.901299      0.015248     -0.043677
  C      -0.603607     -0.058419     -0.730160
  C       0.580518     -0.242408      0.208569
  H      -0.465128      0.858444     -1.311003
  H      -0.629765     -0.892359     -1.438407
  H       0.456898     -1.165593      0.787260
  H       0.638405      0.598961      0.908756
  H      -2.010519     -0.810561      0.541394
  H      -1.883759      0.799826      0.603728
  H       2.533953     -0.398774      0.013515
  O      -5.067220     -0.467451     -0.771934
  C      -4.471944     -0.164064     -1.719764
  O      -3.903894      0.136783     -2.684833
14
Coordinates from ORCA-job ./orca E -398.962866887752
  O       1.781188     -0.310335     -0.584503
  N      -1.900626      0.014733     -0.041722
  C      -0.604347     -0.059300     -0.730461
  C       0.580804     -0.242563      0.207547
  H      -0.465422      0.857308     -1.311634
  H      -0.631308     -0.892705     -1.439296
  H       0.457622     -1.165714      0.786402
  H       0.637828      0.598974      0.907546
  H      -2.015315     -0.811812      0.541208
  H      -1.887769      0.800447      0.604539
  H       2.534550     -0.397347      0.013490
  O      -5.064344     -0.465546     -0.770436
  C      -4.470133     -0.163773     -1.719638
  O      -3.899710      0.136316     -2.683722
14
Coordinates from ORCA-job ./orca E -398.962881587286
  O       1.781795     -0.309171     -0.586075
  N      -1.899669      0.014027     -0.038615
  C      -0.604916     -0.060845     -0.729398
  C       0.582077     -0.242800      0.206822
  H      -0.466067      0.855318     -1.311291
  H      -0.633505     -0.894096     -1.438233
  H       0.460552     -1.165943      0.786041
  H       0.638315      0.599231      0.906246
  H      -2.021871     -0.813635      0.540651
  H      -1.892782      0.800995      0.605877
  H       2.535676     -0.394695      0.011453
  O      -5.063797     -0.462704     -0.770971
  C      -4.467346     -0.162571     -1.719532
  O      -3.895446      0.135575     -2.683655
14
Coordinates from ORCA-job ./orca E -398.962885942566
  O       1.781723     -0.308197     -0.587667
  N      -1.899130      0.013613     -0.036838
  C      -0.605110     -0.061870     -0.727790
  C       0.583243     -0.242887      0.206940
  H      -0.466851      0.853957     -1.310390
  H      -0.634908     -0.895538     -1.436032
  H       0.463405     -1.166068      0.786444
  H       0.639353      0.599493      0.905967
  H      -2.025624     -0.814890      0.539762
  H      -1.895189      0.800985      0.606705
  H       2.536514     -0.392785      0.008850
  O      -5.065162     -0.460489     -0.772622
  C      -4.465616     -0.161700     -1.719706
  O      -3.893631      0.135064     -2.684303
14
Coordinates from ORCA-job ./orca E -398.962890574268
  O       1.781413     -0.307645     -0.588694
  N      -1.899091      0.013485     -0.036319
  C      -0.605144     -0.062256     -0.726579
  C       0.583900     -0.242792      0.207334
  H      -0.467440      0.853314     -1.309761
  H      -0.635440     -0.896459     -1.434189
  H       0.465137     -1.165980      0.787038
  H       0.640283      0.599723      0.906201
  H      -2.027192     -0.815588      0.538845
  H      -1.895804      0.800636      0.607242
  H       2.536945     -0.391996      0.006928
  O      -5.066387     -0.459306     -0.773874
  C      -4.465088     -0.161134     -1.720006
  O      -3.893074      0.134685     -2.684847
14
Coordinates from ORCA-job ./orca E -398.961056873285
  O       1.784808     -0.307475     -0.590112
  N      -1.930756      0.013542     -0.048894
  C      -0.601412     -0.061979     -0.730558
  C       0.586450     -0.243333      0.204702
  H      -0.461838      0.853615     -1.313283
  H      -0.621375     -0.898456     -1.437968
  H       0.467549     -1.167632      0.782609
  H       0.641931      0.598203      0.904822
  H      -2.040945     -0.825609      0.545581
  H      -1.911745      0.815270      0.613998
  H       2.539682     -0.392672      0.006224
  O      -5.074890     -0.458958     -0.771738
  C      -4.436371     -0.160407     -1.699760
  O      -3.888070      0.134579     -2.686303
14
Coordinates from ORCA-job ./orca E -398.962209757797
  O       1.773162     -0.308516     -0.586270
  N      -1.918682      0.013710     -0.056053
  C      -0.606931     -0.059460     -0.732719
  C       0.574939     -0.242626      0.207429
  H      -0.468791      0.857381     -1.312887
  H      -0.628636     -0.894827     -1.438960
  H       0.453167     -1.166714      0.784853
  H       0.631046      0.598830      0.907574
  H      -2.022723     -0.812339      0.529970
  H      -1.896242      0.795930      0.595179
  H       2.526944     -0.395234      0.011210
  O      -5.050597     -0.460846     -0.759606
  C      -4.432009     -0.160106     -1.695169
  O      -3.881628      0.133502     -2.675232
14
Coordinates from ORCA-job ./orca E -398.962349068803
  O       1.771039     -0.308911     -0.583967
  N      -1.914680      0.013362     -0.058397
  C      -0.609999     -0.058695     -0.735973
  C       0.570264     -0.242420      0.206649
  H      -0.471184      0.858759     -1.315466
  H      -0.631908     -0.893113     -1.443495
  H       0.446464     -1.166393      0.783956
  H       0.625489      0.598633      0.907452
  H      -2.020812     -0.812745      0.526142
  H      -1.894905      0.795052      0.591521
  H       2.523429     -0.396253      0.015249
  O      -5.035878     -0.460130     -0.751111
  C      -4.430075     -0.161511     -1.694225
  O      -3.874226      0.133050     -2.669015
14
Coordinates from ORCA-job ./orca E -398.962410615538
  O       1.771625     -0.308896     -0.582542
  N      -1.912806      0.012832     -0.058043
  C      -0.612186     -0.058899     -0.738711
  C       0.568159     -0.242414      0.204884
  H      -0.472099      0.858620     -1.318192
  H      -0.634474     -0.892193     -1.447890
  H       0.443090     -1.166204      0.782293
  H       0.621984      0.598423      0.906036
  H      -2.024704     -0.814292      0.524608
  H      -1.898575      0.796066      0.591110
  H       2.522661     -0.396036      0.018394
  O      -5.024945     -0.459024     -0.744579
  C      -4.428381     -0.161678     -1.693632
  O      -3.866333      0.132382     -2.664417
14
Coordinates from ORCA-job ./orca E -398.962423348789
  O       1.772470     -0.308372     -0.582856
  N      -1.912183      0.012368     -0.056234
  C      -0.612847     -0.059710     -0.739031
  C       0.568476     -0.242574      0.203889
  H      -0.472255      0.857562     -1.318814
  H      -0.635876     -0.892459     -1.448822
  H       0.443771     -1.166322      0.781461
  H       0.621476      0.598434      0.904844
  H      -2.029469     -0.815483      0.524277
  H      -1.902553      0.796672      0.591842
  H       2.523262     -0.394678      0.018475
  O      -5.022294     -0.457254     -0.743099
  C      -4.426753     -0.161419     -1.693444
  O      -3.862207      0.131921     -2.663166
14
Coordinates from ORCA-job ./orca E -398.962437772937
  O       1.773137     -0.307338     -0.584336
  N      -1.911267      0.011744     -0.053324
  C      -0.613304     -0.061140     -0.738017
  C       0.569783     -0.242824      0.203197
  H      -0.472688      0.855707     -1.318456
  H      -0.637868     -0.893691     -1.447879
  H       0.446595     -1.166563      0.781110
  H       0.622053      0.598663      0.903587
  H      -2.036077     -0.817230      0.523471
  H      -1.907613      0.797236      0.593053
  H       2.524403     -0.392149      0.016586
  O      -5.022020     -0.454559     -0.743595
  C      -4.424187     -0.160344     -1.693245
  O      -3.857930      0.131171     -2.662831
14
Coordinates from ORCA-job ./orca E -398.962442211183
  O       1.773118     -0.306451     -0.585880
  N      -1.910694      0.011398     -0.051647
  C      -0.613424     -0.062096     -0.736438
  C       0.570983     -0.242926      0.203339
  H      -0.473321      0.854436     -1.317536
  H      -0.639170     -0.895021     -1.445766
  H       0.449395     -1.166703      0.781526
  H       0.623162      0.598897      0.903343
  H      -2.039972     -0.818455      0.522349
  H      -1.910134      0.797277      0.593793
  H       2.525284     -0.390313      0.014055
  O      -5.023594     -0.452449     -0.745229
  C      -4.422555     -0.159524     -1.693312
  O      -3.856058      0.130615     -2.663278
14
Coordinates from ORCA-job ./orca E -398.962446957384
  O       1.772851     -0.305927     -0.586871
  N      -1.910598      0.011325     -0.051203
  C      -0.613407     -0.062445     -0.735238
  C       0.571664     -0.242852      0.203762
  H      -0.473822      0.853848     -1.316886
  H      -0.639655     -0.895886     -1.443959
  H       0.451111     -1.166649      0.782121
  H       0.624127      0.599079      0.903640
  H      -2.041631     -0.819133      0.521245
  H      -1.910796      0.796979      0.594244
  H       2.525764     -0.389536      0.012171
  O      -5.025009     -0.451290     -0.746475
  C      -4.422070     -0.159015     -1.693524
  O      -3.855511      0.130188     -2.663706
14
Coordinates from ORCA-job ./orca E -398.960835016244
  O       1.770704     -0.305095     -0.587733
  N      -1.933476      0.011278     -0.061841
  C      -0.615089     -0.061598     -0.741597
  C       0.567644     -0.243121      0.200141
  H      -0.470966      0.854588     -1.322898
  H      -0.623237     -0.899665     -1.448453
  H       0.446119     -1.168079      0.776444
  H       0.618282      0.597667      0.901530
  H      -2.047335     -0.829010      0.528097
  H      -1.917865      0.809561      0.601604
  H       2.522189     -0.389640      0.012972
  O      -5.027690     -0.450800     -0.745361
  C      -4.385151     -0.156444     -1.670671
  O      -3.851112      0.129045     -2.662915
14
Coordinates from ORCA-job ./orca E -398.961768209216
  O       1.762633     -0.306767     -0.584235
  N      -1.927530      0.011597     -0.068639
  C      -0.619214     -0.059275     -0.743450
  C       0.559397     -0.242377      0.202445
  H      -0.476592      0.857978     -1.322200
  H      -0.631643     -0.894832     -1.450131
  H       0.434950     -1.167083      0.778368
  H       0.611123      0.598338      0.903913
  H      -2.035808     -0.816305      0.513905
  H      -1.909345      0.792570      0.584210
  H       2.513098     -0.393320      0.017437
  O      -5.001549     -0.453118     -0.729541
  C      -4.384786     -0.158075     -1.668725
  O      -3.841715      0.129356     -2.654038
14
Coordinates from ORCA-job ./orca E -398.961869369019
  O       1.761269     -0.307255     -0.583118
  N      -1.926190      0.011334     -0.070400
  C      -0.621120     -0.058806     -0.745158
  C       0.556695     -0.242190      0.202039
  H      -0.478676      0.859109     -1.323119
  H      -0.636344     -0.892715     -1.453526
  H       0.430923     -1.166769      0.777976
  H       0.608293      0.598275      0.903826
  H      -2.036768     -0.816439      0.510865
  H      -1.910772      0.792043      0.580940
  H       2.511068     -0.394552      0.019325
  O      -4.987620     -0.452091     -0.722063
  C      -4.384109     -0.160328     -1.669256
  O      -3.833631      0.129071     -2.649013
14
Coordinates from ORCA-job ./orca E -398.961902774620
  O       1.761654     -0.307404     -0.583220
  N      -1.925489      0.011068     -0.069449
  C      -0.622133     -0.059384     -0.745782
  C       0.556186     -0.242104      0.201082
  H      -0.479851      0.858527     -1.324066
  H      -0.640461     -0.892269     -1.455452
  H       0.430203     -1.166291      0.777658
  H       0.607413      0.598599      0.902531
  H      -2.041265     -0.817657      0.510015
  H      -1.914781      0.793131      0.581184
  H       2.511183     -0.394440      0.019596
  O      -4.979956     -0.452939     -0.719431
  C      -4.382922     -0.158534     -1.669272
  O      -3.826762      0.128384     -2.646074
14
Coordinates from ORCA-job ./orca E -398.961916657496
  O       1.762458     -0.306383     -0.584201
  N      -1.924615      0.010505     -0.067166
  C      -0.622694     -0.060307     -0.745325
  C       0.556781     -0.242463      0.200127
  H      -0.481062      0.857702     -1.323800
  H      -0.643942     -0.892026     -1.456390
  H       0.431789     -1.166804      0.776702
  H       0.607294      0.598126      0.901687
  H      -2.047013     -0.818974      0.509992
  H      -1.919540      0.794213      0.581951
  H       2.512124     -0.392895      0.018501
  O      -4.977759     -0.448277     -0.718449
  C      -4.379909     -0.161520     -1.670012
  O      -3.820895      0.127789     -2.644297
14
Coordinates from ORCA-job ./orca E -398.961926457368
  O       1.762808     -0.305686     -0.585782
  N      -1.923529      0.010324     -0.064418
  C      -0.623007     -0.061452     -0.744076
  C       0.557868     -0.242593      0.199612
  H      -0.482074      0.856055     -1.323582
  H      -0.646806     -0.893131     -1.455073
  H       0.434382     -1.166750      0.776809
  H       0.608099      0.598502      0.900562
  H      -2.052041     -0.820034      0.509610
  H      -1.923241      0.794713      0.583445
  H       2.513057     -0.391248      0.016310
  O      -4.978358     -0.448069     -0.720464
  C      -4.377459     -0.158947     -1.669644
  O      -3.816680      0.127001     -2.643988
14
Coordinates from ORCA-job ./orca E -398.961937782646
  O       1.762596     -0.304882     -0.587410
  N      -1.922829      0.010351     -0.062531
  C      -0.623216     -0.062084     -0.742498
  C       0.558908     -0.242681      0.199696
  H      -0.482892      0.854951     -1.322894
  H      -0.647927     -0.894338     -1.452714
  H       0.437021     -1.166908      0.777095
  H       0.609212      0.598671      0.900382
  H      -2.055065     -0.820749      0.508847
  H      -1.925015      0.794795      0.584593
  H       2.513684     -0.389969      0.013704
  O      -4.981180     -0.446816     -0.722934
  C      -4.375616     -0.158140     -1.669584
  O      -3.814662      0.126488     -2.644433
14
Coordinates from ORCA-job ./orca E -398.961941812567
  O       1.762281     -0.304593     -0.588153
  N      -1.922858      0.010543     -0.062123
  C      -0.623403     -0.062055     -0.741761
  C       0.559258     -0.242588      0.199916
  H      -0.483175      0.854724     -1.322583
  H      -0.647878     -0.894809     -1.451407
  H       0.437955     -1.166883      0.777308
  H       0.609877      0.598763      0.900611
  H      -2.056114     -0.821054      0.508097
  H      -1.925341      0.794719      0.585138
  H       2.513832     -0.389857      0.012361
  O      -4.982298     -0.446268     -0.723839
  C      -4.375259     -0.158137     -1.669746
  O      -3.813859      0.126182     -2.644499
14
Coordinates from ORCA-job ./orca E -398.960269661120
  O       1.760162     -0.303743     -0.589044
  N      -1.945699      0.010453     -0.072718
  C      -0.625050     -0.061226     -0.748109
  C       0.555284     -0.242847      0.196282
  H      -0.480309      0.855456     -1.328604
  H      -0.631514     -0.898642     -1.455978
  H       0.433042     -1.168297      0.771627
  H       0.604074      0.597370      0.898472
  H      -2.061985     -0.831060      0.515025
  H      -1.932585      0.807346      0.592598
  H       2.510294     -0.389925      0.013116
  O      -4.984965     -0.445679     -0.722856
  C      -4.338277     -0.155503     -1.646889
  O      -3.809455      0.124982     -2.643602
14
Coordinates from ORCA-job ./orca E -398.961188408294
  O       1.752089     -0.305467     -0.585653
  N      -1.939603      0.010638     -0.079171
  C      -0.629255     -0.058992     -0.749987
  C       0.547085     -0.242108      0.198499
  H      -0.485917      0.858717     -1.327909
  H      -0.639815     -0.893928     -1.457497
  H       0.421926     -1.167210      0.773606
  H       0.596963      0.598183      0.900600
  H      -2.050378     -0.818493      0.501108
  H      -1.923848      0.790259      0.575396
  H       2.501213     -0.393343      0.017498
  O      -4.959550     -0.447998     -0.707429
  C      -4.337684     -0.156866     -1.644780
  O      -3.800208      0.125295     -2.634960
14
Coordinates from ORCA-job ./orca E -398.961288504780
  O       1.750742     -0.305990     -0.584523
  N      -1.938206      0.010351     -0.080854
  C      -0.631242     -0.058517     -0.751747
  C       0.544374     -0.241955      0.198042
  H      -0.487955      0.859877     -1.328792
  H      -0.644396     -0.891823     -1.460897
  H       0.417829     -1.166924      0.773153
  H       0.594088      0.598103      0.900446
  H      -2.051215     -0.818634      0.498113
  H      -1.925113      0.789749      0.572119
  H       2.499172     -0.394441      0.019457
  O      -4.946003     -0.446823     -0.700030
  C      -4.336928     -0.159322     -1.645248
  O      -3.792128      0.125037     -2.629921
14
Coordinates from ORCA-job ./orca E -398.961322209955
  O       1.751109     -0.306333     -0.584565
  N      -1.937495      0.010133     -0.079940
  C      -0.632370     -0.059045     -0.752479
  C       0.543788     -0.241865      0.197029
  H      -0.489070      0.859362     -1.329787
  H      -0.648512     -0.891347     -1.462921
  H       0.416867     -1.166385      0.772842
  H       0.593162      0.598488      0.899026
  H      -2.055665     -0.819847      0.497159
  H      -1.929061      0.790898      0.572319
  H       2.499218     -0.394355      0.019874
  O      -4.938166     -0.448105     -0.697352
  C      -4.335832     -0.157280     -1.645166
  O      -3.784954      0.124368     -2.626718
14
Coordinates from ORCA-job ./orca E -398.961335843083
  O       1.751896     -0.305485     -0.585520
  N      -1.936726      0.009632     -0.077734
  C      -0.632956     -0.059877     -0.752061
  C       0.544371     -0.242252      0.196073
  H      -0.490132      0.858669     -1.329453
  H      -0.651741     -0.891039     -1.463899
  H       0.418301     -1.166917      0.771873
  H       0.593098      0.597992      0.898168
  H      -2.061230     -0.821062      0.497177
  H      -1.933652      0.792048      0.573041
  H       2.500135     -0.392828      0.018835
  O      -4.936294     -0.443572     -0.696491
  C      -4.332956     -0.160485     -1.645894
  O      -3.779098      0.123862     -2.624794
14
Coordinates from ORCA-job ./orca E -398.961345507298
  O       1.752201     -0.304951     -0.587066
  N      -1.935746      0.009509     -0.075124
  C      -0.633242     -0.060910     -0.750842
  C       0.545435     -0.242419      0.195598
  H      -0.491001      0.857192     -1.329139
  H      -0.654316     -0.892029     -1.462633
  H       0.420736     -1.166909      0.771980
  H       0.593973      0.598310      0.897107
  H      -2.065962     -0.821980      0.496852
  H      -1.937095      0.792559      0.574448
  H       2.501032     -0.391207      0.016694
  O      -4.937320     -0.443329     -0.698600
  C      -4.330638     -0.158339     -1.645571
  O      -3.775039      0.123189     -2.624383
14
Coordinates from ORCA-job ./orca E -398.961357808753
  O       1.751941     -0.304208     -0.588991
  N      -1.934909      0.009554     -0.072856
  C      -0.633517     -0.061664     -0.749044
  C       0.546610     -0.242548      0.195649
  H      -0.491976      0.855907     -1.328356
  H      -0.655872     -0.893349     -1.460051
  H       0.423680     -1.167049      0.772367
  H       0.595319      0.598530      0.896776
  H      -2.069697     -0.822785      0.496009
  H      -1.939350      0.792735      0.575805
  H       2.501771     -0.389646      0.013642
  O      -4.940355     -0.442186     -0.701519
  C      -4.328448     -0.157224     -1.645479
  O      -3.772181      0.122621     -2.624633
14
Coordinates from ORCA-job ./orca E -398.961360611228
  O       1.751630     -0.303999     -0.589694
  N      -1.934950      0.009732     -0.072475
  C      -0.633712     -0.061638     -0.748369
  C       0.546905     -0.242467      0.195850
  H      -0.492279      0.855696     -1.328083
  H      -0.655908     -0.893767     -1.458870
  H       0.424490     -1.167010      0.772592
  H       0.595953      0.598612      0.896979
  H      -2.070697     -0.823064      0.495329
  H      -1.939663      0.792670      0.576325
  H       2.501914     -0.389499      0.012370
  O      -4.941270     -0.441730     -0.702353
  C      -4.328114     -0.157197     -1.645653
  O      -3.771282      0.122348     -2.624629
14
Coordinates from ORCA-job ./orca E -398.959733087152
  O       1.746844     -0.304457     -0.591367
  N      -1.952247      0.009212     -0.081507
  C      -0.638120     -0.061090     -0.753449
  C       0.541063     -0.242238      0.192503
  H      -0.491911      0.856061     -1.332988
  H      -0.654944     -0.895133     -1.461820
  H       0.417581     -1.166770      0.769035
  H       0.589466      0.598867      0.893647
  H      -2.070864     -0.833101      0.501446
  H      -1.942120      0.804330      0.586822
  H       2.496253     -0.390248      0.011747
  O      -4.936805     -0.443132     -0.704736
  C      -4.282771     -0.154930     -1.625486
  O      -3.768406      0.121317     -2.624527
14
Coordinates from ORCA-job ./orca E -398.960599084045
  O       1.741058     -0.304878     -0.588458
  N      -1.950230      0.010512     -0.086276
  C      -0.641219     -0.059190     -0.755532
  C       0.534549     -0.242275      0.193681
  H      -0.495423      0.858667     -1.333092
  H      -0.658106     -0.892453     -1.464700
  H       0.408979     -1.167340      0.768855
  H       0.582688      0.598031      0.895813
  H      -2.064844     -0.819951      0.491454
  H      -1.938711      0.789116      0.568940
  H       2.489290     -0.392333      0.015876
  O      -4.913988     -0.445579     -0.687842
  C      -4.285532     -0.156215     -1.622741
  O      -3.755493      0.122575     -2.616660
14
Coordinates from ORCA-job ./orca E -398.960695803372
  O       1.739847     -0.304709     -0.587593
  N      -1.949937      0.010819     -0.087667
  C      -0.642715     -0.058738     -0.757355
  C       0.532156     -0.242691      0.193078
  H      -0.497265      0.859738     -1.333982
  H      -0.659367     -0.890899     -1.467992
  H       0.405746     -1.168283      0.767270
  H       0.579700      0.596771      0.896290
  H      -2.066799     -0.818971      0.489348
  H      -1.940989      0.790084      0.565231
  H       2.487377     -0.393088      0.017513
  O      -4.902006     -0.444478     -0.680577
  C      -4.286022     -0.159040     -1.622597
  O      -3.746709      0.122172     -2.611649
14
Coordinates from ORCA-job ./orca E -398.960719068716
  O       1.740007     -0.304832     -0.587625
  N      -1.949470      0.011037     -0.087191
  C      -0.643502     -0.058899     -0.758135
  C       0.531580     -0.242812      0.192283
  H      -0.498592      0.859694     -1.334800
  H      -0.660662     -0.890452     -1.469529
  H       0.404869     -1.168401      0.766426
  H       0.578891      0.596485      0.895677
  H      -2.070697     -0.819381      0.488517
  H      -1.944194      0.792117      0.564735
  H       2.487216     -0.393525      0.017831
  O      -4.896185     -0.446214     -0.678508
  C      -4.285757     -0.157340     -1.621977
  O      -3.740486      0.121209     -2.608383
14
Coordinates from ORCA-job ./orca E -398.960730436492
  O       1.740559     -0.304297     -0.588307
  N      -1.948692      0.010957     -0.085806
  C      -0.643957     -0.059050     -0.757965
  C       0.531920     -0.243115      0.191572
  H      -0.499958      0.859880     -1.334410
  H      -0.661942     -0.889690     -1.470388
  H       0.405548     -1.169041      0.765249
  H       0.579061      0.595750      0.895450
  H      -2.075343     -0.819927      0.488228
  H      -1.947794      0.793866      0.564524
  H       2.487782     -0.393362      0.017062
  O      -4.895130     -0.443083     -0.677799
  C      -4.283665     -0.160707     -1.622226
  O      -3.735372      0.120507     -2.605863
14
Coordinates from ORCA-job ./orca E -398.960734024694
  O       1.740911     -0.304261     -0.589447
  N      -1.947666      0.011063     -0.084024
  C      -0.644125     -0.059318     -0.757062
  C       0.532805     -0.243047      0.191240
  H      -0.500887      0.859468     -1.333986
  H      -0.663310     -0.889828     -1.469568
  H       0.406979     -1.168836      0.765256
  H       0.580309      0.596077      0.894766
  H      -2.079548     -0.820465      0.487415
  H      -1.950700      0.794584      0.565094
  H       2.488516     -0.393326      0.015438
  O      -4.896618     -0.443458     -0.679475
  C      -4.281874     -0.159686     -1.621708
  O      -3.731773      0.119720     -2.604619
14
Coordinates from ORCA-job ./orca E -398.960747450439
  O       1.740906     -0.304281     -0.591083
  N      -1.946653      0.011347     -0.082238
  C      -0.644183     -0.059395     -0.755456
  C       0.534041     -0.242849      0.191302
  H      -0.501482      0.859048     -1.333110
  H      -0.664598     -0.890188     -1.467598
  H       0.409048     -1.168423      0.765833
  H       0.582324      0.596698      0.894286
  H      -2.083647     -0.821121      0.485780
  H      -1.953295      0.794796      0.566054
  H       2.489293     -0.393368      0.012822
  O      -4.900008     -0.443527     -0.682064
  C      -4.280009     -0.159054     -1.621254
  O      -3.728721      0.119003     -2.603953
14
Coordinates from ORCA-job ./orca E -398.960748300764
  O       1.740728     -0.304325     -0.591538
  N      -1.946673      0.011630     -0.082141
  C      -0.644185     -0.059216     -0.754954
  C       0.534328     -0.242751      0.191491
  H      -0.501303      0.859044     -1.332858
  H      -0.664660     -0.890243     -1.466849
  H       0.409533     -1.168276      0.766137
  H       0.582958      0.596861      0.894390
  H      -2.084510     -0.821312      0.484852
  H      -1.953649      0.794707      0.566468
  H       2.489429     -0.393530      0.011966
  O      -4.900881     -0.443431     -0.682584
  C      -4.279945     -0.159170     -1.621239
  O      -3.728154      0.118701     -2.603822
14
Coordinates from ORCA-job ./orca E -398.959077334118
  O       1.735964     -0.304768     -0.593293
  N      -1.963973      0.011032     -0.091139
  C      -0.648582     -0.058719     -0.759942
  C       0.528569     -0.242516      0.188149
  H      -0.500938      0.859366     -1.337701
  H      -0.663702     -0.891690     -1.469686
  H       0.402780     -1.168021      0.762612
  H       0.576583      0.597139      0.891040
  H      -2.084898     -0.831479      0.491056
  H      -1.956399      0.806462      0.577056
  H       2.483834     -0.394229      0.011203
  O      -4.896406     -0.444749     -0.685285
  C      -4.234554     -0.156756     -1.601104
  O      -3.725260      0.117616     -2.603648
14
Coordinates from ORCA-job ./orca E -398.959921150013
  O       1.730343     -0.305139     -0.590177
  N      -1.961560      0.012202     -0.095881
  C      -0.651445     -0.056938     -0.762174
  C       0.522136     -0.242635      0.189308
  H      -0.504209      0.861829     -1.337918
  H      -0.666890     -0.889077     -1.472728
  H       0.394266     -1.168608      0.762500
  H       0.569645      0.596297      0.893119
  H      -2.078455     -0.818455      0.480993
  H      -1.952547      0.790960      0.559155
  H       2.476925     -0.395844      0.015731
  O      -4.874700     -0.447084     -0.668558
  C      -4.237273     -0.157533     -1.597882
  O      -3.713218      0.118711     -2.596167
14
Coordinates from ORCA-job ./orca E -398.960013610805
  O       1.729449     -0.304799     -0.588953
  N      -1.961076      0.012350     -0.097549
  C      -0.652702     -0.056613     -0.764210
  C       0.519813     -0.243198      0.188677
  H      -0.505718      0.862822     -1.338910
  H      -0.668002     -0.887545     -1.476337
  H       0.391106     -1.169745      0.760803
  H       0.566335      0.594837      0.893662
  H      -2.080097     -0.817613      0.478669
  H      -1.954557      0.791765      0.555175
  H       2.475162     -0.396000      0.017991
  O      -4.863539     -0.445189     -0.660989
  C      -4.237946     -0.160526     -1.597435
  O      -3.705211      0.118141     -2.591274
14
Coordinates from ORCA-job ./orca E -398.960037052243
  O       1.729908     -0.304812     -0.588473
  N      -1.960481      0.012436     -0.097619
  C      -0.653266     -0.056920     -0.765372
  C       0.519179     -0.243448      0.187850
  H      -0.506641      0.862665     -1.340019
  H      -0.669068     -0.887166     -1.478355
  H       0.390076     -1.170033      0.759844
  H       0.565013      0.594380      0.893103
  H      -2.083788     -0.818167      0.477297
  H      -1.957649      0.793645      0.554178
  H       2.475066     -0.395863      0.019177
  O      -4.857628     -0.446678     -0.658172
  C      -4.238278     -0.158221     -1.596352
  O      -3.699424      0.116868     -2.587769
14
Coordinates from ORCA-job ./orca E -398.960047109603
  O       1.730787     -0.304125     -0.588614
  N      -1.959687      0.012150     -0.096911
  C      -0.653363     -0.057193     -0.765496
  C       0.519557     -0.243863      0.187218
  H      -0.507401      0.862772     -1.339794
  H      -0.669813     -0.886500     -1.479542
  H       0.390733     -1.170853      0.758621
  H       0.564790      0.593484      0.893043
  H      -2.087814     -0.818864      0.476564
  H      -1.960840      0.795018      0.553486
  H       2.475761     -0.395065      0.019265
  O      -4.857216     -0.442832     -0.656896
  C      -4.236869     -0.161383     -1.596248
  O      -3.695609      0.115940     -2.585376
14
Coordinates from ORCA-job ./orca E -398.960052824962
  O       1.731466     -0.303906     -0.589203
  N      -1.958620      0.011989     -0.095856
  C      -0.653161     -0.057550     -0.764909
  C       0.520466     -0.243906      0.186972
  H      -0.507771      0.862375     -1.339477
  H      -0.670541     -0.886629     -1.479156
  H       0.392108     -1.170868      0.758524
  H       0.565653      0.593604      0.892587
  H      -2.091550     -0.819622      0.475213
  H      -1.963530      0.795369      0.553462
  H       2.476618     -0.394432      0.018506
  O      -4.859207     -0.442007     -0.657756
  C      -4.235709     -0.160619     -1.595441
  O      -3.693204      0.114889     -2.584146
14
Coordinates from ORCA-job ./orca E -398.960064542280
  O       1.731961     -0.303658     -0.590278
  N      -1.957270      0.011865     -0.094809
  C      -0.652763     -0.057841     -0.763632
  C       0.521859     -0.243813      0.187109
  H      -0.507861      0.861839     -1.338761
  H      -0.671141     -0.887059     -1.477684
  H       0.394310     -1.170672      0.759004
  H       0.567339      0.594053      0.892291
  H      -2.096152     -0.820838      0.472348
  H      -1.966723      0.795222      0.553584
  H       2.477705     -0.393631      0.016784
  O      -4.862987     -0.440703     -0.659259
  C      -4.234517     -0.159477     -1.594299
  O      -3.690743      0.113399     -2.583079
14
Coordinates from ORCA-job ./orca E -398.960064957881
  O       1.731950     -0.303620     -0.590484
  N      -1.957214      0.011945     -0.095039
  C      -0.652598     -0.057721     -0.763282
  C       0.522167     -0.243714      0.187350
  H      -0.507511      0.861824     -1.338590
  H      -0.670826     -0.887142     -1.477134
  H       0.394768     -1.170541      0.759320
  H       0.567848      0.594198      0.892477
  H      -2.097015     -0.821284      0.471008
  H      -1.967218      0.794920      0.553701
  H       2.477925     -0.393565      0.016300
  O      -4.863849     -0.440093     -0.659284
  C      -4.234771     -0.159356     -1.594063
  O      -3.690639      0.112836     -2.582960
14
Coordinates from ORCA-job ./orca E -398.958265254589
  O       1.726864     -0.304031     -0.592452
  N      -1.974123      0.011324     -0.103353
  C      -0.657323     -0.057317     -0.768429
  C       0.516118     -0.243373      0.183827
  H      -0.507668      0.861968     -1.343809
  H      -0.670579     -0.888610     -1.480218
  H       0.387779     -1.170084      0.755775
  H       0.561173      0.594702      0.888800
  H      -2.096981     -0.833081      0.480276
  H      -1.969785      0.806826      0.565028
  H       2.472030     -0.394100      0.015308
  O      -4.858375     -0.441266     -0.662145
  C      -4.188352     -0.156638     -1.574255
  O      -3.687760      0.112367     -2.585033
14
Coordinates from ORCA-job ./orca E -398.959156392031
  O       1.721334     -0.304318     -0.589637
  N      -1.971831      0.011578     -0.107737
  C      -0.660112     -0.056213     -0.770158
  C       0.510079     -0.243533      0.185142
  H      -0.511115      0.863712     -1.343603
  H      -0.673470     -0.886908     -1.482442
  H       0.380170     -1.170404      0.756369
  H       0.554627      0.594279      0.890492
  H      -2.090942     -0.819161      0.467754
  H      -1.966031      0.789972      0.547792
  H       2.465544     -0.394454      0.019286
  O      -4.838237     -0.442618     -0.646496
  C      -4.191245     -0.156025     -1.570844
  O      -3.675754      0.112781     -2.576599
14
Coordinates from ORCA-job ./orca E -398.959245948113
  O       1.720541     -0.303709     -0.588616
  N      -1.971449      0.010860     -0.109328
  C      -0.661275     -0.056358     -0.771945
  C       0.508063     -0.244044      0.184606
  H      -0.512754      0.864219     -1.344400
  H      -0.674192     -0.886005     -1.485612
  H       0.377788     -1.171317      0.755133
  H       0.551525      0.593165      0.890792
  H      -2.093099     -0.819634      0.465029
  H      -1.968081      0.789859      0.543945
  H       2.464127     -0.393229      0.021201
  O      -4.828508     -0.438203     -0.639214
  C      -4.191896     -0.159005     -1.570606
  O      -3.667772      0.112088     -2.571667
14
Coordinates from ORCA-job ./orca E -398.959271127252
  O       1.721035     -0.303495     -0.588072
  N      -1.970883      0.009863     -0.109664
  C      -0.661896     -0.057374     -0.773227
  C       0.507428     -0.244165      0.183814
  H      -0.514033      0.863263     -1.345848
  H      -0.674902     -0.886590     -1.487486
  H       0.377143     -1.171205      0.754735
  H       0.549892      0.593230      0.889828
  H      -2.097331     -0.821849      0.462796
  H      -1.971361      0.790488      0.542837
  H       2.464182     -0.391348      0.022531
  O      -4.822327     -0.437977     -0.635809
  C      -4.192817     -0.154591     -1.569302
  O      -3.661113      0.110436     -2.567814
14
Coordinates from ORCA-job ./orca E -398.959274751204
  O       1.721991     -0.302583     -0.588237
  N      -1.970268      0.008631     -0.109090
  C      -0.661862     -0.058185     -0.773182
  C       0.508037     -0.244419      0.183361
  H      -0.514885      0.862732     -1.345670
  H      -0.675036     -0.886760     -1.488159
  H       0.378426     -1.171680      0.754079
  H       0.549756      0.592793      0.889600
  H      -2.100810     -0.823666      0.461933
  H      -1.974140      0.790478      0.542486
  H       2.465136     -0.389187      0.022534
  O      -4.823303     -0.432145     -0.634844
  C      -4.191747     -0.156888     -1.569298
  O      -3.658277      0.109566     -2.566192
14
Coordinates from ORCA-job ./orca E -398.959288530039
  O       1.722968     -0.301728     -0.588796
  N      -1.969163      0.006993     -0.108113
  C      -0.661545     -0.059423     -0.772525
  C       0.509236     -0.244370      0.183171
  H      -0.515699      0.861425     -1.345492
  H      -0.675124     -0.887892     -1.487567
  H       0.380702     -1.171534      0.754300
  H       0.550407      0.593212      0.888976
  H      -2.104766     -0.826092      0.460070
  H      -1.977231      0.789153      0.542611
  H       2.466428     -0.386334      0.021855
  O      -4.826520     -0.427216     -0.635402
  C      -4.190705     -0.155713     -1.568541
  O      -3.655971      0.108205     -2.565228
14
Coordinates from ORCA-job ./orca E -398.959302526807
  O       1.723925     -0.300642     -0.589650
  N      -1.967637      0.004451     -0.107248
  C      -0.661030     -0.061167     -0.771409
  C       0.510902     -0.244004      0.183303
  H      -0.516645      0.859322     -1.345402
  H      -0.674811     -0.890017     -1.485992
  H       0.383949     -1.170793      0.755400
  H       0.551528      0.594421      0.888126
  H      -2.109775     -0.830165      0.456121
  H      -1.981366      0.786307      0.542935
  H       2.468050     -0.382235      0.020594
  O      -4.830960     -0.420605     -0.636076
  C      -4.189962     -0.152222     -1.567144
  O      -3.653151      0.106036     -2.564238
14
Coordinates from ORCA-job ./orca E -398.959304331872
  O       1.724099     -0.300155     -0.589779
  N      -1.967434      0.003474     -0.107562
  C      -0.660777     -0.061665     -0.771078
  C       0.511372     -0.243742      0.183596
  H      -0.516633      0.858590     -1.345520
  H      -0.674093     -0.890899     -1.485255
  H       0.384938     -1.170384      0.756041
  H       0.551823      0.594965      0.888109
  H      -2.110794     -0.831939      0.454118
  H      -1.982371      0.784764      0.543100
  H       2.468508     -0.380838      0.020245
  O      -4.832218     -0.417737     -0.635766
  C      -4.190414     -0.150831     -1.566713
  O      -3.652986      0.105083     -2.564217
14
Coordinates from ORCA-job ./orca E -398.957544264616
  O       1.716738     -0.299716     -0.584118
  N      -1.979726      0.000398     -0.121615
  C      -0.666609     -0.061772     -0.786245
  C       0.497359     -0.242351      0.178758
  H      -0.510562      0.858285     -1.359527
  H      -0.668622     -0.894354     -1.496765
  H       0.366119     -1.168195      0.751433
  H       0.531656      0.597362      0.882427
  H      -2.100391     -0.848377      0.455947
  H      -1.973459      0.793757      0.550190
  H       2.455915     -0.379443      0.032417
  O      -4.820555     -0.420131     -0.621824
  C      -4.147601     -0.145929     -1.540674
  O      -3.647244      0.109152     -2.561084
14
Coordinates from ORCA-job ./orca E -398.958304585172
  O       1.715483     -0.298570     -0.584893
  N      -1.979058      0.000045     -0.120647
  C      -0.668103     -0.062773     -0.782645
  C       0.497778     -0.242562      0.180462
  H      -0.517639      0.857217     -1.355536
  H      -0.673747     -0.894351     -1.493921
  H       0.368566     -1.168667      0.753076
  H       0.532842      0.596986      0.884257
  H      -2.099905     -0.833819      0.449527
  H      -1.974326      0.775956      0.537393
  H       2.455897     -0.377637      0.030229
  O      -4.814484     -0.416028     -0.623188
  C      -4.147356     -0.145310     -1.539160
  O      -3.642931      0.108199     -2.555635
14
Coordinates from ORCA-job ./orca E -398.958370184552
  O       1.714940     -0.297563     -0.586477
  N      -1.979248     -0.001282     -0.119619
  C      -0.668743     -0.064096     -0.781335
  C       0.498284     -0.242677      0.180509
  H      -0.521571      0.856009     -1.354791
  H      -0.675675     -0.895280     -1.493066
  H       0.370678     -1.168847      0.753400
  H       0.533467      0.596987      0.884152
  H      -2.103872     -0.834968      0.449300
  H      -1.978268      0.775166      0.536704
  H       2.456250     -0.375667      0.027682
  O      -4.810417     -0.412060     -0.623371
  C      -4.146491     -0.144432     -1.539969
  O      -3.636316      0.107398     -2.553797
14
Coordinates from ORCA-job ./orca E -398.958471774689
  O       1.713924     -0.294925     -0.590488
  N      -1.979788     -0.005749     -0.116963
  C      -0.670431     -0.067633     -0.778364
  C       0.499428     -0.242490      0.180136
  H      -0.530604      0.852441     -1.353926
  H      -0.679564     -0.898496     -1.490528
  H       0.375731     -1.168477      0.754197
  H       0.534525      0.597802      0.883000
  H      -2.114869     -0.840624      0.448040
  H      -1.989503      0.773521      0.536467
  H       2.457350     -0.370236      0.021453
  O      -4.801084     -0.401078     -0.621600
  C      -4.144068     -0.141278     -1.542567
  O      -3.618028      0.105906     -2.549537
14
Coordinates from ORCA-job ./orca E -398.958486307368
  O       1.713923     -0.294044     -0.591302
  N      -1.979802     -0.008011     -0.116391
  C      -0.670933     -0.068800     -0.777847
  C       0.499695     -0.241925      0.179887
  H      -0.532233      0.850889     -1.354456
  H      -0.679651     -0.900154     -1.489507
  H       0.377048     -1.167535      0.754777
  H       0.534502      0.598933      0.882094
  H      -2.117949     -0.843841      0.446485
  H      -1.993051      0.771605      0.536718
  H       2.457748     -0.368232      0.020287
  O      -4.799600     -0.396640     -0.619847
  C      -4.143525     -0.139399     -1.543228
  O      -3.613152      0.105840     -2.548351
14
Coordinates from ORCA-job ./orca E -398.958486700619
  O       1.714254     -0.293196     -0.591311
  N      -1.979583     -0.010381     -0.116467
  C      -0.671122     -0.069835     -0.777895
  C       0.499913     -0.241170      0.179783
  H      -0.532362      0.849315     -1.355432
  H      -0.678547     -0.901935     -1.488746
  H       0.377979     -1.166298      0.755596
  H       0.534166      0.600385      0.881201
  H      -2.119369     -0.847323      0.444240
  H      -1.995185      0.768911      0.537053
  H       2.458115     -0.366302      0.020357
  O      -4.799983     -0.392117     -0.618154
  C      -4.143653     -0.137231     -1.543189
  O      -3.611605      0.105864     -2.547715
14
Coordinates from ORCA-job ./orca E -398.958488429267
  O       1.714783     -0.292056     -0.590940
  N      -1.979268     -0.012797     -0.116973
  C      -0.671024     -0.071008     -0.778103
  C       0.500240     -0.240502      0.179877
  H      -0.532109      0.847675     -1.356376
  H      -0.676929     -0.903785     -1.488204
  H       0.379076     -1.165262      0.756447
  H       0.533639      0.601665      0.880619
  H      -2.120021     -0.850773      0.441792
  H      -1.996567      0.765881      0.537177
  H       2.458582     -0.364016      0.020932
  O      -4.801216     -0.386898     -0.616735
  C      -4.144277     -0.134900     -1.542684
  O      -3.611892      0.105464     -2.547509
14
Coordinates from ORCA-job ./orca E -398.958499934203
  O       1.716334     -0.288777     -0.589663
  N      -1.978431     -0.018938     -0.118776
  C      -0.670307     -0.074169     -0.778686
  C       0.501238     -0.239034      0.180358
  H      -0.531565      0.843602     -1.358497
  H      -0.672464     -0.908340     -1.487199
  H       0.382150     -1.163084      0.758505
  H       0.532093      0.604468      0.879633
  H      -2.121116     -0.859298      0.435579
  H      -1.999521      0.758095      0.537040
  H       2.459933     -0.357833      0.022785
  O      -4.804770     -0.372693     -0.613268
  C      -4.146390     -0.128949     -1.540984
  O      -3.614165      0.103638     -2.547506
14
Coordinates from ORCA-job ./orca E -398.958502813453
  O       1.718857     -0.283519     -0.587367
  N      -1.977204     -0.027914     -0.122120
  C      -0.668598     -0.078899     -0.779619
  C       0.502835     -0.237228      0.181293
  H      -0.531134      0.838008     -1.361174
  H      -0.665616     -0.914561     -1.486377
  H       0.386850     -1.160583      0.761182
  H       0.529494      0.607836      0.878869
  H      -2.122213     -0.871336      0.426594
  H      -2.003419      0.746760      0.536047
  H       2.462060     -0.348484      0.026009
  O      -4.809930     -0.350653     -0.607897
  C      -4.150050     -0.120361     -1.538106
  O      -3.618913      0.099619     -2.548014
14
Coordinates from ORCA-job ./orca E -398.958513786331
  O       1.722300     -0.276770     -0.583820
  N      -1.975708     -0.038734     -0.127280
  C      -0.665592     -0.084458     -0.781061
  C       0.504800     -0.235427      0.182623
  H      -0.530917      0.832071     -1.363945
  H      -0.656816     -0.921153     -1.486521
  H       0.392359     -1.158379      0.763843
  H       0.525834      0.610958      0.878788
  H      -2.122674     -0.885294      0.415779
  H      -2.007697      0.733215      0.533603
  H       2.464719     -0.337254      0.030970
  O      -4.815741     -0.322557     -0.600457
  C      -4.155270     -0.110313     -1.534124
  O      -3.626578      0.092782     -2.549077
14
Coordinates from ORCA-job ./orca E -398.958523090405
  O       1.725772     -0.270891     -0.579629
  N      -1.974398     -0.047944     -0.133248
  C      -0.661848     -0.088636     -0.782927
  C       0.506366     -0.234220      0.183907
  H      -0.530717      0.828417     -1.365846
  H      -0.648415     -0.925271     -1.488339
  H       0.396311     -1.157274      0.765396
  H       0.522104      0.612670      0.879578
  H      -2.121657     -0.896558      0.406514
  H      -2.010907      0.721865      0.529829
  H       2.466974     -0.328406      0.036925
  O      -4.820073     -0.297171     -0.592454
  C      -4.160876     -0.102331     -1.530095
  O      -3.635617      0.084437     -2.550290
14
Coordinates from ORCA-job ./orca E -398.958529648878
  O       1.730378     -0.264082     -0.573255
  N      -1.972793     -0.058249     -0.142036
  C      -0.656483     -0.092383     -0.786099
  C       0.507760     -0.233256      0.185359
  H      -0.529848      0.826150     -1.367685
  H      -0.637686     -0.927928     -1.492628
  H       0.399415     -1.157079      0.765919
  H       0.516894      0.613280      0.881553
  H      -2.118522     -0.908507      0.395735
  H      -2.014214      0.709488      0.523257
  H       2.469321     -0.319446      0.046220
  O      -4.823879     -0.266752     -0.580658
  C      -4.168620     -0.094150     -1.524743
  O      -3.648704      0.071602     -2.551619
14
Coordinates from ORCA-job ./orca E -398.958539144464
  O       1.731396     -0.264714     -0.570938
  N      -1.972690     -0.058169     -0.144915
  C      -0.654766     -0.090729     -0.787677
  C       0.507325     -0.233530      0.185412
  H      -0.528594      0.829189     -1.367107
  H      -0.635600     -0.924809     -1.495927
  H       0.397138     -1.157879      0.764775
  H       0.516080      0.612202      0.882578
  H      -2.115380     -0.907439      0.395532
  H      -2.013595      0.709986      0.520124
  H       2.469089     -0.321916      0.049864
  O      -4.823287     -0.265525     -0.577079
  C      -4.171033     -0.095550     -1.523580
  O      -3.653066      0.067569     -2.551744
14
Coordinates from ORCA-job ./orca E -398.958538685947
  O       1.733620     -0.265564     -0.566054
  N      -1.972161     -0.059305     -0.151190
  C      -0.651746     -0.088001     -0.790990
  C       0.506530     -0.233673      0.185567
  H      -0.525475      0.834198     -1.366561
  H      -0.630223     -0.919661     -1.502054
  H       0.392924     -1.158749      0.763104
  H       0.514169      0.610882      0.884178
  H      -2.109155     -0.907376      0.392987
  H      -2.013813      0.709385      0.513601
  H       2.468679     -0.325621      0.057608
  O      -4.822289     -0.260506     -0.568562
  C      -4.176166     -0.097031     -1.520774
  O      -3.661876      0.059709     -2.551541
14
Coordinates from ORCA-job ./orca E -398.958546428829
  O       1.734659     -0.265798     -0.563874
  N      -1.971803     -0.060390     -0.154163
  C      -0.650661     -0.087150     -0.792450
  C       0.506313     -0.233568      0.185716
  H      -0.523412      0.835758     -1.366628
  H      -0.627061     -0.918071     -1.504359
  H       0.391351     -1.158779      0.762773
  H       0.513330      0.610727      0.884656
  H      -2.106587     -0.908334      0.390887
  H      -2.014932      0.708465      0.510452
  H       2.468568     -0.326535      0.061080
  O      -4.822092     -0.257404     -0.564377
  C      -4.178625     -0.097007     -1.519235
  O      -3.666033      0.056772     -2.551158
14
Coordinates from ORCA-job ./orca E -398.958549189885
  O       1.735481     -0.265924     -0.562203
  N      -1.971436     -0.061479     -0.156646
  C      -0.649910     -0.086771     -0.793510
  C       0.506311     -0.233509      0.185968
  H      -0.521168      0.836507     -1.366763
  H      -0.624051     -0.917293     -1.505858
  H       0.390411     -1.158771      0.762777
  H       0.512756      0.610702      0.885029
  H      -2.104770     -0.909373      0.388860
  H      -2.016604      0.707713      0.507452
  H       2.468585     -0.326684      0.063695
  O      -4.822144     -0.254949     -0.561014
  C      -4.180713     -0.096650     -1.517778
  O      -3.669730      0.055166     -2.550689
14
Coordinates from ORCA-job ./orca E -398.958543787775
  O       1.736728     -0.265235     -0.559985
  N      -1.970826     -0.063566     -0.159981
  C      -0.648560     -0.087022     -0.794729
  C       0.506570     -0.233507      0.186470
  H      -0.518806      0.836695     -1.367049
  H      -0.620016     -0.917084     -1.507549
  H       0.390121     -1.158972      0.762863
  H       0.511673      0.610534      0.885754
  H      -2.102967     -0.911406      0.385907
  H      -2.018870      0.706061      0.503389
  H       2.468953     -0.325476      0.067002
  O      -4.822544     -0.249857     -0.556731
  C      -4.183479     -0.095372     -1.515701
  O      -3.674958      0.052894     -2.550338
14
Coordinates from ORCA-job ./orca E -398.958547830799
  O       1.738002     -0.264407     -0.557834
  N      -1.970164     -0.065452     -0.163214
  C      -0.647046     -0.087525     -0.795821
  C       0.506935     -0.233763      0.187026
  H      -0.516548      0.836605     -1.367313
  H      -0.616286     -0.917147     -1.509088
  H       0.390155     -1.159578      0.762811
  H       0.510544      0.609953      0.886709
  H      -2.101621     -0.912813      0.383574
  H      -2.021125      0.705121      0.498794
  H       2.469474     -0.323846      0.070112
  O      -4.822858     -0.245723     -0.552791
  C      -4.186104     -0.094169     -1.513625
  O      -3.680341      0.051429     -2.550019
14
Coordinates from ORCA-job ./orca E -398.958547726857
  O       1.738593     -0.264988     -0.556783
  N      -1.969680     -0.065237     -0.164969
  C      -0.646093     -0.087719     -0.796242
  C       0.507267     -0.234537      0.187478
  H      -0.514326      0.836550     -1.367231
  H      -0.614629     -0.917138     -1.509741
  H       0.389950     -1.160612      0.762760
  H       0.510464      0.608882      0.887511
  H      -2.101412     -0.910959      0.384207
  H      -2.022931      0.707684      0.493989
  H       2.469878     -0.323477      0.071475
  O      -4.822529     -0.249412     -0.551258
  C      -4.187442     -0.094626     -1.512370
  O      -3.684093      0.054275     -2.549507
14
Coordinates from ORCA-job ./orca E -398.958553992153
  O       1.739857     -0.265986     -0.554611
  N      -1.968785     -0.065196     -0.168169
  C      -0.644175     -0.088170     -0.797234
  C       0.507669     -0.235551      0.188110
  H      -0.511631      0.836336     -1.367589
  H      -0.612059     -0.917334     -1.511023
  H       0.389396     -1.161819      0.762896
  H       0.510033      0.607609      0.888438
  H      -2.100801     -0.908323      0.384846
  H      -2.025237      0.711243      0.486319
  H       2.470536     -0.323099      0.074480
  O      -4.821655     -0.255328     -0.548190
  C      -4.189737     -0.095095     -1.510294
  O      -3.690393      0.059400     -2.548658
14
Coordinates from ORCA-job ./orca E -398.958546781843
  O       1.741634     -0.267051     -0.551635
  N      -1.967705     -0.065752     -0.172129
  C      -0.641780     -0.089021     -0.798795
  C       0.507970     -0.236187      0.188665
  H      -0.509266      0.835528     -1.369005
  H      -0.608966     -0.918288     -1.512451
  H       0.388553     -1.162254      0.763536
  H       0.509129      0.607152      0.888763
  H      -2.099855     -0.906385      0.384634
  H      -2.027168      0.713914      0.478259
  H       2.471212     -0.322694      0.078870
  O      -4.820434     -0.261581     -0.544124
  C      -4.192537     -0.094921     -1.507830
  O      -3.697768      0.066226     -2.547438
14
Coordinates from ORCA-job ./orca E -398.958549056912
  O       1.743757     -0.267665     -0.548091
  N      -1.966553     -0.067417     -0.176559
  C      -0.639248     -0.090576     -0.800855
  C       0.508161     -0.236090      0.189113
  H      -0.507293      0.833552     -1.371812
  H      -0.605186     -0.920591     -1.513585
  H       0.387738     -1.161426      0.764926
  H       0.507609      0.608087      0.888190
  H      -2.098705     -0.906376      0.382744
  H      -2.028494      0.714337      0.471150
  H       2.471781     -0.321723      0.084349
  O      -4.819222     -0.266276     -0.539356
  C      -4.195725     -0.093420     -1.505070
  O      -3.705603      0.074270     -2.545826
14
Coordinates from ORCA-job ./orca E -398.958556303788
  O       1.746201     -0.267205     -0.543980
  N      -1.965357     -0.070675     -0.181616
  C      -0.636611     -0.093173     -0.803376
  C       0.508331     -0.235196      0.189568
  H      -0.505477      0.829969     -1.376083
  H      -0.600288     -0.924666     -1.514262
  H       0.387371     -1.159356      0.767130
  H       0.505207      0.610464      0.886844
  H      -2.097447     -0.909061      0.378595
  H      -2.029305      0.711764      0.465151
  H       2.472290     -0.319423      0.090843
  O      -4.818326     -0.267707     -0.533750
  C      -4.199498     -0.090041     -1.501867
  O      -3.714072      0.082991     -2.543875
14
Coordinates from ORCA-job ./orca E -398.958551071865
  O       1.749702     -0.265165     -0.537906
  N      -1.963730     -0.076652     -0.189242
  C      -0.632957     -0.097829     -0.807148
  C       0.508598     -0.233366      0.190326
  H      -0.502688      0.823429     -1.383089
  H      -0.592328     -0.931960     -1.514683
  H       0.387541     -1.155693      0.770770
  H       0.500935      0.614744      0.884593
  H      -2.095745     -0.915206      0.370783
  H      -2.030033      0.705526      0.457709
  H       2.472934     -0.314638      0.100407
  O      -4.817505     -0.266085     -0.525322
  C      -4.205301     -0.083601     -1.496963
  O      -3.726404      0.095183     -2.540915
14
Coordinates from ORCA-job ./orca E -398.958559240942
  O       1.753637     -0.261510     -0.530754
  N      -1.961906     -0.084287     -0.198627
  C      -0.628705     -0.103863     -0.811496
  C       0.508997     -0.231267      0.191456
  H      -0.498696      0.815048     -1.391279
  H      -0.582240     -0.941137     -1.514923
  H       0.388456     -1.151727      0.774956
  H       0.495238      0.619506      0.882377
  H      -2.093982     -0.923255      0.360800
  H      -2.030970      0.697317      0.448816
  H       2.473694     -0.307766      0.111402
  O      -4.816821     -0.261600     -0.515112
  C      -4.212425     -0.075291     -1.490875
  O      -3.741262      0.108520     -2.537422
14
Coordinates from ORCA-job ./orca E -398.958552776829
  O       1.756055     -0.257814     -0.526124
  N      -1.960805     -0.089689     -0.205090
  C      -0.625907     -0.108163     -0.814164
  C       0.509379     -0.230114      0.192448
  H      -0.495483      0.809300     -1.396220
  H      -0.575203     -0.947309     -1.515050
  H       0.389885     -1.149844      0.777329
  H       0.490879      0.621952      0.881676
  H      -2.093200     -0.928947      0.353838
  H      -2.031727      0.691498      0.442665
  H       2.474319     -0.302254      0.118178
  O      -4.816650     -0.255981     -0.508105
  C      -4.217324     -0.069434     -1.486704
  O      -3.751200      0.115484     -2.535356
14
Coordinates from ORCA-job ./orca E -398.958560706993
  O       1.759554     -0.252132     -0.519036
  N      -1.959088     -0.096957     -0.215055
  C      -0.621567     -0.114226     -0.818210
  C       0.509848     -0.228985      0.193973
  H      -0.489962      0.801378     -1.403012
  H      -0.564899     -0.955744     -1.515756
  H       0.391876     -1.148129      0.780104
  H       0.484012      0.624377      0.881378
  H      -2.091989     -0.935867      0.344312
  H      -2.032848      0.684500      0.432114
  H       2.475170     -0.294394      0.128368
  O      -4.815909     -0.248654     -0.497330
  C      -4.224646     -0.061577     -1.480290
  O      -3.766533      0.125096     -2.532241
14
Coordinates from ORCA-job ./orca E -398.958555476795
  O       1.756507     -0.251167     -0.523829
  N      -1.960414     -0.089102     -0.209049
  C      -0.624271     -0.109568     -0.814804
  C       0.509763     -0.233022      0.193753
  H      -0.489494      0.808790     -1.394508
  H      -0.573583     -0.947197     -1.517362
  H       0.393330     -1.156352      0.773569
  H       0.485634      0.615407      0.887287
  H      -2.094972     -0.924587      0.354938
  H      -2.030746      0.696009      0.433927
  H       2.475248     -0.298910      0.119679
  O      -4.815909     -0.251990     -0.503862
  C      -4.220370     -0.070084     -1.484611
  O      -3.757708      0.110461     -2.535810
14
Coordinates from ORCA-job ./orca E -398.958567693126
  O       1.758507     -0.251846     -0.521106
  N      -1.959617     -0.094722     -0.212479
  C      -0.622625     -0.112403     -0.816726
  C       0.509942     -0.230013      0.193830
  H      -0.490729      0.804271     -1.399782
  H      -0.567898     -0.952532     -1.516096
  H       0.392627     -1.150428      0.778085
  H       0.485108      0.621866      0.883123
  H      -2.093270     -0.933293      0.347151
  H      -2.032708      0.687139      0.434218
  H       2.475327     -0.296151      0.124815
  O      -4.816435     -0.247373     -0.499807
  C      -4.222801     -0.064151     -1.482081
  O      -3.762409      0.118323     -2.533824
14
Coordinates from ORCA-job ./orca E -398.958559377501
  O       1.758625     -0.251764     -0.520930
  N      -1.959558     -0.094832     -0.212738
  C      -0.622466     -0.112256     -0.816819
  C       0.509951     -0.229909      0.193853
  H      -0.490651      0.804512     -1.399746
  H      -0.567553     -0.952317     -1.516264
  H       0.392588     -1.150329      0.778081
  H       0.485083      0.621968      0.883154
  H      -2.093255     -0.933551      0.346657
  H      -2.032877      0.686861      0.434134
  H       2.475340     -0.296521      0.125077
  O      -4.816491     -0.246714     -0.499399
  C      -4.222975     -0.064142     -1.481921
  O      -3.762743      0.117682     -2.533820
14
Coordinates from ORCA-job ./orca E -398.956875061326
  O       1.744710     -0.251189     -0.528668
  N      -1.972871     -0.094959     -0.212784
  C      -0.637027     -0.112263     -0.819631
  C       0.497524     -0.229371      0.188714
  H      -0.506663      0.804328     -1.403163
  H      -0.583383     -0.952541     -1.518916
  H       0.381569     -1.149635      0.773472
  H       0.473918      0.622714      0.877804
  H      -2.088353     -0.945992      0.362688
  H      -2.028631      0.698197      0.451279
  H       2.462783     -0.295599      0.115857
  O      -4.800861     -0.248042     -0.501002
  C      -4.164542     -0.064380     -1.469796
  O      -3.725154      0.117417     -2.536534
14
Coordinates from ORCA-job ./orca E -398.957519466852
  O       1.743361     -0.250936     -0.529909
  N      -1.973591     -0.094843     -0.208841
  C      -0.637718     -0.111638     -0.818100
  C       0.497273     -0.229463      0.189087
  H      -0.508299      0.805399     -1.401197
  H      -0.585196     -0.951634     -1.517847
  H       0.381780     -1.150161      0.773222
  H       0.474385      0.622188      0.878688
  H      -2.089467     -0.930998      0.359215
  H      -2.030479      0.683919      0.443660
  H       2.462155     -0.296200      0.113731
  O      -4.796712     -0.246570     -0.505329
  C      -4.164055     -0.065228     -1.467977
  O      -3.720419      0.114850     -2.529084
14
Coordinates from ORCA-job ./orca E -398.957580152810
  O       1.742362     -0.250606     -0.531931
  N      -1.974042     -0.094829     -0.205858
  C      -0.638726     -0.111391     -0.817553
  C       0.497147     -0.229654      0.188537
  H      -0.510305      0.805910     -1.400275
  H      -0.587226     -0.951021     -1.517690
  H       0.382436     -1.150663      0.772322
  H       0.475029      0.621619      0.878626
  H      -2.092835     -0.930942      0.360913
  H      -2.033989      0.684964      0.444652
  H       2.461912     -0.296312      0.110840
  O      -4.793582     -0.245530     -0.507490
  C      -4.162334     -0.065800     -1.468778
  O      -3.712828      0.112943     -2.526997
14
Coordinates from ORCA-job ./orca E -398.957631427385
  O       1.740298     -0.250207     -0.536656
  N      -1.974835     -0.094717     -0.199574
  C      -0.641707     -0.110755     -0.815525
  C       0.496962     -0.229942      0.187353
  H      -0.515737      0.807190     -1.397527
  H      -0.592804     -0.949683     -1.516517
  H       0.384011     -1.151436      0.770668
  H       0.476909      0.620656      0.878315
  H      -2.099634     -0.931752      0.364552
  H      -2.041261      0.687835      0.447128
  H       2.461721     -0.296890      0.103950
  O      -4.787669     -0.243874     -0.510864
  C      -4.157880     -0.066977     -1.471572
  O      -3.695356      0.109238     -2.524412
14
Coordinates from ORCA-job ./orca E -398.957637618087
  O       1.739207     -0.250362     -0.539402
  N      -1.975266     -0.094620     -0.196394
  C      -0.643662     -0.110335     -0.813746
  C       0.497065     -0.229952      0.186883
  H      -0.518840      0.807942     -1.395535
  H      -0.596008     -0.948978     -1.515224
  H       0.385051     -1.151517      0.770252
  H       0.478513      0.620534      0.878023
  H      -2.102703     -0.932208      0.366248
  H      -2.044788      0.688972      0.448651
  H       2.461807     -0.297498      0.099827
  O      -4.785479     -0.243445     -0.512468
  C      -4.155237     -0.067526     -1.473667
  O      -3.686641      0.107680     -2.524128
14
Coordinates from ORCA-job ./orca E -398.957636675136
  O       1.738530     -0.250717     -0.541081
  N      -1.975562     -0.094570     -0.194717
  C      -0.644840     -0.110065     -0.812380
  C       0.497286     -0.229845      0.186789
  H      -0.520361      0.808317     -1.394199
  H      -0.597561     -0.948595     -1.514122
  H       0.385769     -1.151305      0.770428
  H       0.479843      0.620787      0.877786
  H      -2.104010     -0.932493      0.367132
  H      -2.046451      0.689215      0.449858
  H       2.461920     -0.297987      0.097227
  O      -4.784986     -0.243429     -0.513717
  C      -4.153717     -0.067751     -1.475089
  O      -3.682841      0.107124     -2.524596
14
Coordinates from ORCA-job ./orca E -398.957637845361
  O       1.738112     -0.250977     -0.541988
  N      -1.975752     -0.094566     -0.193852
  C      -0.645393     -0.109935     -0.811618
  C       0.497451     -0.229754      0.186832
  H      -0.520924      0.808439     -1.393512
  H      -0.598112     -0.948414     -1.513474
  H       0.386179     -1.151108      0.770693
  H       0.480656      0.621021      0.877678
  H      -2.104479     -0.932648      0.367652
  H      -2.047075      0.689121      0.450742
  H       2.461978     -0.298206      0.095777
  O      -4.785088     -0.243396     -0.514729
  C      -4.152970     -0.067819     -1.475818
  O      -3.681565      0.106928     -2.525064
14
Coordinates from ORCA-job ./orca E -398.955895782960
  O       1.724354     -0.250419     -0.549451
  N      -1.988916     -0.094715     -0.194589
  C      -0.659674     -0.109970     -0.814765
  C       0.485022     -0.229224      0.181633
  H      -0.536512      0.808219     -1.397231
  H      -0.613483     -0.948678     -1.516421
  H       0.375014     -1.150413      0.765995
  H       0.469310      0.621770      0.872234
  H      -2.100091     -0.945355      0.383449
  H      -2.043324      0.700780      0.467579
  H       2.449397     -0.297288      0.087006
  O      -4.769461     -0.244631     -0.516410
  C      -4.094823     -0.068049     -1.462599
  O      -3.643796      0.106659     -2.527111
14
Coordinates from ORCA-job ./orca E -398.956571674548
  O       1.722829     -0.249822     -0.550427
  N      -1.989223     -0.095115     -0.190684
  C      -0.660314     -0.109863     -0.813499
  C       0.484640     -0.229293      0.182113
  H      -0.538050      0.808606     -1.395734
  H      -0.614975     -0.948518     -1.515263
  H       0.375234     -1.150831      0.765997
  H       0.469217      0.621390      0.873055
  H      -2.100673     -0.930582      0.379225
  H      -2.044412      0.685401      0.459690
  H       2.448509     -0.296767      0.085286
  O      -4.765506     -0.242317     -0.520674
  C      -4.094212     -0.068257     -1.460211
  O      -3.640045      0.104655     -2.519553
14
Coordinates from ORCA-job ./orca E -398.956625055587
  O       1.721948     -0.249023     -0.552237
  N      -1.989499     -0.095635     -0.187758
  C      -0.661280     -0.110196     -0.813135
  C       0.484543     -0.229497      0.181553
  H      -0.539985      0.808361     -1.395254
  H      -0.616709     -0.948705     -1.514983
  H       0.376159     -1.151330      0.765166
  H       0.469362      0.620853      0.872909
  H      -2.103884     -0.931337      0.380686
  H      -2.047478      0.685965      0.460805
  H       2.448314     -0.295612      0.082734
  O      -4.762889     -0.240195     -0.522901
  C      -4.092413     -0.068135     -1.460707
  O      -3.633172      0.103173     -2.517557
14
Coordinates from ORCA-job ./orca E -398.956660829267
  O       1.720212     -0.247606     -0.556405
  N      -1.989990     -0.096791     -0.181793
  C      -0.664032     -0.110860     -0.811433
  C       0.484480     -0.229764      0.180416
  H      -0.545169      0.807946     -1.393436
  H      -0.621449     -0.949164     -1.513461
  H       0.378422     -1.152015      0.763773
  H       0.470211      0.620077      0.872396
  H      -2.110150     -0.933710      0.383654
  H      -2.053652      0.687262      0.463405
  H       2.448277     -0.293422      0.076686
  O      -4.758449     -0.236033     -0.526423
  C      -4.087971     -0.067687     -1.462820
  O      -3.617720      0.100452     -2.515239
14
Coordinates from ORCA-job ./orca E -398.956671174870
  O       1.719094     -0.247082     -0.559293
  N      -1.990357     -0.097653     -0.178208
  C      -0.666095     -0.111231     -0.809618
  C       0.484644     -0.229720      0.179869
  H      -0.548773      0.807727     -1.391745
  H      -0.624634     -0.949502     -1.511784
  H       0.380124     -1.151998      0.763452
  H       0.471387      0.620129      0.871855
  H      -2.113546     -0.935340      0.385248
  H      -2.057319      0.687363      0.465309
  H       2.448422     -0.292346      0.072362
  O      -4.756609     -0.233598     -0.528496
  C      -4.084906     -0.067207     -1.464808
  O      -3.608415      0.099147     -2.514822
14
Coordinates from ORCA-job ./orca E -398.956672151949
  O       1.718222     -0.246860     -0.561492
  N      -1.990731     -0.098460     -0.175862
  C      -0.667595     -0.111559     -0.807902
  C       0.484941     -0.229537      0.179696
  H      -0.551176      0.807414     -1.390317
  H      -0.626548     -0.949867     -1.510150
  H       0.381614     -1.151678      0.763710
  H       0.472628      0.620562      0.871398
  H      -2.115434     -0.936661      0.386291
  H      -2.059595      0.686700      0.467060
  H       2.448608     -0.291591      0.068959
  O      -4.756189     -0.231657     -0.530347
  C      -4.082765     -0.066610     -1.466514
  O      -3.602963      0.098489     -2.515210
14
Coordinates from ORCA-job ./orca E -398.956674347877
  O       1.717700     -0.246738     -0.562662
  N      -1.990989     -0.099118     -0.174722
  C      -0.668306     -0.111846     -0.806936
  C       0.485157     -0.229337      0.179731
  H      -0.552257      0.807043     -1.389632
  H      -0.627161     -0.950219     -1.509158
  H       0.382523     -1.151308      0.764141
  H       0.473365      0.621032      0.871118
  H      -2.116056     -0.937612      0.386845
  H      -2.060498      0.685811      0.468339
  H       2.448707     -0.291035      0.067092
  O      -4.756465     -0.230232     -0.531682
  C      -4.081740     -0.066047     -1.467419
  O      -3.600962      0.098292     -2.515733
14
Coordinates from ORCA-job ./orca E -398.954942701605
  O       1.704123     -0.246173     -0.569855
  N      -2.003996     -0.099236     -0.176150
  C      -0.682295     -0.111851     -0.810421
  C       0.472743     -0.228804      0.174469
  H      -0.567398      0.806863     -1.393622
  H      -0.642063     -0.950440     -1.512438
  H       0.371219     -1.150619      0.759319
  H       0.461860      0.621772      0.865618
  H      -2.112255     -0.950649      0.402362
  H      -2.057214      0.697745      0.484892
  H       2.436128     -0.290127      0.058763
  O      -4.740846     -0.231340     -0.533469
  C      -4.023934     -0.066439     -1.453062
  O      -3.563055      0.097984     -2.517087
14
Coordinates from ORCA-job ./orca E -398.955643970052
  O       1.702225     -0.245595     -0.571101
  N      -2.004129     -0.099779     -0.171945
  C      -0.682911     -0.111679     -0.808877
  C       0.472362     -0.228806      0.175155
  H      -0.569141      0.807337     -1.391773
  H      -0.643620     -0.950152     -1.511012
  H       0.371576     -1.150960      0.759521
  H       0.462026      0.621497      0.866576
  H      -2.112438     -0.935616      0.397852
  H      -2.058354      0.681847      0.476933
  H       2.435100     -0.289758      0.056469
  O      -4.737193     -0.228663     -0.538263
  C      -4.022980     -0.066635     -1.450568
  O      -3.559503      0.095648     -2.509648
14
Coordinates from ORCA-job ./orca E -398.955695504892
  O       1.701256     -0.244622     -0.573129
  N      -2.004388     -0.100467     -0.168767
  C      -0.683897     -0.112006     -0.808313
  C       0.472347     -0.228988      0.174650
  H      -0.571262      0.807139     -1.391034
  H      -0.645399     -0.950280     -1.510584
  H       0.372768     -1.151505      0.758657
  H       0.462329      0.620912      0.866561
  H      -2.115542     -0.936684      0.399507
  H      -2.061588      0.682368      0.478246
  H       2.434971     -0.288552      0.053494
  O      -4.735079     -0.225827     -0.541077
  C      -4.020889     -0.066439     -1.451069
  O      -3.552609      0.093639     -2.507824
14
Coordinates from ORCA-job ./orca E -398.955732231934
  O       1.699328     -0.242691     -0.577774
  N      -2.004897     -0.102029     -0.162209
  C      -0.686732     -0.112697     -0.806153
  C       0.472456     -0.229250      0.173592
  H      -0.576883      0.806814     -1.388597
  H      -0.650246     -0.950621     -1.508758
  H       0.375687     -1.152385      0.757068
  H       0.463448      0.619929      0.866373
  H      -2.121576     -0.939574      0.402972
  H      -2.068105      0.683371      0.481242
  H       2.435051     -0.286123      0.046538
  O      -4.731801     -0.219800     -0.545913
  C      -4.015802     -0.065805     -1.453210
  O      -3.536909      0.089549     -2.505850
14
Coordinates from ORCA-job ./orca E -398.955735129577
  O       1.697522     -0.240782     -0.582268
  N      -2.005551     -0.103531     -0.156613
  C      -0.689631     -0.113397     -0.803267
  C       0.472801     -0.229495      0.172870
  H      -0.582149      0.806472     -1.385604
  H      -0.654791     -0.951020     -1.506321
  H       0.378976     -1.153245      0.755834
  H       0.464913      0.619061      0.866414
  H      -2.126296     -0.941931      0.406092
  H      -2.073388      0.683461      0.484121
  H       2.435306     -0.283717      0.039618
  O      -4.730281     -0.213741     -0.550219
  C      -4.011033     -0.064992     -1.455954
  O      -3.523380      0.085543     -2.505384
14
Coordinates from ORCA-job ./orca E -398.955743430232
  O       1.696374     -0.240263     -0.584874
  N      -2.005962     -0.104741     -0.153675
  C      -0.691408     -0.113711     -0.801296
  C       0.473067     -0.229236      0.172611
  H      -0.585165      0.806304     -1.383761
  H      -0.656994     -0.951257     -1.504566
  H       0.380784     -1.152914      0.755929
  H       0.466227      0.619515      0.865931
  H      -2.128000     -0.943761      0.407591
  H      -2.075953      0.682334      0.486471
  H       2.435361     -0.282895      0.035581
  O      -4.730214     -0.210235     -0.552819
  C      -4.008255     -0.064237     -1.457866
  O      -3.516844      0.083784     -2.505938
14
Coordinates from ORCA-job ./orca E -398.955752424271
  O       1.695145     -0.239670     -0.587515
  N      -2.006510     -0.106352     -0.150792
  C      -0.693148     -0.114180     -0.799253
  C       0.473386     -0.228813      0.172465
  H      -0.588074      0.805880     -1.381986
  H      -0.658711     -0.951676     -1.502688
  H       0.382742     -1.152286      0.756365
  H       0.467572      0.620314      0.865353
  H      -2.129072     -0.946009      0.409200
  H      -2.078087      0.680306      0.489467
  H       2.435391     -0.281878      0.031451
  O      -4.730739     -0.205806     -0.555979
  C      -4.005572     -0.063116     -1.459844
  O      -3.511305      0.081974     -2.506924
14
Coordinates from ORCA-job ./orca E -398.955755440749
  O       1.693445     -0.238468     -0.590940
  N      -2.007319     -0.108988     -0.146921
  C      -0.695364     -0.115091     -0.796743
  C       0.473740     -0.228175      0.172299
  H      -0.591965      0.804956     -1.379910
  H      -0.660620     -0.952554     -1.500295
  H       0.385449     -1.151373      0.756990
  H       0.468979      0.621438      0.864616
  H      -2.129901     -0.949536      0.411571
  H      -2.080357      0.676861      0.493997
  H       2.435351     -0.279941      0.026070
  O      -4.731812     -0.198477     -0.560655
  C      -4.002095     -0.061187     -1.462336
  O      -3.504513      0.079222     -2.508425
14
Coordinates from ORCA-job ./orca E -398.955761015443
  O       1.690260     -0.235322     -0.597046
  N      -2.008875     -0.114686     -0.139608
  C      -0.699367     -0.117318     -0.792578
  C       0.474162     -0.226979      0.171876
  H      -0.599542      0.802674     -1.376577
  H      -0.663932     -0.954778     -1.496176
  H       0.390589     -1.149794      0.757851
  H       0.470620      0.623346      0.863349
  H      -2.130646     -0.956921      0.416343
  H      -2.083646      0.669533      0.502918
  H       2.435116     -0.275141      0.016497
  O      -4.734031     -0.182308     -0.569760
  C      -3.995674     -0.056921     -1.466643
  O      -3.492017      0.073301     -2.511126
14
Coordinates from ORCA-job ./orca E -398.955769965207
  O       1.686472     -0.230098     -0.603945
  N      -2.010800     -0.122610     -0.130674
  C      -0.704090     -0.120743     -0.788320
  C       0.474274     -0.225609      0.171085
  H      -0.609370      0.799213     -1.373250
  H      -0.667905     -0.958271     -1.491783
  H       0.396920     -1.148263      0.758147
  H       0.471026      0.625175      0.862007
  H      -2.130482     -0.966868      0.422577
  H      -2.086334      0.659661      0.514051
  H       2.434580     -0.267607      0.005775
  O      -4.736735     -0.159145     -0.581002
  C      -3.987942     -0.050897     -1.471383
  O      -3.476594      0.064750     -2.513965
14
Coordinates from ORCA-job ./orca E -398.955780365202
  O       1.683047     -0.223342     -0.609780
  N      -2.012687     -0.131267     -0.122203
  C      -0.708453     -0.124742     -0.785309
  C       0.473819     -0.224459      0.169894
  H      -0.619627      0.795314     -1.370896
  H      -0.671853     -0.962353     -1.488509
  H       0.402920     -1.147445      0.757222
  H       0.469352      0.626148      0.861018
  H      -2.128693     -0.977399      0.429047
  H      -2.087287      0.649235      0.524844
  H       2.433718     -0.258525     -0.003065
  O      -4.739244     -0.132605     -0.591679
  C      -3.980720     -0.044270     -1.475351
  O      -3.461275      0.054397     -2.515913
14
Coordinates from ORCA-job ./orca E -398.955786047497
  O       1.681262     -0.217425     -0.612406
  N      -2.013926     -0.137440     -0.117265
  C      -0.710951     -0.127637     -0.784676
  C       0.472886     -0.223973      0.168641
  H      -0.626795      0.792751     -1.370251
  H      -0.674598     -0.965207     -1.487744
  H       0.406276     -1.147803      0.755122
  H       0.466119      0.625762      0.860799
  H      -2.125266     -0.984619      0.433546
  H      -2.086161      0.642026      0.531461
  H       2.432793     -0.251466     -0.006675
  O      -4.740854     -0.111806     -0.597825
  C      -3.976716     -0.039580     -1.477269
  O      -3.451049      0.045105     -2.516137
14
Coordinates from ORCA-job ./orca E -398.955792737753
  O       1.680689     -0.213338     -0.612806
  N      -2.014701     -0.140799     -0.115340
  C      -0.712031     -0.128866     -0.785381
  C       0.471818     -0.223963      0.167560
  H      -0.630901      0.792126     -1.370284
  H      -0.676356     -0.966093     -1.488751
  H       0.407248     -1.148877      0.752542
  H       0.462862      0.624609      0.861111
  H      -2.121054     -0.988299      0.436205
  H      -2.084375      0.638204      0.534387
  H       2.431932     -0.247691     -0.006735
  O      -4.741747     -0.098299     -0.600068
  C      -3.975407     -0.037290     -1.477929
  O      -3.444958      0.037262     -2.515192
14
Coordinates from ORCA-job ./orca E -398.955798412621
  O       1.680061     -0.210964     -0.613410
  N      -2.015497     -0.142789     -0.114095
  C      -0.713042     -0.128892     -0.785463
  C       0.471063     -0.223968      0.166835
  H      -0.633769      0.792872     -1.369377
  H      -0.677800     -0.965407     -1.489690
  H       0.407614     -1.149777      0.750508
  H       0.461212      0.623707      0.861475
  H      -2.117700     -0.990336      0.438333
  H      -2.083866      0.635891      0.536249
  H       2.431198     -0.246414     -0.007281
  O      -4.742178     -0.089182     -0.601516
  C      -3.974517     -0.036425     -1.478887
  O      -3.439758      0.030371     -2.514360
14
Coordinates from ORCA-job ./orca E -398.955797033551
  O       1.679653     -0.211035     -0.613862
  N      -2.016010     -0.142770     -0.114008
  C      -0.713517     -0.127788     -0.785083
  C       0.470858     -0.223989      0.166734
  H      -0.634281      0.794629     -1.368033
  H      -0.678178     -0.963480     -1.490374
  H       0.407204     -1.150194      0.749748
  H       0.461591      0.623316      0.861842
  H      -2.116095     -0.990061      0.439273
  H      -2.084565      0.635771      0.536508
  H       2.430864     -0.247938     -0.007915
  O      -4.742171     -0.087376     -0.601734
  C      -3.974489     -0.037216     -1.479640
  O      -3.437846      0.026818     -2.514137
14
Coordinates from ORCA-job ./orca E -398.955795500760
  O       1.678924     -0.211160     -0.614953
  N      -2.016495     -0.143038     -0.113249
  C      -0.714253     -0.126950     -0.784188
  C       0.470859     -0.223917      0.166766
  H      -0.635027      0.795989     -1.366368
  H      -0.678501     -0.961889     -1.490431
  H       0.407354     -1.150326      0.749468
  H       0.462522      0.623179      0.862150
  H      -2.115476     -0.990185      0.440478
  H      -2.085819      0.635353      0.537364
  H       2.430641     -0.249061     -0.009697
  O      -4.742076     -0.085422     -0.602874
  C      -3.973770     -0.037720     -1.480624
  O      -3.435865      0.023835     -2.514523
14
Coordinates from ORCA-job ./orca E -398.955799271995
  O       1.678548     -0.211552     -0.615490
  N      -2.016711     -0.142724     -0.112996
  C      -0.714552     -0.126047     -0.783686
  C       0.470908     -0.223995      0.166866
  H      -0.634993      0.797343     -1.365124
  H      -0.678450     -0.960327     -1.490738
  H       0.407165     -1.150619      0.749203
  H       0.463358      0.622803      0.862627
  H      -2.115104     -0.989623      0.441234
  H      -2.086785      0.635734      0.537464
  H       2.430560     -0.250358     -0.010657
  O      -4.741906     -0.085177     -0.603321
  C      -3.973537     -0.038548     -1.481101
  O      -3.435482      0.021778     -2.514962
14
Coordinates from ORCA-job ./orca E -398.954079540962
  O       1.669172     -0.211107     -0.613516
  N      -2.028254     -0.143074     -0.124444
  C      -0.722859     -0.125684     -0.796951
  C       0.456575     -0.222836      0.161198
  H      -0.640427      0.796931     -1.379227
  H      -0.669973     -0.966040     -1.496496
  H       0.389116     -1.148951      0.743939
  H       0.444639      0.624568      0.856174
  H      -2.107752     -1.005567      0.446537
  H      -2.079053      0.646722      0.547214
  H       2.417351     -0.249407     -0.003883
  O      -4.729005     -0.085266     -0.592447
  C      -3.926634     -0.038088     -1.456567
  O      -3.419877      0.026484     -2.512212
14
Coordinates from ORCA-job ./orca E -398.954871995112
  O       1.667217     -0.212426     -0.614654
  N      -2.027226     -0.143113     -0.121735
  C      -0.723632     -0.125104     -0.793354
  C       0.457118     -0.222185      0.163339
  H      -0.643750      0.797814     -1.374652
  H      -0.678071     -0.962969     -1.495339
  H       0.389696     -1.148051      0.746234
  H       0.448021      0.625555      0.857948
  H      -2.107159     -0.987929      0.439211
  H      -2.079921      0.630417      0.536495
  H       2.416869     -0.251888     -0.006957
  O      -4.723602     -0.087082     -0.596563
  C      -3.925297     -0.039562     -1.454410
  O      -3.417244      0.025207     -2.506242
14
Coordinates from ORCA-job ./orca E -398.954929242942
  O       1.666775     -0.212910     -0.616297
  N      -2.027087     -0.142754     -0.119582
  C      -0.723948     -0.124540     -0.792091
  C       0.457753     -0.222160      0.163289
  H      -0.644980      0.798803     -1.372891
  H      -0.682623     -0.960807     -1.496048
  H       0.390470     -1.148142      0.746100
  H       0.449992      0.625370      0.858074
  H      -2.110584     -0.987875      0.440149
  H      -2.084152      0.632208      0.536529
  H       2.417240     -0.253205     -0.009626
  O      -4.720507     -0.088232     -0.598824
  C      -3.923446     -0.040739     -1.454812
  O      -3.411886      0.023671     -2.504650
14
Coordinates from ORCA-job ./orca E -398.954984117522
  O       1.666027     -0.213298     -0.619996
  N      -2.026724     -0.141209     -0.114818
  C      -0.725023     -0.123038     -0.789139
  C       0.458922     -0.222853      0.162679
  H      -0.647555      0.801378     -1.368654
  H      -0.691653     -0.956246     -1.496990
  H       0.392357     -1.149585      0.744497
  H       0.453405      0.623562      0.858674
  H      -2.118225     -0.987189      0.442614
  H      -2.093663      0.637514      0.536207
  H       2.418123     -0.255508     -0.015451
  O      -4.714962     -0.090451     -0.601933
  C      -3.918963     -0.043595     -1.456207
  O      -3.399047      0.019204     -2.502165
14
Coordinates from ORCA-job ./orca E -398.954994485227
  O       1.665649     -0.213099     -0.621763
  N      -2.026402     -0.139648     -0.112566
  C      -0.725806     -0.121758     -0.787657
  C       0.459317     -0.223806      0.162178
  H      -0.648449      0.803405     -1.366086
  H      -0.695017     -0.953668     -1.497237
  H       0.393328     -1.151455      0.742605
  H       0.454652      0.621436      0.859609
  H      -2.121773     -0.985608      0.443955
  H      -2.098352      0.641019      0.535322
  H       2.418398     -0.256648     -0.018142
  O      -4.712917     -0.091446     -0.602470
  C      -3.916614     -0.045572     -1.457063
  O      -3.392996      0.015533     -2.501364
14
Coordinates from ORCA-job ./orca E -398.954996217965
  O       1.665340     -0.212889     -0.622956
  N      -2.026076     -0.137614     -0.111153
  C      -0.726502     -0.119947     -0.786597
  C       0.459534     -0.224972      0.161803
  H      -0.648454      0.806109     -1.363513
  H      -0.696246     -0.950857     -1.497518
  H       0.393864     -1.153866      0.740245
  H       0.455638      0.618765      0.861134
  H      -2.124035     -0.983206      0.445097
  H      -2.101803      0.644639      0.534007
  H       2.418471     -0.258161     -0.019961
  O      -4.711940     -0.092319     -0.602392
  C      -3.915044     -0.047927     -1.457697
  O      -3.389729      0.010932     -2.501180
14
Coordinates from ORCA-job ./orca E -398.954999088532
  O       1.665236     -0.213003     -0.623255
  N      -2.025904     -0.136138     -0.110925
  C      -0.726696     -0.118406     -0.786252
  C       0.459627     -0.225645      0.161787
  H      -0.647782      0.808355     -1.361880
  H      -0.695889     -0.948652     -1.497986
  H       0.393684     -1.155420      0.738759
  H       0.456366      0.617038      0.862429
  H      -2.124507     -0.981370      0.445597
  H      -2.103073      0.646831      0.533026
  H       2.418467     -0.259702     -0.020499
  O      -4.711883     -0.092940     -0.602182
  C      -3.914777     -0.049727     -1.457816
  O      -3.389852      0.007466     -2.501483
14
Coordinates from ORCA-job ./orca E -398.953511366054
  O       1.652232     -0.212425     -0.629819
  N      -2.038466     -0.135881     -0.114239
  C      -0.739853     -0.118070     -0.790709
  C       0.447318     -0.225119      0.156289
  H      -0.661553      0.808643     -1.366497
  H      -0.709590     -0.948375     -1.502399
  H       0.381974     -1.154853      0.733395
  H       0.444596      0.617621      0.856866
  H      -2.122488     -0.995435      0.460248
  H      -2.100931      0.659295      0.548989
  H       2.406000     -0.259004     -0.027726
  O      -4.696201     -0.093159     -0.604249
  C      -3.858211     -0.051445     -1.440086
  O      -3.351810      0.006894     -2.500744
14
Coordinates from ORCA-job ./orca E -398.954315497697
  O       1.650701     -0.213240     -0.629137
  N      -2.037283     -0.135743     -0.112045
  C      -0.739193     -0.117282     -0.790463
  C       0.446670     -0.224996      0.157527
  H      -0.661426      0.809818     -1.365373
  H      -0.709391     -0.947556     -1.501915
  H       0.380484     -1.154651      0.734510
  H       0.444506      0.617937      0.857775
  H      -2.120976     -0.978207      0.451564
  H      -2.100499      0.643195      0.538594
  H       2.404536     -0.260348     -0.027183
  O      -4.692249     -0.093901     -0.606416
  C      -3.858876     -0.052273     -1.435412
  O      -3.353988      0.005936     -2.492707
14
Coordinates from ORCA-job ./orca E -398.954370853371
  O       1.650806     -0.213651     -0.629242
  N      -2.036715     -0.135498     -0.111015
  C      -0.738878     -0.116642     -0.791221
  C       0.446685     -0.224983      0.157236
  H      -0.661402      0.810752     -1.365444
  H      -0.709392     -0.946683     -1.502769
  H       0.379943     -1.154698      0.734077
  H       0.444808      0.617795      0.857654
  H      -2.123134     -0.978896      0.450819
  H      -2.103024      0.644714      0.537908
  H       2.404556     -0.261197     -0.027172
  O      -4.690321     -0.094200     -0.606878
  C      -3.858503     -0.052902     -1.434169
  O      -3.352412      0.004775     -2.490464
14
Coordinates from ORCA-job ./orca E -398.954385583039
  O       1.651285     -0.214168     -0.629619
  N      -2.035685     -0.134851     -0.109534
  C      -0.738737     -0.115516     -0.791638
  C       0.446975     -0.225149      0.156758
  H      -0.661917      0.812539     -1.364593
  H      -0.710195     -0.945025     -1.503632
  H       0.379511     -1.155142      0.733048
  H       0.445688      0.617102      0.857776
  H      -2.127062     -0.979779      0.449347
  H      -2.107537      0.647661      0.536174
  H       2.405030     -0.262506     -0.027579
  O      -4.687954     -0.094542     -0.606309
  C      -3.857484     -0.054119     -1.432787
  O      -3.348899      0.002182     -2.488091
14
Coordinates from ORCA-job ./orca E -398.954397559435
  O       1.651786     -0.214525     -0.630086
  N      -2.034747     -0.134037     -0.108589
  C      -0.738689     -0.114393     -0.791277
  C       0.447516     -0.225476      0.156509
  H      -0.662251      0.814391     -1.363025
  H      -0.711008     -0.943235     -1.504039
  H       0.379598     -1.155931      0.731992
  H       0.446926      0.616118      0.858293
  H      -2.130842     -0.979904      0.447741
  H      -2.111852      0.650245      0.534074
  H       2.405661     -0.263637     -0.028281
  O      -4.686363     -0.094649     -0.605026
  C      -3.856477     -0.055407     -1.432065
  O      -3.346238     -0.000873     -2.486901
14
Coordinates from ORCA-job ./orca E -398.954404422458
  O       1.652312     -0.214795     -0.630377
  N      -2.033903     -0.133088     -0.108475
  C      -0.738451     -0.113266     -0.790491
  C       0.448261     -0.225924      0.156579
  H      -0.661828      0.816222     -1.361149
  H      -0.711208     -0.941306     -1.504280
  H       0.380021     -1.156969      0.731077
  H       0.448365      0.614957      0.859209
  H      -2.134260     -0.979387      0.445919
  H      -2.115727      0.652338      0.531737
  H       2.406346     -0.264602     -0.028849
  O      -4.685290     -0.094523     -0.603124
  C      -3.855907     -0.056719     -1.431707
  O      -3.345712     -0.004252     -2.486751
14
Coordinates from ORCA-job ./orca E -398.954408035185
  O       1.652817     -0.214932     -0.630108
  N      -2.033379     -0.132341     -0.109349
  C      -0.737891     -0.112467     -0.790011
  C       0.448868     -0.226302      0.156923
  H      -0.660526      0.817447     -1.359994
  H      -0.710408     -0.939859     -1.504645
  H       0.380333     -1.157825      0.730631
  H       0.449272      0.614049      0.860195
  H      -2.136064     -0.978635      0.444333
  H      -2.117749      0.653348      0.529942
  H       2.406857     -0.265150     -0.028633
  O      -4.684856     -0.094193     -0.601158
  C      -3.856289     -0.057623     -1.431426
  O      -3.347966     -0.006830     -2.487380
14
Coordinates from ORCA-job ./orca E -398.954412898439
  O       1.653727     -0.215097     -0.629009
  N      -2.032696     -0.131347     -0.111476
  C      -0.736653     -0.111413     -0.789929
  C       0.449572     -0.226796      0.157570
  H      -0.657857      0.818985     -1.359049
  H      -0.708385     -0.937950     -1.505635
  H       0.380372     -1.158935      0.730223
  H       0.450002      0.612847      0.861697
  H      -2.137508     -0.977515      0.441816
  H      -2.119367      0.654262      0.527442
  H       2.407514     -0.265779     -0.027258
  O      -4.684489     -0.093531     -0.597858
  C      -3.857778     -0.058750     -1.430672
  O      -3.353438     -0.010294     -2.488541
14
Coordinates from ORCA-job ./orca E -398.954409748700
  O       1.655184     -0.215340     -0.626801
  N      -2.031787     -0.130149     -0.114914
  C      -0.734652     -0.110089     -0.790663
  C       0.450212     -0.227349      0.158397
  H      -0.653936      0.820890     -1.358640
  H      -0.705192     -0.935644     -1.507534
  H       0.379757     -1.160180      0.729788
  H       0.450222      0.611429      0.863557
  H      -2.138241     -0.976242      0.438161
  H      -2.120228      0.655102      0.524184
  H       2.408273     -0.266543     -0.024219
  O      -4.684154     -0.092521     -0.593026
  C      -3.860541     -0.060074     -1.429151
  O      -3.361899     -0.014604     -2.489819
14
Coordinates from ORCA-job ./orca E -398.954415091038
  O       1.657299     -0.215612     -0.623330
  N      -2.030593     -0.128739     -0.119602
  C      -0.731897     -0.108445     -0.792460
  C       0.450666     -0.227972      0.159243
  H      -0.649019      0.823302     -1.358859
  H      -0.701080     -0.932892     -1.510560
  H       0.378232     -1.161612      0.729075
  H       0.449681      0.609706      0.865701
  H      -2.138104     -0.974935      0.433230
  H      -2.120173      0.656022      0.520043
  H       2.409102     -0.267443     -0.019189
  O      -4.683806     -0.090974     -0.586490
  C      -3.864570     -0.061641     -1.426698
  O      -3.372720     -0.020078     -2.490783
14
Coordinates from ORCA-job ./orca E -398.954425269746
  O       1.658611     -0.215916     -0.621016
  N      -2.029963     -0.128057     -0.122337
  C      -0.730274     -0.107481     -0.794028
  C       0.450635     -0.228192      0.159522
  H      -0.646547      0.824763     -1.359416
  H      -0.698921     -0.931411     -1.512655
  H       0.376739     -1.162161      0.728628
  H       0.448907      0.608983      0.866560
  H      -2.137177     -0.974546      0.430233
  H      -2.119331      0.656357      0.517880
  H       2.409424     -0.268073     -0.015670
  O      -4.683766     -0.089992     -0.582695
  C      -3.867123     -0.062459     -1.425031
  O      -3.378198     -0.023131     -2.490655
14
Coordinates from ORCA-job ./orca E -398.954427707997
  O       1.660033     -0.216373     -0.618507
  N      -2.029341     -0.127324     -0.125140
  C      -0.728626     -0.106290     -0.795858
  C       0.450458     -0.228384      0.159631
  H      -0.644322      0.826625     -1.359964
  H      -0.696977     -0.929609     -1.515116
  H       0.374784     -1.162693      0.727944
  H       0.447968      0.608263      0.867275
  H      -2.135879     -0.974319      0.426910
  H      -2.118204      0.656704      0.515725
  H       2.409661     -0.268902     -0.011728
  O      -4.683774     -0.088641     -0.578637
  C      -3.869816     -0.063424     -1.423231
  O      -3.382946     -0.026947     -2.489984
14
Coordinates from ORCA-job ./orca E -398.953265317738
  O       1.647088     -0.215870     -0.624979
  N      -2.041871     -0.127173     -0.128424
  C      -0.741738     -0.106071     -0.800268
  C       0.438191     -0.227912      0.154212
  H      -0.658047      0.826770     -1.364588
  H      -0.710617     -0.929485     -1.519440
  H       0.363113     -1.162156      0.722711
  H       0.436225      0.608826      0.861749
  H      -2.133897     -0.988427      0.441401
  H      -2.116286      0.669337      0.531589
  H       2.397250     -0.268238     -0.018846
  O      -4.668185     -0.088758     -0.580875
  C      -3.813274     -0.064682     -1.405572
  O      -3.344936     -0.027474     -2.489352
14
Coordinates from ORCA-job ./orca E -398.954052975089
  O       1.645189     -0.216523     -0.624522
  N      -2.040551     -0.127521     -0.125899
  C      -0.741131     -0.105704     -0.800136
  C       0.437324     -0.227663      0.155330
  H      -0.658495      0.827342     -1.363918
  H      -0.710879     -0.929312     -1.518783
  H       0.361671     -1.161622      0.724048
  H       0.435718      0.609559      0.862180
  H      -2.132244     -0.972088      0.432985
  H      -2.115473      0.652553      0.521791
  H       2.395440     -0.268878     -0.018525
  O      -4.664372     -0.088904     -0.583464
  C      -3.813419     -0.064876     -1.401006
  O      -3.345759     -0.027678     -2.480762
14
Coordinates from ORCA-job ./orca E -398.954097718980
  O       1.645207     -0.216762     -0.624867
  N      -2.040048     -0.127790     -0.124508
  C      -0.740964     -0.105563     -0.800819
  C       0.437329     -0.227528      0.154929
  H      -0.659106      0.827575     -1.364300
  H      -0.711306     -0.929184     -1.519269
  H       0.361442     -1.161340      0.723875
  H       0.435839      0.609810      0.861630
  H      -2.134523     -0.973412      0.432342
  H      -2.117951      0.653353      0.521697
  H       2.395453     -0.268997     -0.018805
  O      -4.662612     -0.088507     -0.584526
  C      -3.812713     -0.064871     -1.399883
  O      -3.343030     -0.028097     -2.478177
14
Coordinates from ORCA-job ./orca E -398.954123022448
  O       1.645475     -0.216932     -0.625719
  N      -2.039206     -0.128167     -0.122341
  C      -0.741183     -0.105423     -0.801033
  C       0.437589     -0.227425      0.154278
  H      -0.660821      0.827973     -1.364021
  H      -0.712803     -0.929011     -1.519357
  H       0.361652     -1.161115      0.723400
  H       0.436397      0.609910      0.860954
  H      -2.138567     -0.975547      0.431162
  H      -2.122244      0.654861      0.521152
  H       2.395893     -0.268922     -0.019822
  O      -4.660553     -0.087447     -0.585102
  C      -3.811088     -0.064843     -1.398783
  O      -3.337521     -0.029227     -2.475448
14
Coordinates from ORCA-job ./orca E -398.954133671749
  O       1.645646     -0.216892     -0.626600
  N      -2.038567     -0.128431     -0.120861
  C      -0.741550     -0.105377     -0.800462
  C       0.438023     -0.227448      0.153941
  H      -0.662201      0.828276     -1.363120
  H      -0.714038     -0.928853     -1.518909
  H       0.362364     -1.161181      0.723019
  H       0.437214      0.609789      0.860712
  H      -2.141956     -0.976813      0.430030
  H      -2.125783      0.655757      0.520383
  H       2.396368     -0.268618     -0.021070
  O      -4.659342     -0.086192     -0.584975
  C      -3.809601     -0.064797     -1.398465
  O      -3.333560     -0.030534     -2.474303
14
Coordinates from ORCA-job ./orca E -398.954135306920
  O       1.645743     -0.216707     -0.627394
  N      -2.038094     -0.128637     -0.120053
  C      -0.741816     -0.105368     -0.799478
  C       0.438613     -0.227558      0.153927
  H      -0.662890      0.828503     -1.361921
  H      -0.714595     -0.928623     -1.518253
  H       0.363424     -1.161461      0.722796
  H       0.438217      0.609525      0.860878
  H      -2.144923     -0.977565      0.428896
  H      -2.128840      0.656191      0.519523
  H       2.396853     -0.268144     -0.022340
  O      -4.658532     -0.084642     -0.584460
  C      -3.808462     -0.064731     -1.398565
  O      -3.331680     -0.032097     -2.474237
14
Coordinates from ORCA-job ./orca E -398.954137865323
  O       1.645848     -0.216478     -0.627600
  N      -2.037864     -0.128729     -0.120199
  C      -0.741719     -0.105347     -0.798864
  C       0.439052     -0.227681      0.154166
  H      -0.662554      0.828614     -1.361213
  H      -0.714169     -0.928382     -1.517951
  H       0.364166     -1.161776      0.722769
  H       0.438800      0.609237      0.861319
  H      -2.146375     -0.977766      0.428030
  H      -2.130330      0.656154      0.518865
  H       2.397171     -0.267747     -0.022802
  O      -4.658174     -0.083363     -0.583731
  C      -3.808267     -0.064682     -1.398657
  O      -3.332566     -0.033367     -2.474812
14
Coordinates from ORCA-job ./orca E -398.954140519679
  O       1.646154     -0.216145     -0.627322
  N      -2.037558     -0.128813     -0.121059
  C      -0.741230     -0.105254     -0.798514
  C       0.439529     -0.227847      0.154598
  H      -0.661433      0.828809     -1.360690
  H      -0.712929     -0.927977     -1.517998
  H       0.364808     -1.162217      0.722787
  H       0.439196      0.608798      0.862078
  H      -2.147524     -0.977903      0.426672
  H      -2.131541      0.655905      0.517875
  H       2.397554     -0.267268     -0.022608
  O      -4.657826     -0.081556     -0.582299
  C      -3.808703     -0.064643     -1.398481
  O      -3.335479     -0.035203     -2.475720
14
Coordinates from ORCA-job ./orca E -398.954140764529
  O       1.646719     -0.215822     -0.626482
  N      -2.037183     -0.128867     -0.122439
  C      -0.740413     -0.105066     -0.798721
  C       0.439869     -0.228004      0.155027
  H      -0.659914      0.829145     -1.360584
  H      -0.711289     -0.927470     -1.518569
  H       0.365002     -1.162647      0.722755
  H       0.439162      0.608317      0.862889
  H      -2.148008     -0.978049      0.424970
  H      -2.132141      0.655586      0.516679
  H       2.397936     -0.266887     -0.021531
  O      -4.657578     -0.079609     -0.580338
  C      -3.809743     -0.064652     -1.397894
  O      -3.339402     -0.037290     -2.476445
14
Coordinates from ORCA-job ./orca E -398.954148023787
  O       1.647917     -0.215115     -0.624570
  N      -2.036460     -0.128859     -0.124995
  C      -0.738874     -0.104643     -0.799672
  C       0.440204     -0.228343      0.155546
  H      -0.657394      0.829945     -1.360763
  H      -0.708673     -0.926486     -1.520118
  H       0.364814     -1.163571      0.722247
  H       0.438482      0.607222      0.864294
  H      -2.148113     -0.978228      0.422011
  H      -2.132454      0.655260      0.514429
  H       2.398490     -0.266250     -0.018822
  O      -4.657233     -0.076075     -0.576626
  C      -3.811846     -0.064801     -1.396523
  O      -3.345843     -0.041369     -2.477119
14
Coordinates from ORCA-job ./orca E -398.954144402592
  O       1.648260     -0.215271     -0.623939
  N      -2.036330     -0.128813     -0.125653
  C      -0.738465     -0.104334     -0.800205
  C       0.440110     -0.228303      0.155537
  H      -0.656989      0.830434     -1.360957
  H      -0.708233     -0.926040     -1.520780
  H       0.364240     -1.163542      0.722147
  H       0.438198      0.607216      0.864331
  H      -2.147506     -0.978345      0.421257
  H      -2.132115      0.655168      0.514022
  H       2.398521     -0.266601     -0.017819
  O      -4.657342     -0.075614     -0.575750
  C      -3.812530     -0.064983     -1.396053
  O      -3.346799     -0.042286     -2.476819
14
Coordinates from ORCA-job ./orca E -398.953404021614
  O       1.635543     -0.214793     -0.630041
  N      -2.048753     -0.128628     -0.129514
  C      -0.751300     -0.104098     -0.804856
  C       0.427872     -0.227842      0.150177
  H      -0.670276      0.830599     -1.365792
  H      -0.721427     -0.925894     -1.525343
  H       0.352436     -1.163020      0.716948
  H       0.426318      0.607763      0.858872
  H      -2.146712     -0.992401      0.434970
  H      -2.131476      0.667744      0.529186
  H       2.386180     -0.265980     -0.024375
  O      -4.639665     -0.075727     -0.576492
  C      -3.756296     -0.066219     -1.378134
  O      -3.309426     -0.042816     -2.476286
14
Coordinates from ORCA-job ./orca E -398.954175041188
  O       1.633734     -0.215564     -0.629158
  N      -2.047140     -0.128602     -0.127498
  C      -0.750171     -0.103240     -0.805104
  C       0.426972     -0.227670      0.151463
  H      -0.670077      0.831835     -1.365058
  H      -0.721264     -0.924980     -1.525239
  H       0.350553     -1.162767      0.718053
  H       0.425776      0.608152      0.859763
  H      -2.144590     -0.975652      0.426247
  H      -2.130680      0.651657      0.518587
  H       2.384326     -0.267363     -0.023525
  O      -4.635847     -0.076379     -0.578391
  C      -3.756854     -0.066951     -1.373181
  O      -3.311721     -0.043790     -2.467639
14
Coordinates from ORCA-job ./orca E -398.954228959812
  O       1.633987     -0.215957     -0.629168
  N      -2.046483     -0.128472     -0.126519
  C      -0.749646     -0.102587     -0.805986
  C       0.427032     -0.227616      0.151145
  H      -0.670218      0.832798     -1.365218
  H      -0.721459     -0.924108     -1.526173
  H       0.349987     -1.162746      0.717615
  H       0.426021      0.608066      0.859587
  H      -2.146248     -0.976557      0.425439
  H      -2.133048      0.653137      0.517865
  H       2.384459     -0.268270     -0.023377
  O      -4.634834     -0.076452     -0.579392
  C      -3.756623     -0.067514     -1.371651
  O      -3.309910     -0.045036     -2.464849
14
Coordinates from ORCA-job ./orca E -398.954240269491
  O       1.634618     -0.216367     -0.629390
  N      -2.045435     -0.128101     -0.125127
  C      -0.749292     -0.101553     -0.806518
  C       0.427334     -0.227699      0.150634
  H      -0.670989      0.834477     -1.364538
  H      -0.722467     -0.922612     -1.527077
  H       0.349561     -1.163042      0.716629
  H       0.426708      0.607516      0.859589
  H      -2.148983     -0.977643      0.424155
  H      -2.136894      0.655628      0.516258
  H       2.385011     -0.269534     -0.023553
  O      -4.634018     -0.076232     -0.579681
  C      -3.755843     -0.068508     -1.369957
  O      -3.306292     -0.047642     -2.462104
14
Coordinates from ORCA-job ./orca E -398.954252791172
  O       1.635058     -0.216613     -0.629814
  N      -2.044611     -0.127651     -0.124122
  C      -0.749206     -0.100592     -0.806235
  C       0.427784     -0.227911      0.150356
  H      -0.671606      0.836102     -1.363161
  H      -0.723366     -0.921057     -1.527459
  H       0.349627     -1.163612      0.715692
  H       0.427714      0.606767      0.859921
  H      -2.151434     -0.977960      0.423095
  H      -2.140365      0.657546      0.514619
  H       2.385538     -0.270551     -0.024165
  O      -4.633540     -0.075717     -0.579330
  C      -3.754920     -0.069500     -1.369156
  O      -3.303655     -0.050563     -2.460922
14
Coordinates from ORCA-job ./orca E -398.954253780938
  O       1.635345     -0.216684     -0.630312
  N      -2.043953     -0.127091     -0.123535
  C      -0.749163     -0.099592     -0.805439
  C       0.428374     -0.228273      0.150334
  H      -0.671716      0.837784     -1.361289
  H      -0.723813     -0.919255     -1.527647
  H       0.350061     -1.164526      0.714738
  H       0.428956      0.605722      0.860692
  H      -2.153761     -0.977681      0.422212
  H      -2.143703      0.659120      0.512934
  H       2.386038     -0.271373     -0.025012
  O      -4.633006     -0.074749     -0.578582
  C      -3.754053     -0.070573     -1.368932
  O      -3.302589     -0.054143     -2.460842
14
Coordinates from ORCA-job ./orca E -398.954255806939
  O       1.635485     -0.216606     -0.630483
  N      -2.043640     -0.126641     -0.123668
  C      -0.749000     -0.098861     -0.804811
  C       0.428811     -0.228615      0.150540
  H      -0.671124      0.838964     -1.359924
  H      -0.723475     -0.917828     -1.527875
  H       0.350449     -1.165371      0.714116
  H       0.429777      0.604793      0.861589
  H      -2.154982     -0.977128      0.421687
  H      -2.145607      0.659897      0.511813
  H       2.386336     -0.271783     -0.025430
  O      -4.632516     -0.073686     -0.577717
  C      -3.753812     -0.071348     -1.369020
  O      -3.303684     -0.057100     -2.461498
14
Coordinates from ORCA-job ./orca E -398.954258261595
  O       1.635718     -0.216445     -0.630288
  N      -2.043383     -0.126131     -0.124363
  C      -0.748584     -0.098018     -0.804427
  C       0.429201     -0.229021      0.150881
  H      -0.669907      0.840280     -1.358698
  H      -0.722532     -0.916173     -1.528459
  H       0.350661     -1.166377      0.713451
  H       0.430382      0.603663      0.862785
  H      -2.155681     -0.976394      0.421041
  H      -2.147047      0.660497      0.510626
  H       2.386624     -0.272138     -0.025352
  O      -4.631988     -0.072201     -0.576434
  C      -3.754106     -0.072196     -1.369019
  O      -3.306339     -0.060660     -2.462426
14
Coordinates from ORCA-job ./orca E -398.953945251504
  O       1.623178     -0.216009     -0.636203
  N      -2.055695     -0.125982     -0.128548
  C      -0.761217     -0.097827     -0.809223
  C       0.417035     -0.228590      0.145542
  H      -0.682915      0.840391     -1.363682
  H      -0.735426     -0.916084     -1.533149
  H       0.338849     -1.165877      0.708277
  H       0.418477      0.604191      0.857332
  H      -2.155195     -0.990612      0.434509
  H      -2.146868      0.673319      0.525495
  H       2.374378     -0.271550     -0.031617
  O      -4.614282     -0.072252     -0.577286
  C      -3.698178     -0.073284     -1.350534
  O      -3.269123     -0.061147     -2.461594
14
Coordinates from ORCA-job ./orca E -398.954731489082
  O       1.621364     -0.216533     -0.634956
  N      -2.053994     -0.126051     -0.127106
  C      -0.759664     -0.097084     -0.809805
  C       0.416124     -0.228515      0.147079
  H      -0.681941      0.841445     -1.363222
  H      -0.734494     -0.915249     -1.533292
  H       0.337000     -1.165802      0.709488
  H       0.417655      0.604390      0.858576
  H      -2.152981     -0.973801      0.425312
  H      -2.145688      0.656945      0.514541
  H       2.372480     -0.272465     -0.030340
  O      -4.610192     -0.072434     -0.578571
  C      -3.699257     -0.073872     -1.345370
  O      -3.273393     -0.062286     -2.453016
14
Coordinates from ORCA-job ./orca E -398.954776872375
  O       1.621812     -0.216766     -0.634604
  N      -2.053300     -0.126002     -0.126687
  C      -0.758814     -0.096511     -0.810893
  C       0.416247     -0.228524      0.146927
  H      -0.681546      0.842325     -1.363534
  H      -0.734146     -0.914465     -1.534391
  H       0.336490     -1.165898      0.709120
  H       0.417721      0.604166      0.858648
  H      -2.154546     -0.974754      0.424095
  H      -2.147884      0.658233      0.513431
  H       2.372746     -0.273025     -0.029734
  O      -4.609095     -0.072018     -0.578971
  C      -3.699532     -0.074316     -1.343661
  O      -3.273134     -0.063759     -2.450424
14
Coordinates from ORCA-job ./orca E -398.954802833351
  O       1.622744     -0.216937     -0.634219
  N      -2.052222     -0.125776     -0.126266
  C      -0.757969     -0.095616     -0.811703
  C       0.416622     -0.228689      0.146669
  H      -0.681491      0.843864     -1.363076
  H      -0.734261     -0.913123     -1.535540
  H       0.336119     -1.166351      0.708246
  H       0.418093      0.603442      0.859002
  H      -2.156934     -0.975874      0.422166
  H      -2.151283      0.660301      0.511260
  H       2.373468     -0.273748     -0.029114
  O      -4.608276     -0.070951     -0.578170
  C      -3.699584     -0.075106     -1.341754
  O      -3.272009     -0.066750     -2.448182
14
Coordinates from ORCA-job ./orca E -398.954813099779
  O       1.623779     -0.215842     -0.633976
  N      -2.051067     -0.125105     -0.125900
  C      -0.757263     -0.094490     -0.811793
  C       0.417246     -0.229559      0.146429
  H      -0.681297      0.846050     -1.361310
  H      -0.734709     -0.910918     -1.536793
  H       0.336590     -1.168520      0.705786
  H       0.418399      0.600812      0.860769
  H      -2.159848     -0.975798      0.420595
  H      -2.155283      0.663076      0.507988
  H       2.374369     -0.273632     -0.028818
  O      -4.607609     -0.067590     -0.576646
  C      -3.699339     -0.076421     -1.340235
  O      -3.270952     -0.073377     -2.446776
14
Coordinates from ORCA-job ./orca E -398.954811983316
  O       1.624174     -0.216068     -0.633907
  N      -2.050389     -0.124754     -0.126117
  C      -0.756885     -0.093432     -0.811385
  C       0.417699     -0.229799      0.146540
  H      -0.680856      0.847800     -1.359779
  H      -0.734429     -0.909071     -1.537344
  H       0.336638     -1.169198      0.705123
  H       0.419334      0.600066      0.861463
  H      -2.161212     -0.975758      0.419151
  H      -2.157925      0.663956      0.506242
  H       2.374754     -0.274460     -0.028801
  O      -4.607092     -0.066042     -0.575029
  C      -3.699118     -0.077353     -1.339881
  O      -3.271673     -0.077199     -2.446957
14
Coordinates from ORCA-job ./orca E -398.954815038415
  O       1.624681     -0.216373     -0.633719
  N      -2.049731     -0.124225     -0.126883
  C      -0.756313     -0.091883     -0.810677
  C       0.418375     -0.230166      0.146889
  H      -0.679672      0.850253     -1.357551
  H      -0.733374     -0.906222     -1.538209
  H       0.336721     -1.170214      0.704313
  H       0.420692      0.598933      0.862703
  H      -2.162601     -0.975342      0.417356
  H      -2.161194      0.664678      0.504131
  H       2.375268     -0.275575     -0.028714
  O      -4.606262     -0.063485     -0.572692
  C      -3.699162     -0.078686     -1.339764
  O      -3.274410     -0.083007     -2.447863
14
Coordinates from ORCA-job ./orca E -398.954818164349
  O       1.624959     -0.216460     -0.633396
  N      -2.049517     -0.123932     -0.127696
  C      -0.755865     -0.090981     -0.810478
  C       0.418672     -0.230401      0.147176
  H      -0.678615      0.851642     -1.356485
  H      -0.732327     -0.904505     -1.538962
  H       0.336604     -1.170857      0.703860
  H       0.421233      0.598174      0.863599
  H      -2.162788     -0.975010      0.416472
  H      -2.162435      0.664814      0.503191
  H       2.375494     -0.276073     -0.028368
  O      -4.605792     -0.061639     -0.571332
  C      -3.699605     -0.079425     -1.339723
  O      -3.277001     -0.086659     -2.448538
14
Coordinates from ORCA-job ./orca E -398.954822211332
  O       1.625456     -0.216435     -0.632573
  N      -2.049257     -0.123511     -0.129278
  C      -0.755015     -0.089550     -0.810572
  C       0.418965     -0.230803      0.147602
  H      -0.676788      0.853863     -1.355118
  H      -0.730475     -0.901781     -1.540527
  H       0.336127     -1.171966      0.702991
  H       0.421644      0.596805      0.865137
  H      -2.162380     -0.974532      0.415095
  H      -2.163612      0.664849      0.501874
  H       2.375779     -0.276648     -0.027338
  O      -4.605221     -0.058171     -0.569173
  C      -3.700751     -0.080547     -1.339444
  O      -3.281454     -0.092885     -2.449357
14
Coordinates from ORCA-job ./orca E -398.954818411743
  O       1.625954     -0.216297     -0.631640
  N      -2.049047     -0.123220     -0.130724
  C      -0.754227     -0.088309     -0.811007
  C       0.419041     -0.231157      0.147848
  H      -0.675365      0.855848     -1.354163
  H      -0.728998     -0.899454     -1.542165
  H       0.335446     -1.172967      0.702035
  H       0.421611      0.595529      0.866437
  H      -2.161483     -0.974290      0.413849
  H      -2.164016      0.664765      0.500881
  H       2.375961     -0.276975     -0.026055
  O      -4.604972     -0.054636     -0.567375
  C      -3.701979     -0.081462     -1.338966
  O      -3.284906     -0.098688     -2.449633
14
Coordinates from ORCA-job ./orca E -398.954832245973
  O       1.627859     -0.215029     -0.628245
  N      -2.048142     -0.122090     -0.135551
  C      -0.751507     -0.083795     -0.812700
  C       0.419195     -0.232760      0.148410
  H      -0.670796      0.863308     -1.350413
  H      -0.724456     -0.890843     -1.548359
  H       0.333129     -1.177386      0.697436
  H       0.420950      0.589971      0.871492
  H      -2.158329     -0.973415      0.409439
  H      -2.165440      0.664928      0.497029
  H       2.376590     -0.277494     -0.021250
  O      -4.604099     -0.040151     -0.561161
  C      -3.706107     -0.084878     -1.337028
  O      -3.295827     -0.121680     -2.449778
14
Coordinates from ORCA-job ./orca E -398.954825807598
  O       1.627327     -0.215235     -0.629075
  N      -2.048454     -0.122502     -0.134203
  C      -0.752264     -0.084758     -0.812456
  C       0.418969     -0.232361      0.148106
  H      -0.672337      0.861803     -1.351213
  H      -0.725939     -0.892716     -1.547110
  H       0.333461     -1.176384      0.698249
  H       0.420874      0.591239      0.870203
  H      -2.158525     -0.973964      0.410520
  H      -2.164603      0.664605      0.498449
  H       2.376305     -0.277254     -0.022348
  O      -4.604609     -0.042459     -0.563048
  C      -3.705112     -0.084034     -1.337442
  O      -3.292075     -0.117293     -2.449313
14
Coordinates from ORCA-job ./orca E -398.954825631395
  O       1.626668     -0.215709     -0.630215
  N      -2.048940     -0.123183     -0.132330
  C      -0.753348     -0.085536     -0.812112
  C       0.418639     -0.231765      0.147604
  H      -0.674690      0.860632     -1.351720
  H      -0.727993     -0.894320     -1.545855
  H       0.333621     -1.175024      0.699116
  H       0.420999      0.592914      0.868473
  H      -2.158406     -0.975194      0.411574
  H      -2.163679      0.663651      0.500863
  H       2.375928     -0.277210     -0.023797
  O      -4.605328     -0.043625     -0.565732
  C      -3.703762     -0.083106     -1.338041
  O      -3.286692     -0.113838     -2.448510
14
Coordinates from ORCA-job ./orca E -398.954830420205
  O       1.626839     -0.215259     -0.629888
  N      -2.048909     -0.123230     -0.132667
  C      -0.753143     -0.083849     -0.812329
  C       0.418466     -0.232138      0.147408
  H      -0.674786      0.863572     -1.349757
  H      -0.727858     -0.891104     -1.547753
  H       0.332851     -1.176320      0.697254
  H       0.420938      0.591306      0.869675
  H      -2.157075     -0.975924      0.410432
  H      -2.164036      0.662917      0.501278
  H       2.375855     -0.277264     -0.023226
  O      -4.605299     -0.036347     -0.565447
  C      -3.704170     -0.084088     -1.337805
  O      -3.286655     -0.123586     -2.447856
14
Coordinates from ORCA-job ./orca E -398.954832638646
  O       1.627170     -0.213517     -0.629383
  N      -2.048830     -0.123188     -0.133312
  C      -0.752746     -0.079512     -0.812370
  C       0.418262     -0.233367      0.147046
  H      -0.674761      0.871117     -1.344164
  H      -0.727368     -0.882553     -1.552408
  H       0.331545     -1.180279      0.692035
  H       0.421001      0.586411      0.873439
  H      -2.154499     -0.977443      0.407838
  H      -2.165771      0.661311      0.502237
  H       2.375795     -0.276959     -0.022390
  O      -4.604525     -0.016707     -0.565114
  C      -3.704800     -0.086739     -1.337560
  O      -3.287455     -0.149887     -2.446574
14
Coordinates from ORCA-job ./orca E -398.954837504844
  O       1.627203     -0.210901     -0.629467
  N      -2.048897     -0.123199     -0.133297
  C      -0.752730     -0.074832     -0.811802
  C       0.418174     -0.234886      0.146669
  H      -0.675018      0.879280     -1.337410
  H      -0.727166     -0.873030     -1.557087
  H       0.330897     -1.185089      0.685852
  H       0.421262      0.580439      0.878029
  H      -2.152376     -0.979135      0.405598
  H      -2.168186      0.659419      0.503984
  H       2.375735     -0.276057     -0.022545
  O      -4.603019      0.006479     -0.566267
  C      -3.704738     -0.089585     -1.337806
  O      -3.288122     -0.180217     -2.445131
14
Coordinates from ORCA-job ./orca E -398.954840469051
  O       1.626611     -0.207716     -0.630641
  N      -2.049267     -0.123552     -0.131958
  C      -0.753454     -0.070642     -0.810400
  C       0.418198     -0.236287      0.146295
  H      -0.676100      0.886633     -1.330343
  H      -0.727710     -0.864199     -1.560646
  H       0.331296     -1.189721      0.679845
  H       0.421890      0.574642      0.882503
  H      -2.151205     -0.981263      0.404394
  H      -2.170929      0.657007      0.507269
  H       2.375619     -0.274678     -0.024502
  O      -4.601001      0.030348     -0.569985
  C      -3.703435     -0.091941     -1.338816
  O      -3.287495     -0.209944     -2.443695
14
Coordinates from ORCA-job ./orca E -398.954842706652
  O       1.625647     -0.206314     -0.632326
  N      -2.049743     -0.124177     -0.129902
  C      -0.754570     -0.070043     -0.809065
  C       0.418298     -0.236387      0.146196
  H      -0.677573      0.887761     -1.328115
  H      -0.728808     -0.862672     -1.560288
  H       0.332549     -1.190533      0.678659
  H       0.422575      0.573618      0.883421
  H      -2.151835     -0.982656      0.405202
  H      -2.172003      0.655424      0.510381
  H       2.375485     -0.273970     -0.027287
  O      -4.600293      0.037856     -0.573836
  C      -3.701553     -0.091916     -1.339970
  O      -3.285157     -0.217303     -2.443750
14
Coordinates from ORCA-job ./orca E -398.954845089876
  O       1.624843     -0.205970     -0.633643
  N      -2.050102     -0.124887     -0.128260
  C      -0.755430     -0.070701     -0.808222
  C       0.418367     -0.235847      0.146246
  H      -0.678842      0.886654     -1.328134
  H      -0.729630     -0.863909     -1.558801
  H       0.333599     -1.189559      0.679622
  H       0.423103      0.574786      0.882787
  H      -2.152597     -0.983805      0.406122
  H      -2.172101      0.654162      0.512833
  H       2.375395     -0.274025     -0.029536
  O      -4.600538      0.038317     -0.576649
  C      -3.700128     -0.091045     -1.340715
  O      -3.282919     -0.215484     -2.444330
14
Coordinates from ORCA-job ./orca E -398.955030976326
  O       1.612451     -0.205731     -0.639400
  N      -2.062320     -0.124794     -0.132673
  C      -0.767895     -0.070615     -0.813105
  C       0.406270     -0.235544      0.140948
  H      -0.691613      0.886632     -1.333260
  H      -0.742313     -0.863959     -1.563547
  H       0.321753     -1.189175      0.674511
  H       0.411241      0.575208      0.877356
  H      -2.151973     -0.998296      0.419144
  H      -2.172722      0.667008      0.527701
  H       2.363235     -0.273649     -0.035564
  O      -4.582730      0.039088     -0.577667
  C      -3.644461     -0.091687     -1.321791
  O      -3.245907     -0.215801     -2.443335
14
Coordinates from ORCA-job ./orca E -398.955818935606
  O       1.610638     -0.205444     -0.638030
  N      -2.060647     -0.125775     -0.131355
  C      -0.766275     -0.071084     -0.813917
  C       0.405333     -0.235395      0.142500
  H      -0.690928      0.886093     -1.333727
  H      -0.741117     -0.865025     -1.563069
  H       0.320596     -1.188787      0.676209
  H       0.409659      0.575870      0.878216
  H      -2.150642     -0.982457      0.409352
  H      -2.170543      0.649570      0.516793
  H       2.361339     -0.272794     -0.034074
  O      -4.578499      0.039335     -0.578482
  C      -3.645648     -0.090988     -1.316610
  O      -3.250248     -0.214432     -2.434487
14
Coordinates from ORCA-job ./orca E -398.955865579795
  O       1.611106     -0.205305     -0.637686
  N      -2.060063     -0.126612     -0.131013
  C      -0.765429     -0.071449     -0.815024
  C       0.405533     -0.235093      0.142431
  H      -0.690958      0.885649     -1.334768
  H      -0.740575     -0.865821     -1.563467
  H       0.320705     -1.188209      0.676648
  H       0.409422      0.576521      0.877745
  H      -2.152766     -0.984602      0.407517
  H      -2.172373      0.649597      0.516010
  H       2.361702     -0.272339     -0.033506
  O      -4.577277      0.040358     -0.578806
  C      -3.646015     -0.090306     -1.314950
  O      -3.249995     -0.213701     -2.431813
14
Coordinates from ORCA-job ./orca E -398.955885197831
  O       1.612038     -0.204900     -0.637268
  N      -2.059112     -0.127829     -0.130729
  C      -0.764623     -0.072143     -0.815896
  C       0.405965     -0.234711      0.142298
  H      -0.691601      0.884930     -1.335615
  H      -0.740333     -0.867122     -1.563514
  H       0.321248     -1.187480      0.677121
  H       0.409186      0.577290      0.877152
  H      -2.155819     -0.987607      0.404643
  H      -2.175034      0.649638      0.514528
  H       2.362510     -0.271474     -0.032859
  O      -4.576234      0.042502     -0.577877
  C      -3.646177     -0.089307     -1.313104
  O      -3.248997     -0.213101     -2.429561
14
Coordinates from ORCA-job ./orca E -398.955895854849
  O       1.612801     -0.204517     -0.636980
  N      -2.058234     -0.128873     -0.130707
  C      -0.764103     -0.072760     -0.816091
  C       0.406454     -0.234387      0.142289
  H      -0.692174      0.884319     -1.335886
  H      -0.740045     -0.868142     -1.563244
  H       0.321966     -1.186902      0.677581
  H       0.409220      0.577962      0.876738
  H      -2.158382     -0.989810      0.401966
  H      -2.177461      0.649261      0.512978
  H       2.363192     -0.270740     -0.032442
  O      -4.575468      0.044718     -0.576287
  C      -3.646075     -0.088510     -1.311978
  O      -3.248674     -0.212932     -2.428616
14
Coordinates from ORCA-job ./orca E -398.955896869687
  O       1.613464     -0.204107     -0.636762
  N      -2.057443     -0.129839     -0.130984
  C      -0.763649     -0.073292     -0.815823
  C       0.407073     -0.234109      0.142450
  H      -0.692388      0.883784     -1.335771
  H      -0.739347     -0.868833     -1.562840
  H       0.322905     -1.186465      0.678074
  H       0.409529      0.578544      0.876555
  H      -2.160786     -0.991587      0.399413
  H      -2.180041      0.648579      0.511409
  H       2.363830     -0.270070     -0.032179
  O      -4.574620      0.047248     -0.574312
  C      -3.645903     -0.087864     -1.311366
  O      -3.249607     -0.213303     -2.428543
14
Coordinates from ORCA-job ./orca E -398.955898795787
  O       1.613762     -0.203881     -0.636596
  N      -2.057102     -0.130252     -0.131474
  C      -0.763358     -0.073405     -0.815477
  C       0.407480     -0.234012      0.142703
  H      -0.692017      0.883677     -1.335501
  H      -0.738492     -0.868801     -1.562717
  H       0.323461     -1.186380      0.678342
  H       0.409854      0.578709      0.876741
  H      -2.161783     -0.992155      0.398179
  H      -2.181493      0.648032      0.510524
  H       2.364131     -0.269851     -0.032026
  O      -4.574013      0.048813     -0.573025
  C      -3.645940     -0.087706     -1.311326
  O      -3.251471     -0.214103     -2.429027
14
Coordinates from ORCA-job ./orca E -398.955900379196
  O       1.613949     -0.203749     -0.636347
  N      -2.056947     -0.130405     -0.132135
  C      -0.763048     -0.073249     -0.815280
  C       0.407743     -0.233998      0.142979
  H      -0.691319      0.883875     -1.335234
  H      -0.737513     -0.868344     -1.562880
  H       0.323693     -1.186462      0.678455
  H       0.410081      0.578635      0.877119
  H      -2.162000     -0.992243      0.397507
  H      -2.182365      0.647646      0.509888
  H       2.364298     -0.269916     -0.031774
  O      -4.573548      0.049968     -0.572039
  C      -3.646234     -0.087808     -1.311381
  O      -3.253771     -0.215264     -2.429560
14
Coordinates from ORCA-job ./orca E -398.956325662489
  O       1.595495     -0.203310     -0.649460
  N      -2.073574     -0.130673     -0.131824
  C      -0.782179     -0.073215     -0.819687
  C       0.392144     -0.233843      0.134275
  H      -0.712543      0.883958     -1.339839
  H      -0.759230     -0.868244     -1.567445
  H       0.310222     -1.186370      0.669973
  H       0.397024      0.578725      0.868480
  H      -2.162832     -1.005683      0.414763
  H      -2.183226      0.658562      0.528958
  H       2.348067     -0.269399     -0.047637
  O      -4.562318      0.052259     -0.586351
  C      -3.589842     -0.087772     -1.294240
  O      -3.164189     -0.216309     -2.400647
14
Coordinates from ORCA-job ./orca E -398.957282114971
  O       1.597314     -0.202296     -0.642754
  N      -2.070600     -0.131795     -0.134865
  C      -0.777254     -0.073872     -0.821906
  C       0.392226     -0.233604      0.137422
  H      -0.706907      0.883133     -1.341675
  H      -0.751758     -0.869469     -1.567993
  H       0.309012     -1.186095      0.672810
  H       0.394093      0.579147      0.871356
  H      -2.159354     -0.991327      0.402277
  H      -2.178357      0.641762      0.516434
  H       2.347983     -0.267534     -0.038506
  O      -4.550909      0.054431     -0.576036
  C      -3.593256     -0.087271     -1.288839
  O      -3.199214     -0.216522     -2.408406
14
Coordinates from ORCA-job ./orca E -398.957374203726
  O       1.600024     -0.201862     -0.638932
  N      -2.068629     -0.132717     -0.137350
  C      -0.773576     -0.074264     -0.824058
  C       0.393339     -0.233256      0.138607
  H      -0.703274      0.882685     -1.343569
  H      -0.746998     -0.870423     -1.569360
  H       0.309178     -1.185538      0.674236
  H       0.393328      0.579771      0.872209
  H      -2.160328     -0.993331      0.396790
  H      -2.179118      0.640763      0.512922
  H       2.349428     -0.266433     -0.032993
  O      -4.546919      0.056800     -0.570484
  C      -3.595430     -0.086680     -1.285773
  O      -3.218007     -0.216830     -2.412926
14
Coordinates from ORCA-job ./orca E -398.957420530054
  O       1.602700     -0.201721     -0.636016
  N      -2.066444     -0.133473     -0.139734
  C      -0.770423     -0.074373     -0.825607
  C       0.394618     -0.232988      0.139390
  H      -0.700672      0.882763     -1.344635
  H      -0.743677     -0.870829     -1.570594
  H       0.309475     -1.185077      0.675177
  H       0.393189      0.580234      0.872724
  H      -2.161923     -0.996279      0.391566
  H      -2.181273      0.641191      0.509486
  H       2.351099     -0.265808     -0.028768
  O      -4.546136      0.059388     -0.565660
  C      -3.597145     -0.086337     -1.282909
  O      -3.230369     -0.218004     -2.415102
14
Coordinates from ORCA-job ./orca E -398.957429717097
  O       1.604400     -0.201887     -0.634448
  N      -2.064702     -0.133869     -0.141357
  C      -0.768471     -0.074092     -0.826298
  C       0.395558     -0.232875      0.139787
  H      -0.699218      0.883376     -1.344736
  H      -0.741883     -0.870406     -1.571485
  H       0.309592     -1.184902      0.675529
  H       0.393494      0.580404      0.873017
  H      -2.163424     -0.997892      0.387729
  H      -2.183910      0.641493      0.506500
  H       2.352230     -0.265819     -0.026486
  O      -4.546598      0.061395     -0.562435
  C      -3.598072     -0.086411     -1.280937
  O      -3.235976     -0.219829     -2.415059
14
Coordinates from ORCA-job ./orca E -398.957429258525
  O       1.605308     -0.202269     -0.633833
  N      -2.063522     -0.133935     -0.142334
  C      -0.767450     -0.073413     -0.826401
  C       0.396197     -0.232895      0.139951
  H      -0.698413      0.884478     -1.344117
  H      -0.740943     -0.869177     -1.572227
  H       0.309513     -1.185014      0.675413
  H       0.394142      0.580254      0.873305
  H      -2.164792     -0.998405      0.385366
  H      -2.186847      0.641776      0.504143
  H       2.352899     -0.266360     -0.025597
  O      -4.546830      0.062898     -0.560413
  C      -3.598436     -0.086897     -1.279850
  O      -3.237808     -0.222353     -2.414086
14
Coordinates from ORCA-job ./orca E -398.957427841852
  O       1.605467     -0.202629     -0.633922
  N      -2.063171     -0.133728     -0.142618
  C      -0.767296     -0.072630     -0.826142
  C       0.396445     -0.233025      0.139964
  H      -0.698123      0.885639     -1.343192
  H      -0.740669     -0.867716     -1.572730
  H       0.309316     -1.185355      0.674994
  H       0.394800      0.579819      0.873654
  H      -2.165532     -0.998056      0.384852
  H      -2.188959      0.642097      0.503002
  H       2.353089     -0.267059     -0.025766
  O      -4.546389      0.063688     -0.559695
  C      -3.598409     -0.087567     -1.279734
  O      -3.237552     -0.224793     -2.413347
14
Coordinates from ORCA-job ./orca E -398.957427994878
  O       1.605396     -0.202927     -0.634166
  N      -2.063181     -0.133387     -0.142706
  C      -0.767390     -0.071777     -0.825805
  C       0.396544     -0.233225      0.139962
  H      -0.697919      0.886879     -1.342130
  H      -0.740541     -0.866130     -1.573196
  H       0.309060     -1.185850      0.674425
  H       0.395420      0.579173      0.874150
  H      -2.165822     -0.997404      0.385076
  H      -2.190532      0.642548      0.502330
  H       2.353131     -0.267779     -0.026196
  O      -4.545626      0.064306     -0.559421
  C      -3.598342     -0.088348     -1.279970
  O      -3.237178     -0.227393     -2.413034
14
Coordinates from ORCA-job ./orca E -398.958922172296
  O       1.594129     -0.202624     -0.635691
  N      -2.075770     -0.133034     -0.154113
  C      -0.778138     -0.071422     -0.833718
  C       0.383191     -0.232930      0.135179
  H      -0.707258      0.887253     -1.349818
  H      -0.749291     -0.865747     -1.581067
  H       0.294249     -1.185575      0.669369
  H       0.380104      0.579439      0.869396
  H      -2.179850     -0.997070      0.373360
  H      -2.204844      0.642878      0.490611
  H       2.340225     -0.267515     -0.025709
  O      -4.502129      0.063109     -0.536792
  C      -3.552907     -0.089534     -1.254795
  O      -3.188692     -0.228542     -2.386891
14
Coordinates from ORCA-job ./orca E -398.959196535577
  O       1.596371     -0.202999     -0.630909
  N      -2.072889     -0.133515     -0.158766
  C      -0.773431     -0.071027     -0.836912
  C       0.383703     -0.232523      0.136530
  H      -0.701973      0.887790     -1.352110
  H      -0.742507     -0.865415     -1.583384
  H       0.292633     -1.184952      0.670726
  H       0.378796      0.580155      0.870322
  H      -2.173565     -0.997820      0.370205
  H      -2.199040      0.640945      0.488955
  H       2.340557     -0.267771     -0.018604
  O      -4.508872      0.064376     -0.532877
  C      -3.555983     -0.088839     -1.251360
  O      -3.210782     -0.229719     -2.392496
14
Coordinates from ORCA-job ./orca E -398.959132307413
  O       1.598486     -0.202134     -0.626648
  N      -2.069512     -0.140274     -0.160946
  C      -0.769313     -0.075295     -0.840642
  C       0.384244     -0.231119      0.137659
  H      -0.701021      0.882565     -1.357594
  H      -0.735873     -0.872345     -1.583990
  H       0.293003     -1.181760      0.674936
  H       0.375700      0.584100      0.868497
  H      -2.163238     -1.003148      0.372467
  H      -2.194406      0.635031      0.486791
  H       2.341059     -0.262907     -0.011911
  O      -4.515968      0.078149     -0.534513
  C      -3.558528     -0.102723     -1.245727
  O      -3.231614     -0.209456     -2.399059
14
Coordinates from ORCA-job ./orca E -398.958602214247
  O       1.603934     -0.207382     -0.617211
  N      -2.061599     -0.128115     -0.166704
  C      -0.758812     -0.063124     -0.847591
  C       0.385280     -0.232765      0.139093
  H      -0.686401      0.898866     -1.355462
  H      -0.728568     -0.856106     -1.595407
  H       0.283145     -1.185932      0.669732
  H       0.377125      0.577803      0.874912
  H      -2.151827     -0.993784      0.363963
  H      -2.179313      0.641174      0.490821
  H       2.341974     -0.276053      0.002299
  O      -4.535422      0.054629     -0.536173
  C      -3.558231     -0.076463     -1.240366
  O      -3.278266     -0.254062     -2.402586
14
Coordinates from ORCA-job ./orca E -398.959322565297
  O       1.598330     -0.204233     -0.628122
  N      -2.069781     -0.132910     -0.158807
  C      -0.770123     -0.069158     -0.839432
  C       0.384307     -0.232640      0.136831
  H      -0.699717      0.890681     -1.352421
  H      -0.740428     -0.863116     -1.586282
  H       0.290527     -1.185176      0.670278
  H       0.378701      0.579532      0.871084
  H      -2.167307     -0.997491      0.370751
  H      -2.194543      0.640772      0.490590
  H       2.341168     -0.269547     -0.014182
  O      -4.516542      0.064903     -0.537140
  C      -3.555223     -0.087856     -1.248191
  O      -3.226350     -0.235076     -2.395636
14
Coordinates from ORCA-job ./orca E -398.959329693314
  O       1.598433     -0.204031     -0.627858
  N      -2.069231     -0.134374     -0.158426
  C      -0.769746     -0.069907     -0.839801
  C       0.384373     -0.232440      0.136895
  H      -0.700312      0.889882     -1.352928
  H      -0.739939     -0.864213     -1.586220
  H       0.290718     -1.184716      0.670820
  H       0.378307      0.580139      0.870680
  H      -2.165368     -0.998702      0.371896
  H      -2.194194      0.639675      0.490597
  H       2.341179     -0.268455     -0.013704
  O      -4.517605      0.068612     -0.538575
  C      -3.555093     -0.091100     -1.247310
  O      -3.228504     -0.231683     -2.396746
14
Coordinates from ORCA-job ./orca E -398.959333692449
  O       1.598304     -0.204079     -0.628201
  N      -2.069339     -0.134045     -0.157953
  C      -0.769993     -0.069488     -0.839561
  C       0.384372     -0.232584      0.136771
  H      -0.700604      0.890509     -1.352301
  H      -0.740550     -0.863490     -1.586309
  H       0.290665     -1.185050      0.670348
  H       0.378574      0.579717      0.870866
  H      -2.165666     -0.998502      0.372071
  H      -2.194538      0.639979      0.491009
  H       2.341171     -0.268688     -0.014216
  O      -4.517409      0.068653     -0.539219
  C      -3.554641     -0.090478     -1.247588
  O      -3.227326     -0.233769     -2.396399
14
Coordinates from ORCA-job ./orca E -398.960998549518
  O       1.586980     -0.203780     -0.629687
  N      -2.081928     -0.133690     -0.169322
  C      -0.780744     -0.069131     -0.847425
  C       0.370986     -0.232293      0.132012
  H      -0.709953      0.890887     -1.359937
  H      -0.749305     -0.863101     -1.594128
  H       0.275821     -1.184780      0.665295
  H       0.363227      0.579977      0.866126
  H      -2.179702     -0.998167      0.360406
  H      -2.208861      0.640310      0.479336
  H       2.328191     -0.268432     -0.013702
  O      -4.473817      0.067459     -0.516720
  C      -3.509143     -0.091662     -1.222500
  O      -3.178734     -0.234911     -2.370435
14
Coordinates from ORCA-job ./orca E -398.961308944396
  O       1.589411     -0.204509     -0.624597
  N      -2.079017     -0.133603     -0.174159
  C      -0.775796     -0.068415     -0.851031
  C       0.371425     -0.231802      0.133188
  H      -0.704339      0.891809     -1.362483
  H      -0.742532     -0.862407     -1.596840
  H       0.273664     -1.183981      0.666550
  H       0.361813      0.580883      0.866767
  H      -2.173449     -0.998752      0.356395
  H      -2.201585      0.638061      0.478783
  H       2.328427     -0.269105     -0.005988
  O      -4.481398      0.067107     -0.512791
  C      -3.512141     -0.088697     -1.219162
  O      -3.201465     -0.237903     -2.375311
14
Coordinates from ORCA-job ./orca E -398.959189962304
  O       1.592586     -0.199550     -0.615691
  N      -2.074184     -0.156917     -0.180479
  C      -0.768762     -0.085755     -0.859626
  C       0.371411     -0.226995      0.135299
  H      -0.706865      0.869695     -1.380029
  H      -0.726188     -0.888657     -1.594142
  H       0.277558     -1.172983      0.680202
  H       0.350641      0.594956      0.858079
  H      -2.152043     -1.018260      0.361344
  H      -2.191851      0.617104      0.472279
  H       2.328108     -0.249325      0.008473
  O      -4.488655      0.112456     -0.511489
  C      -3.520588     -0.130742     -1.207672
  O      -3.238150     -0.166341     -2.387230
14
Coordinates from ORCA-job ./orca E -398.961404435970
  O       1.592308     -0.204799     -0.619155
  N      -2.074967     -0.136920     -0.176844
  C      -0.770560     -0.070424     -0.855944
  C       0.371908     -0.230668      0.134017
  H      -0.701328      0.889502     -1.367731
  H      -0.736104     -0.866503     -1.599354
  H       0.272091     -1.181389      0.669499
  H       0.358806      0.583882      0.865357
  H      -2.163755     -1.002354      0.355130
  H      -2.192491      0.632462      0.480715
  H       2.328850     -0.266660      0.002766
  O      -4.491323      0.073518     -0.514576
  C      -3.513885     -0.091070     -1.213814
  O      -3.226533     -0.229890     -2.380744
14
Coordinates from ORCA-job ./orca E -398.961417113443
  O       1.591299     -0.204598     -0.621499
  N      -2.076157     -0.136019     -0.174196
  C      -0.772752     -0.069908     -0.854342
  C       0.371752     -0.231121      0.133305
  H      -0.703818      0.890192     -1.365917
  H      -0.740017     -0.865404     -1.598420
  H       0.272762     -1.182304      0.668138
  H       0.359650      0.582778      0.865411
  H      -2.166972     -1.001782      0.356591
  H      -2.195005      0.633997      0.482047
  H       2.328741     -0.266892     -0.000714
  O      -4.488502      0.072499     -0.516843
  C      -3.511861     -0.089561     -1.215584
  O      -3.216103     -0.233191     -2.378658
14
Coordinates from ORCA-job ./orca E -398.961415811341
  O       1.591445     -0.204481     -0.621287
  N      -2.075908     -0.136348     -0.173973
  C      -0.772540     -0.070129     -0.854595
  C       0.371786     -0.231082      0.133267
  H      -0.704000      0.889975     -1.366164
  H      -0.740012     -0.865775     -1.598481
  H       0.272784     -1.182205      0.668198
  H       0.359383      0.582913      0.865258
  H      -2.166468     -1.002294      0.356567
  H      -2.194219      0.633499      0.482603
  H       2.328767     -0.266369     -0.000315
  O      -4.489164      0.073439     -0.517518
  C      -3.511642     -0.089346     -1.215296
  O      -3.217193     -0.233109     -2.378946
14
Coordinates from ORCA-job ./orca E -398.961421529438
  O       1.591412     -0.204258     -0.621443
  N      -2.075913     -0.136691     -0.173464
  C      -0.772687     -0.070383     -0.854554
  C       0.371797     -0.231093      0.133153
  H      -0.704568      0.889724     -1.366147
  H      -0.740465     -0.866107     -1.598333
  H       0.273008     -1.182216      0.668120
  H       0.359220      0.582936      0.865102
  H      -2.166548     -1.002880      0.356628
  H      -2.193974      0.633058      0.483252
  H       2.328780     -0.265690     -0.000482
  O      -4.489183      0.074717     -0.518302
  C      -3.511244     -0.089069     -1.215313
  O      -3.216617     -0.233361     -2.378896
14
Coordinates from ORCA-job ./orca E -398.963077808468
  O       1.580027     -0.203969     -0.622889
  N      -2.088502     -0.136267     -0.184790
  C      -0.783438     -0.069984     -0.862365
  C       0.358377     -0.230786      0.128419
  H      -0.713900      0.890142     -1.373732
  H      -0.749246     -0.865678     -1.606091
  H       0.258106     -1.181927      0.663079
  H       0.343862      0.583213      0.860370
  H      -2.180603     -1.002474      0.345021
  H      -2.208301      0.633459      0.471642
  H       2.315719     -0.265460      0.000057
  O      -4.445486      0.073422     -0.495947
  C      -3.465676     -0.090375     -1.190330
  O      -3.167919     -0.234629     -2.353125
14
Coordinates from ORCA-job ./orca E -398.963369939821
  O       1.582605     -0.204742     -0.617556
  N      -2.085788     -0.136887     -0.189943
  C      -0.778314     -0.070038     -0.866233
  C       0.358845     -0.229936      0.129590
  H      -0.708324      0.890024     -1.377037
  H      -0.741962     -0.866123     -1.608610
  H       0.256114     -1.180260      0.665242
  H       0.342178      0.585219      0.860181
  H      -2.174729     -1.004273      0.339875
  H      -2.199974      0.629479      0.472113
  H       2.315964     -0.265347      0.008211
  O      -4.453160      0.073569     -0.491523
  C      -3.468789     -0.085385     -1.187180
  O      -3.191646     -0.236614     -2.357811
14
Coordinates from ORCA-job ./orca E -398.960545148745
  O       1.586399     -0.197800     -0.606506
  N      -2.081045     -0.167964     -0.198596
  C      -0.769704     -0.093951     -0.876851
  C       0.358730     -0.223159      0.132182
  H      -0.711893      0.859405     -1.400136
  H      -0.720508     -0.901725     -1.604077
  H       0.261949     -1.164623      0.684306
  H       0.327376      0.605079      0.847283
  H      -2.151236     -1.032689      0.341648
  H      -2.185336      0.598059      0.467640
  H       2.315347     -0.237677      0.026074
  O      -4.460852      0.131258     -0.487940
  C      -3.479602     -0.128425     -1.174455
  O      -3.236608     -0.147104     -2.371252
14
Coordinates from ORCA-job ./orca E -398.963466203384
  O       1.584934     -0.203707     -0.612951
  N      -2.082898     -0.144061     -0.192312
  C      -0.774033     -0.075901     -0.870705
  C       0.359284     -0.227755      0.130445
  H      -0.707794      0.882675     -1.384374
  H      -0.735100     -0.875789     -1.608791
  H       0.256785     -1.175230      0.671087
  H       0.337958      0.591430      0.856308
  H      -2.167493     -1.012861      0.336799
  H      -2.190455      0.618210      0.476541
  H       2.316344     -0.258221      0.015722
  O      -4.460952      0.086292     -0.492943
  C      -3.470630     -0.086267     -1.182607
  O      -3.212931     -0.220126     -2.362899
14
Coordinates from ORCA-job ./orca E -398.963482779186
  O       1.584212     -0.203413     -0.614505
  N      -2.083533     -0.143189     -0.190223
  C      -0.775525     -0.075595     -0.869752
  C       0.359094     -0.228062      0.129916
  H      -0.709621      0.882998     -1.383446
  H      -0.738197     -0.875317     -1.608061
  H       0.257176     -1.175862      0.670098
  H       0.338208      0.590667      0.856315
  H      -2.170077     -1.012827      0.337047
  H      -2.191078      0.619005      0.478531
  H       2.316215     -0.258047      0.013455
  O      -4.459358      0.084864     -0.494933
  C      -3.468788     -0.082827     -1.183826
  O      -3.205708     -0.223708     -2.361297
14
Coordinates from ORCA-job ./orca E -398.963481788681
  O       1.584279     -0.202892     -0.614413
  N      -2.083466     -0.144146     -0.189827
  C      -0.775564     -0.076631     -0.869958
  C       0.359081     -0.227857      0.129838
  H      -0.710341      0.881635     -1.384305
  H      -0.738356     -0.876947     -1.607585
  H       0.257652     -1.175376      0.670605
  H       0.337514      0.591327      0.855712
  H      -2.170265     -1.014332      0.336457
  H      -2.189944      0.617529      0.479692
  H       2.316238     -0.256458      0.013691
  O      -4.459573      0.086693     -0.495516
  C      -3.468467     -0.081743     -1.183658
  O      -3.205770     -0.222115     -2.361412
14
Coordinates from ORCA-job ./orca E -398.964747058876
  O       1.572827     -0.202628     -0.615820
  N      -2.096053     -0.143514     -0.201102
  C      -0.786315     -0.076108     -0.877711
  C       0.345624     -0.227494      0.125133
  H      -0.719606      0.882172     -1.391843
  H      -0.747205     -0.876398     -1.615270
  H       0.242640     -1.175024      0.665588
  H       0.322190      0.591663      0.850982
  H      -2.184360     -1.013711      0.324913
  H      -2.204253      0.618146      0.468162
  H       2.303091     -0.256296      0.014252
  O      -4.415765      0.085085     -0.473316
  C      -3.422825     -0.083427     -1.158798
  O      -3.156972     -0.223779     -2.335850
14
Coordinates from ORCA-job ./orca E -398.965053441768
  O       1.575775     -0.203543     -0.609726
  N      -2.093348     -0.146093     -0.206827
  C      -0.780965     -0.078249     -0.882426
  C       0.345976     -0.225762      0.126210
  H      -0.714500      0.879165     -1.397511
  H      -0.739010     -0.880230     -1.617148
  H       0.240735     -1.171129      0.670017
  H       0.319461      0.596397      0.848572
  H      -2.178830     -1.018645      0.317203
  H      -2.193706      0.610354      0.470398
  H       2.303253     -0.254090      0.023818
  O      -4.423365      0.086868     -0.467545
  C      -3.426205     -0.075858     -1.155338
  O      -3.182254     -0.220499     -2.340378
14
Coordinates from ORCA-job ./orca E -398.962190144886
  O       1.579777     -0.195338     -0.597408
  N      -2.089232     -0.184066     -0.216278
  C      -0.772651     -0.109295     -0.894758
  C       0.345009     -0.216692      0.128192
  H      -0.720815      0.838757     -1.427034
  H      -0.715621     -0.926526     -1.609840
  H       0.247450     -1.149423      0.694771
  H       0.300326      0.623119      0.829028
  H      -2.157644     -1.057568      0.312061
  H      -2.173762      0.567171      0.471184
  H       2.301739     -0.218120      0.044049
  O      -4.428484      0.151952     -0.460303
  C      -3.437421     -0.111544     -1.142690
  O      -3.225654     -0.113741     -2.351653
14
Coordinates from ORCA-job ./orca E -398.965148159896
  O       1.578095     -0.201280     -0.604640
  N      -2.090869     -0.157909     -0.209415
  C      -0.776998     -0.089253     -0.887695
  C       0.346097     -0.222014      0.126927
  H      -0.716153      0.864761     -1.409316
  H      -0.730964     -0.897815     -1.614914
  H       0.242893     -1.162218      0.679945
  H       0.312456      0.607352      0.840668
  H      -2.173923     -1.034325      0.309496
  H      -2.180866      0.590923      0.478600
  H       2.303320     -0.240792      0.032322
  O      -4.429631      0.105218     -0.467103
  C      -3.427996     -0.071702     -1.150570
  O      -3.202443     -0.192261     -2.344985
14
Coordinates from ORCA-job ./orca E -398.965167794313
  O       1.577352     -0.200179     -0.606047
  N      -2.091404     -0.157388     -0.207366
  C      -0.778425     -0.089480     -0.886833
  C       0.345853     -0.222360      0.126449
  H      -0.718090      0.864328     -1.408882
  H      -0.733927     -0.898129     -1.614000
  H       0.243688     -1.163082      0.678792
  H       0.311909      0.606427      0.840858
  H      -2.176650     -1.034836      0.309325
  H      -2.180900      0.591117      0.480872
  H       2.303170     -0.239545      0.030236
  O      -4.427977      0.105135     -0.469024
  C      -3.426115     -0.067552     -1.151605
  O      -3.195466     -0.195767     -2.343454
14
Coordinates from ORCA-job ./orca E -398.965177569404
  O       1.577446     -0.198857     -0.605745
  N      -2.091335     -0.159172     -0.207002
  C      -0.778493     -0.091535     -0.887247
  C       0.345746     -0.222013      0.126329
  H      -0.719178      0.861546     -1.410680
  H      -0.733952     -0.901284     -1.613146
  H       0.244632     -1.162313      0.679583
  H       0.310239      0.607486      0.839854
  H      -2.177248     -1.037615      0.307848
  H      -2.178960      0.588218      0.482681
  H       2.303122     -0.236416      0.030809
  O      -4.427816      0.108779     -0.469269
  C      -3.425733     -0.065324     -1.151294
  O      -3.195451     -0.192813     -2.343401
14
Coordinates from ORCA-job ./orca E -398.965176144588
  O       1.577583     -0.195291     -0.605049
  N      -2.091281     -0.163610     -0.206287
  C      -0.778776     -0.096537     -0.888129
  C       0.345446     -0.221158      0.126044
  H      -0.721824      0.854746     -1.414985
  H      -0.733968     -0.908841     -1.611085
  H       0.247080     -1.160571      0.681298
  H       0.306044      0.609927      0.837567
  H      -2.178998     -1.044553      0.303898
  H      -2.174848      0.580986      0.486864
  H       2.302934     -0.228709      0.032101
  O      -4.426626      0.118770     -0.469303
  C      -3.424932     -0.060159     -1.150631
  O      -3.194815     -0.186314     -2.342983
14
Coordinates from ORCA-job ./orca E -398.965178616367
  O       1.577660     -0.194399     -0.604774
  N      -2.091265     -0.164481     -0.206452
  C      -0.778738     -0.097378     -0.888318
  C       0.345401     -0.220951      0.126042
  H      -0.722097      0.853586     -1.415783
  H      -0.733674     -0.910049     -1.610857
  H       0.247585     -1.160290      0.681525
  H       0.305174      0.610340      0.837285
  H      -2.179331     -1.046014      0.302690
  H      -2.174286      0.579353      0.487589
  H       2.302894     -0.227359      0.032529
  O      -4.426123      0.121546     -0.468854
  C      -3.424987     -0.059179     -1.150491
  O      -3.195197     -0.186038     -2.342812
14
Coordinates from ORCA-job ./orca E -398.965498916534
  O       1.566136     -0.194199     -0.606136
  N      -2.103848     -0.163255     -0.217649
  C      -0.789475     -0.096505     -0.895995
  C       0.331910     -0.220422      0.121376
  H      -0.731151      0.854458     -1.423282
  H      -0.742703     -0.909169     -1.618435
  H       0.232340     -1.159749      0.676571
  H       0.290012      0.610861      0.832534
  H      -2.193528     -1.044777      0.291234
  H      -2.188520      0.580583      0.476189
  H       2.289653     -0.227381      0.033110
  O      -4.382194      0.119038     -0.446858
  C      -3.379282     -0.061951     -1.125816
  O      -3.146332     -0.188844     -2.317524
14
Coordinates from ORCA-job ./orca E -398.965771532627
  O       1.569407     -0.195617     -0.599535
  N      -2.101349     -0.163983     -0.224338
  C      -0.783636     -0.097208     -0.900852
  C       0.332311     -0.218945      0.122452
  H      -0.724408      0.853267     -1.428179
  H      -0.734010     -0.910807     -1.621293
  H       0.229539     -1.156459      0.680154
  H       0.287803      0.614700      0.830727
  H      -2.187866     -1.047925      0.282642
  H      -2.177467      0.573519      0.478419
  H       2.289832     -0.227078      0.043287
  O      -4.390093      0.119208     -0.440132
  C      -3.382917     -0.052706     -1.122648
  O      -3.174127     -0.191281     -2.321384
14
Coordinates from ORCA-job ./orca E -398.961940973386
  O       1.575837     -0.186999     -0.580923
  N      -2.096437     -0.205112     -0.241463
  C      -0.769860     -0.129655     -0.917408
  C       0.331081     -0.208746      0.125153
  H      -0.724224      0.810821     -1.461466
  H      -0.700342     -0.958037     -1.616800
  H       0.233360     -1.132082      0.707016
  H       0.265309      0.643476      0.809346
  H      -2.156663     -1.089799      0.273905
  H      -2.149789      0.523029      0.477210
  H       2.287287     -0.190282      0.072616
  O      -4.399342      0.194556     -0.426046
  C      -3.400325     -0.094400     -1.107129
  O      -3.242875     -0.078085     -2.334690
14
Coordinates from ORCA-job ./orca E -398.965858227552
  O       1.571294     -0.193338     -0.595798
  N      -2.100223     -0.175455     -0.226697
  C      -0.780293     -0.106505     -0.904560
  C       0.332836     -0.215327      0.123238
  H      -0.726541      0.841169     -1.437239
  H      -0.726200     -0.925047     -1.619093
  H       0.232117     -1.148277      0.688895
  H       0.282734      0.624338      0.823970
  H      -2.182330     -1.062156      0.277217
  H      -2.169357      0.554583      0.485372
  H       2.290078     -0.216234      0.049263
  O      -4.394808      0.141046     -0.440744
  C      -3.385303     -0.055029     -1.118789
  O      -3.190987     -0.165082     -2.325716
14
Coordinates from ORCA-job ./orca E -398.965893518660
  O       1.570362     -0.192471     -0.597372
  N      -2.100495     -0.172523     -0.224391
  C      -0.781538     -0.103984     -0.903438
  C       0.332532     -0.216465      0.122762
  H      -0.727567      0.844553     -1.434557
  H      -0.729848     -0.921169     -1.619706
  H       0.231941     -1.151287      0.685351
  H       0.282902      0.620838      0.826313
  H      -2.183805     -1.059586      0.278646
  H      -2.170081      0.558408      0.486518
  H       2.289822     -0.218041      0.046825
  O      -4.393656      0.138816     -0.443697
  C      -3.383071     -0.051553     -1.120007
  O      -3.184480     -0.176848     -2.323927
14
Coordinates from ORCA-job ./orca E -398.965889518462
  O       1.570459     -0.191236     -0.597422
  N      -2.100655     -0.172838     -0.223865
  C      -0.781603     -0.104121     -0.903329
  C       0.332656     -0.216765      0.122673
  H      -0.728055      0.844528     -1.434261
  H      -0.730299     -0.921137     -1.619769
  H       0.232743     -1.152156      0.684428
  H       0.282340      0.619880      0.826976
  H      -2.183630     -1.059974      0.279008
  H      -2.169854      0.558276      0.486852
  H       2.289968     -0.217127      0.046712
  O      -4.393751      0.141953     -0.444821
  C      -3.382870     -0.051737     -1.119979
  O      -3.184431     -0.178858     -2.323884
