14
Coordinates from ORCA-job ./orca E -398.965889518462
  O           1.57045856831758     -0.19123618658383     -0.59742151741945
  N          -2.10065495333091     -0.17283775653352     -0.22386489016180
  C          -0.78160347549869     -0.10412111284424     -0.90332911322101
  C           0.33265605824115     -0.21676483426250      0.12267271778097
  H          -0.72805487954313      0.84452794228024     -1.43426055716622
  H          -0.73029870066964     -0.92113681855283     -1.61976923843410
  H           0.23274290810019     -1.15215640035821      0.68442845862900
  H           0.28234020347570      0.61987972310742      0.82697613319785
  H          -2.18362950252884     -1.05997418835862      0.27900790178799
  H          -2.16985410327069      0.55827635886314      0.48685242991285
  H           2.28996767436681     -0.21712725935495      0.04671170889273
  O          -4.39375053336942      0.14195305233368     -0.44482107042900
  C          -3.38286983983047     -0.05173739443434     -1.11997910179601
  O          -3.18443147475927     -0.17885845280142     -2.32388420247359
