14
Coordinates from ORCA-job ./orca E -398.962890574268
  O           1.78141263915297     -0.30764486461025     -0.58869390873961
  N          -1.89909073690174      0.01348481114295     -0.03631919223330
  C          -0.60514408952826     -0.06225646879164     -0.72657865235354
  C           0.58390034143085     -0.24279214422885      0.20733397627473
  H          -0.46743979529485      0.85331440339471     -1.30976070707225
  H          -0.63543969062285     -0.89645865884560     -1.43418875415329
  H           0.46513690305861     -1.16597998980978      0.78703797319092
  H           0.64028293899963      0.59972276815291      0.90620128864325
  H          -2.02719211512648     -0.81558839459164      0.53884515493280
  H          -1.89580445409458      0.80063605453276      0.60724192899675
  H           2.53694514888796     -0.39199608466841      0.00692768138602
  O          -5.06638721944235     -0.45930578893409     -0.77387417547637
  C          -4.46508771613057     -0.16113369307408     -1.72000600469565
  O          -3.89307420468813      0.13468472283101     -2.68484694960033
