14
Coordinates from ORCA-job ./orca E -398.961941812567
  O           1.76228096778664     -0.30459279060471     -0.58815312839180
  N          -1.92285806606150      0.01054283518094     -0.06212278412628
  C          -0.62340289367753     -0.06205544156374     -0.74176081017112
  C           0.55925760057228     -0.24258819562921      0.19991566834557
  H          -0.48317451320604      0.85472448736785     -1.32258269041740
  H          -0.64787781558115     -0.89480916426003     -1.45140686617113
  H           0.43795479463452     -1.16688312921189      0.77730750079829
  H           0.60987667138913      0.59876321638857      0.90061064664758
  H          -2.05611378896300     -0.82105405898649      0.50809708726100
  H          -1.92534127771510      0.79471892998842      0.58513810711661
  H           2.51383215602178     -0.38985705143269      0.01236091329094
  O          -4.98229834852486     -0.44626789868346     -0.72383910139219
  C          -4.37525880474166     -0.15813710582725     -1.66974569915955
  O          -3.81385873223326      0.12618203977367     -2.64449918453037
