14
Coordinates from ORCA-job ./orca E -398.964462992192
  O           1.89579443033289     -0.34935036584866     -0.64928832950548
  N          -1.70739887748219      0.07103129828560      0.24292407653155
  C          -0.48791007997246     -0.05036164016800     -0.56726159970491
  C           0.78064146465650     -0.23701242717068      0.25338531968818
  H          -0.38913181524906      0.84830376732065     -1.18365844473923
  H          -0.60364692910294     -0.89992546274062     -1.24702151939676
  H           0.69766879059218     -1.14349815630616      0.86462619125785
  H           0.92204620354441      0.61939210706816      0.92290240653761
  H          -1.79384638512823     -0.74076263239201      0.84957476611041
  H          -1.62589060900429      0.87381271895560      0.86150987249852
  H           2.69892925770985     -0.45830844552471     -0.12403046942089
  O          -5.78825800682975     -0.63048029478679     -1.30459211081247
  C          -5.11077773061577     -0.21147667967855     -2.14754501044957
  O          -4.43520176375103      0.20732288548617     -2.99220548949473
