14
Coordinates from ORCA-job ./orca E -398.964254149750
  O           1.83993509358688     -0.32927624694809     -0.60510104829346
  N          -1.81478134151412      0.03851232129560      0.07141942516887
  C          -0.54653270758203     -0.05498656249969     -0.66374210535912
  C           0.67142431158125     -0.24199151925938      0.23068349441594
  H          -0.42045853379514      0.85542535866537     -1.25736115470587
  H          -0.60989889936306     -0.89360143247367     -1.36372302399086
  H           0.56100691715886     -1.15856651664286      0.82239355713774
  H           0.76285805544780      0.60569533895651      0.91952889119419
  H          -1.92590976444658     -0.78112634948689      0.66345760494822
  H          -1.78505268726476      0.83565028897046      0.70163210459371
  H           2.61372358686541     -0.42227360736935     -0.03477826021759
  O          -5.38902656364339     -0.54180762762517     -0.99192174973571
  C          -4.76209633481430     -0.18473339276926     -1.90002071636266
  O          -4.14217318251666      0.17176661968642     -2.81314735969329
