14
Coordinates from ORCA-job ./orca E -398.963773208522
  O           1.80831047567147     -0.31547917762284     -0.59292813621357
  N          -1.86290160671032      0.02273518689879      0.00655814660982
  C          -0.57866714379237     -0.05978380931460     -0.70132958783115
  C           0.62129914731087     -0.24308622697505      0.21792969280764
  H          -0.44514121443611      0.85395694343537     -1.28821186874979
  H          -0.62180100814033     -0.89556339784319     -1.40629714122582
  H           0.50571085799099     -1.16416122797353      0.80162678114486
  H           0.69038595923927      0.60105199892436      0.91370244997434
  H          -1.98409910609974     -0.80259119772717      0.58862940982567
  H          -1.84912858702817      0.81385691554429      0.64496242267514
  H           2.57087911486018     -0.40151484044616     -0.00659845588716
  O          -5.20079129174933     -0.48903951783062     -0.85970314934753
  C          -4.59542730644832     -0.16980570103370     -1.79614931391063
  O          -4.00561034096791      0.14811072446407     -2.74287159077168
