14
Coordinates from ORCA-job ./orca E -398.964458979685
  O           1.89163130477842     -0.34906753280382     -0.64220673011803
  N          -1.71909118804422      0.06816130403632      0.22010039068861
  C          -0.49230575566188     -0.05015796920198     -0.57936945633684
  C           0.76932765805115     -0.23786749125080      0.25175503324907
  H          -0.38886316934174      0.85001534157486     -1.19276326950919
  H          -0.60118254703917     -0.89822245756499     -1.26214650222190
  H           0.68131061499442     -1.14519764650130      0.86106256145717
  H           0.90550800040969      0.61764382108085      0.92344843865647
  H          -1.80864672449392     -0.74358974622424      0.82640052198856
  H          -1.64560839946215      0.87151183407986      0.83890727876805
  H           2.69097383147551     -0.45602967172994     -0.11083032323004
  O          -5.75011237268594     -0.62703274783997     -1.27140416875118
  C          -5.07600300363374     -0.20943757414438     -2.11775194951062
  O          -4.40392029964634      0.20795720898954     -2.96588216603005
