14
Coordinates from ORCA-job ./orca E -398.954144402592
  O           1.64825990129052     -0.21527076726681     -0.62393928183386
  N          -2.03632966337882     -0.12881312437070     -0.12565276509989
  C          -0.73846465380323     -0.10433394771035     -0.80020502357287
  C           0.44010974926800     -0.22830311364609      0.15553658276793
  H          -0.65698912918244      0.83043392892984     -1.36095661883681
  H          -0.70823312062407     -0.92603999867812     -1.52077999918061
  H           0.36423966295653     -1.16354240518365      0.72214694499707
  H           0.43819761891313      0.60721592806325      0.86433145046313
  H          -2.14750631152148     -0.97834492825621      0.42125732562703
  H          -2.13211544894182      0.65516790769025      0.51402229590614
  H           2.39852087445213     -0.26660064306467     -0.01781860963780
  O          -4.65734238886813     -0.07561351138359     -0.57575009930512
  C          -3.81253010774069     -0.06498253710121     -1.39605344588249
  O          -3.34679903311931     -0.04228611552193     -2.47681909731167
