14
Coordinates from ORCA-job ./orca E -398.964310073439
  O           1.84753713828585     -0.33263658419826     -0.60849185989346
  N          -1.80270819595043      0.04205906171645      0.08806291382021
  C          -0.53869064333393     -0.05419129484465     -0.65407568850346
  C           0.68400995663776     -0.24143349832433      0.23378092149479
  H          -0.41484370654996      0.85514495431950     -1.24980689572573
  H          -0.60707428366598     -0.89383614296064     -1.35233757580580
  H           0.57534755257070     -1.15658249147303      0.82800587515068
  H           0.78105766501664      0.60748265811441      0.92034126431928
  H          -1.91104243498480     -0.77618887441339      0.68254005045843
  H          -1.76877289363632      0.84059676519672      0.71628470403327
  H           2.62422233784844     -0.42715793196169     -0.04237706859759
  O          -5.43708019684278     -0.55485155326649     -1.02662437431477
  C          -4.80338677343782     -0.18802968388814     -1.92610118817585
  O          -4.17555757225723      0.17831128848354     -2.82988141915989
