14
Coordinates from ORCA-job ./orca E -398.962446957384
  O           1.77285075431960     -0.30592745726754     -0.58687130017733
  N          -1.91059796359941      0.01132520454201     -0.05120322688320
  C          -0.61340728291128     -0.06244549508328     -0.73523792713736
  C           0.57166438817390     -0.24285191080788      0.20376160421895
  H          -0.47382180621193      0.85384838855039     -1.31688568208467
  H          -0.63965548954043     -0.89588598268449     -1.44395874904998
  H           0.45111116263400     -1.16664864395457      0.78212090030013
  H           0.62412673031943      0.59907919988840      0.90363962098131
  H          -2.04163101406120     -0.81913280139121      0.52124491304469
  H          -1.91079592468127      0.79697868536996      0.59424385404100
  H           2.52576413073488     -0.38953614193049      0.01217086576506
  O          -5.02500907293824     -0.45128975828545     -0.74647507500687
  C          -4.42206972977251     -0.15901466542208     -1.69352399547191
  O          -3.85551093276532      0.13018805097623     -2.66370614343967
