14
Coordinates from ORCA-job ./orca E -398.963262100031
  O           1.79038746746167     -0.30969661438772     -0.59001541872678
  N          -1.88721115817033      0.01586729122565     -0.02203758739091
  C          -0.59643232498702     -0.06188281015449     -0.71822509537340
  C           0.59627942819983     -0.24280840053614      0.21090870012893
  H          -0.46039096081779      0.85301935645875     -1.30279571367349
  H          -0.63074407430690     -0.89675498199403     -1.42481624272880
  H           0.47891604972593     -1.16533005936613      0.79195917956192
  H           0.65649476866169      0.60029522167357      0.90874798659851
  H          -2.01267861557181     -0.81194115905106      0.55556435129640
  H          -1.88044242591109      0.80435152815057      0.61982147297832
  H           2.54828339190013     -0.39438652369559      0.00254379006428
  O          -5.10969840779977     -0.46769923506994     -0.80148388301637
  C          -4.50860807401405     -0.16339110998826     -1.74571033544342
  O          -3.93113711467032      0.13904416923482     -2.70514154517504
