14
Coordinates from ORCA-job ./orca E -398.961360611228
  O           1.75162969166190     -0.30399901112364     -0.58969416575571
  N          -1.93495038082705      0.00973186304937     -0.07247534968672
  C          -0.63371181025609     -0.06163831186746     -0.74836894111481
  C           0.54690529001478     -0.24246707722011      0.19584997544711
  H          -0.49227866867670      0.85569590611140     -1.32808321745889
  H          -0.65590782805164     -0.89376677203273     -1.45886981915437
  H           0.42449039070564     -1.16701018574573      0.77259178772790
  H           0.59595259425035      0.59861193032926      0.89697921291228
  H          -2.07069720915738     -0.82306385585194      0.49532875222124
  H          -1.93966320687106      0.79266977709995      0.57632537483169
  H           2.50191409814814     -0.38949905160634      0.01237037918405
  O          -4.94126977843397     -0.44173011281077     -0.70235271165361
  C          -4.32811372596417     -0.15719678096545     -1.64565295387840
  O          -3.77128150684251      0.12234835513419     -2.62462866452161
