14
Coordinates from ORCA-job ./orca E -398.964382954336
  O           1.86298978740643     -0.33845371744789     -0.61477241497986
  N          -1.77834585590064      0.04858743553768      0.12090745994673
  C          -0.52276411159998     -0.05329139328944     -0.63486248357533
  C           0.70924655682853     -0.24022172426402      0.24003444689132
  H          -0.40354908660898      0.85360731345173     -1.23523780236269
  H          -0.60085683983701     -0.89534497984984     -1.32917830177924
  H           0.60466699349788     -1.15255618734291      0.83927101339268
  H           0.81662662957342      0.61121259996424      0.92192850236703
  H          -1.88127997192272     -0.76699757819995      0.71999139355056
  H          -1.73574551671949      0.84965374059626      0.74539615395961
  H           2.64526236456577     -0.43562311025976     -0.05685861254659
  O          -5.53326259624423     -0.57928041597744     -1.09591493920672
  C          -4.88629809219477     -0.19384586854475     -1.97799390892670
  O          -4.24367231114405      0.19124055812609     -2.86339084763073
