14
Coordinates from ORCA-job scan E -399.088466598798
  O           1.59511022213439     -0.23433434261506     -0.70042947291168
  N          -2.03994450811299     -0.12679686081698     -0.10256933956193
  C          -0.76920551579250     -0.15044815801864     -0.81773903518317
  C           0.42856824655530     -0.22451153605975      0.10909403870858
  H          -0.70607039931045      0.74812323831057     -1.42848924034709
  H          -0.77140848357444     -1.00845152376434     -1.48715208081428
  H           0.37156935424783     -1.13139052496397      0.71719538191753
  H           0.43065649251975      0.63826318853474      0.78082558058660
  H          -2.16445527942623     -0.95831364483706      0.46195613385116
  H          -2.10088379900059      0.66940682945607      0.52032912258225
  H           2.36209989785970     -0.28456660260315     -0.12463785645621
  O          -4.58211313166706     -0.00952412356363     -0.48494121869295
  C          -3.71523117401972     -0.02176948978510     -1.28395854619191
  O          -3.28567397271284     -0.00699977677368     -2.38016380838686
