14
Coordinates from ORCA-job tsopt_simple_opt E -399.088464631519
  O           1.59521641984219     -0.23436327012506     -0.70008688394837
  N          -2.03997325780028     -0.12676240026975     -0.10313308298181
  C          -0.76895037265932     -0.15047040385740     -0.81804870689051
  C           0.42851838803848     -0.22451384496066      0.10920458992258
  H          -0.70559812581428      0.74806411408681     -1.42880937636032
  H          -0.77094200512502     -1.00850406338704     -1.48740495515346
  H           0.37135789636333     -1.13137032440317      0.71732505468357
  H           0.43044321549322      0.63826836330510      0.78092758021522
  H          -2.16429602113822     -0.95828133702555      0.46157961677174
  H          -2.10068831365741      0.66944008404988      0.51992661572356
  H           2.36210552442730     -0.28456401192413     -0.12415181972501
  O          -4.58194465816717     -0.00967451899293     -0.48436989517430
  C          -3.71553876844233     -0.02175907317195     -1.28358748961964
  O          -3.28669197166034     -0.00682264082413     -2.38005158836319
