14
Coordinates from ORCA-job tsopt_opt E -399.088466216303
  O           1.59521558052679     -0.23436325442848     -0.70008611669913
  N          -2.03997199157060     -0.12676252025865     -0.10313396709154
  C          -0.76894955360405     -0.15047047032585     -0.81804957730809
  C           0.42851711689189     -0.22451370641511      0.10920394109093
  H          -0.70559720869134      0.74806353339396     -1.42880971294842
  H          -0.77094092407383     -1.00850378704748     -1.48740505355696
  H           0.37135612324575     -1.13136948419152      0.71732384861621
  H           0.43044134295264      0.63826802906547      0.78092606554512
  H          -2.16429458408987     -0.95828212478353      0.46157906393969
  H          -2.10068672863276      0.66944042009692      0.51992624475351
  H           2.36210413653302     -0.28456402462413     -0.12414963995825
  O          -4.58194392916372     -0.00967449761047     -0.48436934740303
  C          -3.71553900679789     -0.02175899848820     -1.28358576558159
  O          -3.28669242382590     -0.00682244188291     -2.38005032429841
