14
Coordinates from ORCA-job tsopt_simple_opt E -399.088471178017
  O       1.595110     -0.234334     -0.700429
  N      -2.039945     -0.126797     -0.102569
  C      -0.769206     -0.150448     -0.817739
  C       0.428568     -0.224512      0.109094
  H      -0.706070      0.748123     -1.428489
  H      -0.771408     -1.008452     -1.487152
  H       0.371569     -1.131391      0.717195
  H       0.430656      0.638263      0.780826
  H      -2.164455     -0.958314      0.461956
  H      -2.100884      0.669407      0.520329
  H       2.362100     -0.284567     -0.124638
  O      -4.582113     -0.009524     -0.484941
  C      -3.715231     -0.021769     -1.283959
  O      -3.285674     -0.007000     -2.380164
14
Coordinates from ORCA-job tsopt_simple_opt E -399.088464631519
  O       1.595216     -0.234363     -0.700087
  N      -2.039973     -0.126762     -0.103133
  C      -0.768950     -0.150470     -0.818049
  C       0.428518     -0.224514      0.109205
  H      -0.705598      0.748064     -1.428809
  H      -0.770942     -1.008504     -1.487405
  H       0.371358     -1.131370      0.717325
  H       0.430443      0.638268      0.780928
  H      -2.164296     -0.958281      0.461580
  H      -2.100688      0.669440      0.519927
  H       2.362106     -0.284564     -0.124152
  O      -4.581945     -0.009675     -0.484370
  C      -3.715539     -0.021759     -1.283587
  O      -3.286692     -0.006823     -2.380052
