14
Coordinates from ORCA-job tsopt_opt E -399.088475050011
  O       1.595110     -0.234334     -0.700429
  N      -2.039945     -0.126797     -0.102569
  C      -0.769206     -0.150448     -0.817739
  C       0.428568     -0.224512      0.109094
  H      -0.706070      0.748123     -1.428489
  H      -0.771408     -1.008452     -1.487152
  H       0.371569     -1.131391      0.717195
  H       0.430656      0.638263      0.780826
  H      -2.164455     -0.958314      0.461956
  H      -2.100884      0.669407      0.520329
  H       2.362100     -0.284567     -0.124638
  O      -4.582113     -0.009524     -0.484941
  C      -3.715231     -0.021769     -1.283959
  O      -3.285674     -0.007000     -2.380164
14
Coordinates from ORCA-job tsopt_opt E -399.088466216303
  O       1.595216     -0.234363     -0.700086
  N      -2.039972     -0.126763     -0.103134
  C      -0.768950     -0.150470     -0.818050
  C       0.428517     -0.224514      0.109204
  H      -0.705597      0.748064     -1.428810
  H      -0.770941     -1.008504     -1.487405
  H       0.371356     -1.131369      0.717324
  H       0.430441      0.638268      0.780926
  H      -2.164295     -0.958282      0.461579
  H      -2.100687      0.669440      0.519926
  H       2.362104     -0.284564     -0.124150
  O      -4.581944     -0.009674     -0.484369
  C      -3.715539     -0.021759     -1.283586
  O      -3.286692     -0.006822     -2.380050
