14
Coordinates from ORCA-job ./orca E -398.954128849068
  O       1.648260     -0.215271     -0.623939
  N      -2.036330     -0.128813     -0.125653
  C      -0.738465     -0.104334     -0.800205
  C       0.440110     -0.228303      0.155537
  H      -0.656989      0.830434     -1.360957
  H      -0.708233     -0.926040     -1.520780
  H       0.364240     -1.163542      0.722147
  H       0.438198      0.607216      0.864331
  H      -2.147506     -0.978345      0.421257
  H      -2.132115      0.655168      0.514022
  H       2.398521     -0.266601     -0.017819
  O      -4.657342     -0.075614     -0.575750
  C      -3.812530     -0.064983     -1.396053
  O      -3.346799     -0.042286     -2.476819
14
Coordinates from ORCA-job ./orca E -398.954140555818
  O       1.645795     -0.211926     -0.623742
  N      -2.037789     -0.125446     -0.127463
  C      -0.739913     -0.092997     -0.801721
  C       0.436874     -0.231382      0.153738
  H      -0.657919      0.849279     -1.350103
  H      -0.710621     -0.905459     -1.533156
  H       0.357393     -1.173761      0.708693
  H       0.436107      0.595089      0.873200
  H      -2.145837     -0.978831      0.414798
  H      -2.137223      0.654883      0.516373
  H       2.395182     -0.268274     -0.017222
  O      -4.649583     -0.037747     -0.572807
  C      -3.799412     -0.073345     -1.388372
  O      -3.340035     -0.101396     -2.472896
14
Coordinates from ORCA-job ./orca E -398.954146532041
  O       1.646324     -0.204986     -0.623746
  N      -2.037803     -0.125554     -0.127404
  C      -0.739520     -0.085016     -0.800639
  C       0.437098     -0.234471      0.153444
  H      -0.657649      0.863719     -1.337708
  H      -0.709705     -0.888733     -1.541657
  H       0.358055     -1.183637      0.696687
  H       0.436208      0.583000      0.882994
  H      -2.142618     -0.981473      0.411640
  H      -2.141300      0.652027      0.519053
  H       2.395796     -0.266534     -0.017621
  O      -4.648532      0.005829     -0.574749
  C      -3.800463     -0.078590     -1.389071
  O      -3.342873     -0.156894     -2.471904
14
Coordinates from ORCA-job ./orca E -398.954148329120
  O       1.646140     -0.206264     -0.624242
  N      -2.037767     -0.124120     -0.126795
  C      -0.739501     -0.079994     -0.800063
  C       0.437153     -0.234081      0.153399
  H      -0.657740      0.870950     -1.332831
  H      -0.709760     -0.880576     -1.544131
  H       0.355841     -1.183903      0.694739
  H       0.438570      0.582170      0.884211
  H      -2.140609     -0.981658      0.409576
  H      -2.143121      0.651444      0.521485
  H       2.395603     -0.273116     -0.018670
  O      -4.648502      0.012587     -0.576409
  C      -3.800561     -0.082027     -1.389691
  O      -3.342726     -0.172723     -2.471258
14
Coordinates from ORCA-job ./orca E -398.954148780158
  O       1.645939     -0.205515     -0.624612
  N      -2.037834     -0.124230     -0.126197
  C      -0.739745     -0.078883     -0.799710
  C       0.437128     -0.234276      0.153273
  H      -0.658301      0.872893     -1.330901
  H      -0.710050     -0.878276     -1.544976
  H       0.355901     -1.184737      0.693360
  H       0.438722      0.581065      0.885082
  H      -2.139849     -0.982082      0.409725
  H      -2.143669      0.650993      0.522346
  H       2.395510     -0.273772     -0.019343
  O      -4.648340      0.017663     -0.577617
  C      -3.800337     -0.082741     -1.390143
  O      -3.342057     -0.179416     -2.470967
14
Coordinates from ORCA-job ./orca E -398.954148516482
  O       1.645894     -0.204963     -0.624686
  N      -2.037865     -0.124310     -0.126071
  C      -0.739787     -0.078678     -0.799614
  C       0.437128     -0.234380      0.153260
  H      -0.658382      0.873300     -1.330385
  H      -0.710083     -0.877758     -1.545168
  H       0.356112     -1.185119      0.692828
  H       0.438594      0.580595      0.885458
  H      -2.139795     -0.982283      0.409614
  H      -2.143766      0.650757      0.522606
  H       2.395516     -0.273669     -0.019518
  O      -4.648275      0.019696     -0.577935
  C      -3.800280     -0.082841     -1.390221
  O      -3.341993     -0.181662     -2.470849
