14
Coordinates from ORCA-job scan E -399.088678107471
  O           1.58522059758041     -0.23475016117366     -0.69899496087761
  N          -2.04715770344341     -0.12331570421098     -0.11326686573491
  C          -0.77478393523778     -0.14750211729940     -0.82843077617761
  C           0.41650791287707     -0.22463760267339      0.10612087500696
  H          -0.71106950782134      0.75244402266545     -1.43610211510732
  H          -0.77849434186485     -1.00523729705433     -1.49729348954269
  H           0.35496092392161     -1.13253537825041      0.71205383968547
  H           0.41638036948683      0.63704506302070      0.77905795060948
  H          -2.17464425429573     -0.95390495354484      0.45264458257696
  H          -2.11324880653126      0.67522597904323      0.50671588176736
  H           2.35002349370925     -0.28827505010365     -0.12052140609908
  O          -4.55083335216459     -0.01738933307561     -0.46995022455501
  C          -3.65839311595025     -0.02818456114098     -1.24918062207077
  O          -3.26145033056581     -0.01029623370212     -2.36353301038120
