14
Coordinates from ORCA-job scan E -399.088636117569
  O           1.60775526789732     -0.23503096604413     -0.69691115856999
  N          -2.03142948544000     -0.12708879445332     -0.09845623955342
  C          -0.75961102977618     -0.15008602679266     -0.81046675766361
  C           0.44086800851410     -0.22519535154053      0.11320208197035
  H          -0.69392568929116      0.74857206014095     -1.42167732451038
  H          -0.75921046418853     -1.00695593906510     -1.48213541116051
  H           0.38449211039624     -1.13242353309996      0.72105242901346
  H           0.44438462953664      0.63699689660508      0.78585256444416
  H          -2.15030629380070     -0.95781608680840      0.46830519792316
  H          -2.08813399370996      0.66796793935235      0.52617488529088
  H           2.37497276604508     -0.28616713913763     -0.12154483507487
  O          -4.61330822741993     -0.00669737479671     -0.49138212574362
  C          -3.77804947121682     -0.01914620472221     -1.31554129567212
  O          -3.32548017784598     -0.00824280713771     -2.39715235159344
