14
Coordinates from ORCA-job scan E -399.093073023639
  O           1.71952168527986     -0.30096727716054     -0.65354084277787
  N          -1.93453241520967     -0.10798312338305     -0.06938204219864
  C          -0.65822204828881     -0.19427145912871     -0.76934480624867
  C           0.54839831803646     -0.22063001049459      0.15018573012061
  H          -0.57496527882653      0.65745369825913     -1.44509545554396
  H          -0.65877599801091     -1.09520050749949     -1.38362748554456
  H           0.48205743689697     -1.08291081951099      0.82010851627657
  H           0.56403099894534      0.68555000726459      0.76305317677199
  H          -2.03889134247075     -0.89416676760683      0.55991573972018
  H          -1.95419197614370      0.72211556841992      0.51031592349151
  H           2.48398193225555     -0.33020420930467     -0.07316694582975
  O          -4.89944001896061     -0.35397759025141     -0.62365338544708
  C          -4.27917744201224      0.01813548395409     -1.52601346630820
  O          -3.74677590179091      0.39574367894256     -2.48043499738212
