14
Coordinates from ORCA-job scan E -399.090221865524
  O           1.56509382778259     -0.23504197904574     -0.69396235350644
  N          -2.06392090025586     -0.11855371742721     -0.13889021483151
  C          -0.78459009226768     -0.14309024466704     -0.85217840498290
  C           0.39105225056643     -0.22486257196920      0.10073076809613
  H          -0.71944257284722      0.75945427108672     -1.45372641908104
  H          -0.78945568426471     -1.00056123071451     -1.51946578722905
  H           0.32031302792082     -1.13437359244298      0.70286994131263
  H           0.38471205927334      0.63518053498793      0.77540150290807
  H          -2.18992139836759     -0.94686529363888      0.43335485614797
  H          -2.13180433498263      0.68140499387290      0.48162604790963
  H           2.32491139805606     -0.29187027533582     -0.10909475321012
  O          -4.48755938167393     -0.02570525176205     -0.43709266858928
  C          -3.54881680810661     -0.03800753084277     -1.18085368028640
  O          -3.21755344113285     -0.01842143960133     -2.32939917555765
