14
Coordinates from ORCA-job scan E -399.089284981339
  O           1.57511234171726     -0.23538025675367     -0.69701677856544
  N          -2.05504759196034     -0.11963444749210     -0.12492077530261
  C          -0.78003847649841     -0.14391008997798     -0.83986102544619
  C           0.40393943601799     -0.22491058852124      0.10320056148898
  H          -0.71559661405831      0.75785300036781     -1.44369153499690
  H          -0.78515185886040     -1.00096778173060     -1.50863600838335
  H           0.33723907893347     -1.13407474706059      0.70650073726236
  H           0.40158801381296      0.63538500808552      0.77771702140568
  H          -2.18233735303490     -0.94869077083707      0.44437364368206
  H          -2.12418228234749      0.68085360569868      0.49325024550585
  H           2.33748698232347     -0.29250964066378     -0.11560629502764
  O          -4.51938945893276     -0.02483931358734     -0.45454628376428
  C          -3.60258562193484     -0.03490034215098     -1.21486298202342
  O          -3.23801864547754     -0.01558696287665     -2.34658086673505
