14
Coordinates from ORCA-job scan E -399.093129322836
  O           1.63728142803042     -0.37704665702326     -0.75958376314465
  N          -1.94358237695334      0.05381303718244      0.08994883822464
  C          -0.72521358122728     -0.09118993606559     -0.69722453580476
  C           0.53616733495049     -0.24556496416046      0.13184901741557
  H          -0.62411609377079      0.78204350642224     -1.34214085656141
  H          -0.83361350869551     -0.96062593316928     -1.34636623804055
  H           0.45162472580691     -1.12901609191222      0.77155182146310
  H           0.66461217566852      0.62959119515390      0.77557951840193
  H          -2.05630680068829     -0.74317148480774      0.70384783519886
  H          -1.87312791857961      0.86643565164359      0.68956569318036
  H           2.43891036910057     -0.47404559476938     -0.24007053470169
  O          -4.84244348670009     -0.61035005144440     -0.82523084796871
  C          -4.18427238575351     -0.13491356172800     -1.64822639351763
  O          -3.59290193148845      0.33272755717815     -2.52417989504506
