14
Coordinates from ORCA-job scan E -399.091243774658
  O           1.66435697492805     -0.23557102426740     -0.67265800685810
  N          -1.99004136613337     -0.13331872790525     -0.09043141416276
  C          -0.71162796083950     -0.15213895856374     -0.79103945296649
  C           0.49077261931601     -0.22795150237733      0.13066786444296
  H          -0.63942337346009      0.74736480710636     -1.40246496200136
  H          -0.70079074658613     -1.00649201053881     -1.46789665282853
  H           0.43378679923298     -1.13642531072939      0.73727168229313
  H           0.49208752517886      0.63266205604054      0.80591477309371
  H          -2.08656237835932     -0.96066821790612      0.48554368414137
  H          -2.03258553277326      0.65804290401913      0.54003479151936
  H           2.42810718625118     -0.28675536596201     -0.09281481516424
  O          -4.74601165782331      0.01635622882655     -0.51063687725391
  C          -4.03539363316434     -0.00413460406988     -1.42813748443342
  O          -3.51365650606769     -0.01228360117264     -2.46403347072165
