14
Coordinates from ORCA-job scan E -399.091729290269
  O           1.53459658359735     -0.23010589409137     -0.68389217319365
  N          -2.09626812346710     -0.12128608770901     -0.18244482815422
  C          -0.79925938028224     -0.14709765278204     -0.89109893506937
  C           0.35033217956893     -0.22403823182993      0.09176462319698
  H          -0.73541267952848      0.75594132413888     -1.48885314447971
  H          -0.80388535181688     -1.00779276056639     -1.55127171643321
  H           0.27104655473967     -1.13314919929532      0.69315131736012
  H           0.32721698992254      0.63733807959846      0.76426143312783
  H          -2.20929493194476     -0.94955182410227      0.39911282346773
  H          -2.14356419402989      0.66932721790566      0.45791261700395
  H           2.28598537697358     -0.27645871168021     -0.08710923665359
  O          -4.39015002932459     -0.00961227032472     -0.38482194905376
  C          -3.39062399785173     -0.03992829051711     -1.08305494240469
  O          -3.14770104685622     -0.02489902624460     -2.27433622961436
