14
Coordinates from ORCA-job scan E -399.090529685060
  O           1.64933515102371     -0.23534697990346     -0.67959729031415
  N          -2.00214075798163     -0.13144685138572     -0.09209867129309
  C          -0.72525093639432     -0.15123760654680     -0.79516752661259
  C           0.47752342575530     -0.22742682513142      0.12585437193798
  H          -0.65421059555336      0.74825046307020     -1.40642282605224
  H          -0.71688856214497     -1.00585132948435     -1.47137682102112
  H           0.42103222387022     -1.13586779459164      0.73243587820471
  H           0.47992249563071      0.63325395113002      0.80090638210085
  H          -2.10263430266713     -0.95976792315864      0.48176629386366
  H          -2.04630503673994      0.66000625082312      0.53812252554387
  H           2.41417877249102     -0.28617003831801     -0.10115326739039
  O          -4.71004494023909      0.01244787832801     -0.50508860289445
  C          -3.97109469108121     -0.00812121312077     -1.40260594245555
  O          -3.46040429626922     -0.01403530921053     -2.44625484451744
