14
Coordinates from ORCA-job scan E -399.091881400577
  O           1.67976889734177     -0.23565476185898     -0.66548424221091
  N          -1.97701339086419     -0.13515052529408     -0.08850357943054
  C          -0.69724619351595     -0.15315631266391     -0.78699376501133
  C           0.50450854927964     -0.22844809758089      0.13572719928236
  H          -0.62415466830072      0.74627769880796     -1.39864495012781
  H          -0.68423706228202     -1.00740381710271     -1.46420497543894
  H           0.44702186943093     -1.13697898038197      0.74228488540217
  H           0.50456310580647      0.63209703873140      0.81114399143752
  H          -2.07028339486077     -0.96138100150871      0.48963170979034
  H          -2.01890558141696      0.65664856407759      0.54146197081448
  H           2.44241605172920     -0.28784333911183     -0.08428628640866
  O          -4.78437736598954      0.01921982478852     -0.51759783810844
  C          -4.09922255338475     -0.00021582895454     -1.45242886187723
  O          -3.56982031327303     -0.00932378944784     -2.48278559901296
