14
Coordinates from ORCA-job scan E -399.091272862959
  O           1.55466819491779     -0.23273535108312     -0.69142430758316
  N          -2.07378379112726     -0.11957952620480     -0.15193297489700
  C          -0.78986793632161     -0.14427612772552     -0.86448736768843
  C           0.37776980061048     -0.22480094516905      0.09775724207937
  H          -0.72546510279261      0.75872184415670     -1.46435756834276
  H          -0.79493437486097     -1.00262295418826     -1.52962088158609
  H           0.30473368789589     -1.13462965989351      0.69899611692226
  H           0.36601833307267      0.63519248635170      0.77233351617108
  H          -2.19782289365246     -0.94800261571175      0.42237479803322
  H          -2.13754832284525      0.67825845360272      0.47342163012335
  H           2.31208683913952     -0.28670779666467     -0.10310716696352
  O          -4.45525403017592     -0.01908203468080     -0.42118400084186
  C          -3.49441964534229     -0.03877557819943     -1.14786720775737
  O          -3.19316280881780     -0.02227352209019     -2.31158216856904
