14
Coordinates from ORCA-job scan E -399.081036475334
  O       1.711684     -0.418980     -0.707096
  N      -1.905199      0.155137      0.044152
  C      -0.673449     -0.029112     -0.741547
  C       0.569968     -0.254880      0.124359
  H      -0.519354      0.844819     -1.385128
  H      -0.795445     -0.881555     -1.418595
  H       0.456250     -1.155613      0.736653
  H       0.742791      0.601797      0.784207
  H      -2.037699     -0.661681      0.652344
  H      -1.790008      0.957656      0.672827
  H       2.475204     -0.557357     -0.120818
  O      -5.253061     -0.825383     -1.037155
  C      -4.379551     -0.232649     -1.607273
  O      -3.549114      0.356487     -2.217610
14
Coordinates from ORCA-job scan E -399.088543198191
  O       1.692158     -0.412378     -0.725027
  N      -1.895976      0.145664      0.053857
  C      -0.674989     -0.036966     -0.727051
  C       0.560240     -0.252824      0.129178
  H      -0.526790      0.834390     -1.365918
  H      -0.799064     -0.892307     -1.392280
  H       0.436254     -1.148233      0.744862
  H       0.714782      0.605386      0.789372
  H      -2.023390     -0.656845      0.657624
  H      -1.780772      0.938845      0.671595
  H       2.460407     -0.546613     -0.165215
  O      -5.195974     -0.793343     -1.045426
  C      -4.357986     -0.226901     -1.619374
  O      -3.555883      0.340813     -2.226878
14
Coordinates from ORCA-job scan E -399.089395278094
  O       1.682054     -0.410999     -0.733939
  N      -1.896607      0.139300      0.060598
  C      -0.677551     -0.041087     -0.720358
  C       0.558325     -0.252064      0.131058
  H      -0.532316      0.832372     -1.356332
  H      -0.804202     -0.898777     -1.381509
  H       0.430761     -1.143505      0.751590
  H       0.706571      0.608090      0.789889
  H      -2.026273     -0.662729      0.665067
  H      -1.784097      0.933821      0.677676
  H       2.459654     -0.543510     -0.187109
  O      -5.156994     -0.783297     -1.032098
  C      -4.348179     -0.217643     -1.631262
  O      -3.558128      0.338717     -2.253954
14
Coordinates from ORCA-job scan E -399.090363403453
  O       1.669176     -0.402460     -0.746521
  N      -1.899650      0.120556      0.074234
  C      -0.682085     -0.050379     -0.708325
  C       0.559597     -0.250654      0.134429
  H      -0.546438      0.828716     -1.337996
  H      -0.810090     -0.910015     -1.366065
  H       0.433103     -1.137576      0.761872
  H       0.697123      0.612065      0.792307
  H      -2.032951     -0.680407      0.679017
  H      -1.796515      0.918091      0.689124
  H       2.462271     -0.529540     -0.221180
  O      -5.110395     -0.730575     -0.993365
  C      -4.324962     -0.219281     -1.658501
  O      -3.565165      0.330145     -2.319710
14
Coordinates from ORCA-job scan E -399.091636786878
  O       1.648706     -0.402628     -0.764872
  N      -1.904395      0.109627      0.100312
  C      -0.693176     -0.060474     -0.690498
  C       0.561260     -0.250157      0.136796
  H      -0.568117      0.820846     -1.318890
  H      -0.830061     -0.924538     -1.340053
  H       0.438506     -1.128921      0.777019
  H       0.695675      0.617855      0.788848
  H      -2.044796     -0.688676      0.705453
  H      -1.807287      0.910717      0.710378
  H       2.460608     -0.523877     -0.267382
  O      -5.026245     -0.731267     -0.974689
  C      -4.302828     -0.181959     -1.678028
  O      -3.574832      0.332138     -2.405073
14
Coordinates from ORCA-job scan E -399.091889453932
  O       1.625621     -0.378012     -0.780760
  N      -1.912793      0.054304      0.166121
  C      -0.724062     -0.089927     -0.666471
  C       0.563560     -0.248500      0.136577
  H      -0.650567      0.795845     -1.298541
  H      -0.862449     -0.954723     -1.315025
  H       0.478755     -1.124446      0.789614
  H       0.691237      0.626761      0.782884
  H      -2.050258     -0.745875      0.771624
  H      -1.835407      0.868326      0.762560
  H       2.459079     -0.474788     -0.312599
  O      -4.869497     -0.582275     -0.869172
  C      -4.221015     -0.151476     -1.739074
  O      -3.639186      0.303473     -2.648420
14
Coordinates from ORCA-job scan E -399.093031797002
  O       1.642432     -0.371115     -0.779353
  N      -1.917233      0.061905      0.156258
  C      -0.722068     -0.090721     -0.664340
  C       0.565647     -0.253490      0.131583
  H      -0.636100      0.788761     -1.303399
  H      -0.857674     -0.955923     -1.313664
  H       0.485492     -1.132471      0.779543
  H       0.698848      0.619120      0.779422
  H      -2.054968     -0.734797      0.763083
  H      -1.830600      0.874162      0.751559
  H       2.464333     -0.465820     -0.291682
  O      -4.910342     -0.594398     -0.892285
  C      -4.241568     -0.147224     -1.728877
  O      -3.633181      0.300697     -2.608529
14
Coordinates from ORCA-job scan E -399.093230241868
  O       1.633951     -0.400727     -0.784190
  N      -1.924806      0.073067      0.154368
  C      -0.723543     -0.076674     -0.658390
  C       0.561833     -0.239165      0.133062
  H      -0.629611      0.798343     -1.302201
  H      -0.849961     -0.942303     -1.309936
  H       0.488745     -1.119936      0.778181
  H       0.721511      0.639665      0.765900
  H      -2.041624     -0.736419      0.751411
  H      -1.846729      0.877983      0.766317
  H       2.448268     -0.504238     -0.286774
  O      -4.908148     -0.630947     -0.912264
  C      -4.245638     -0.159482     -1.732340
  O      -3.631231      0.319521     -2.583825
14
Coordinates from ORCA-job scan E -399.093288818697
  O       1.635027     -0.392476     -0.783322
  N      -1.921638      0.075727      0.146497
  C      -0.720717     -0.078656     -0.661233
  C       0.558547     -0.244050      0.135121
  H      -0.621425      0.795155     -1.306017
  H      -0.849342     -0.945933     -1.309346
  H       0.480284     -1.125641      0.777957
  H       0.710619      0.631344      0.772901
  H      -2.040000     -0.729519      0.747051
  H      -1.836154      0.878603      0.755392
  H       2.449156     -0.494311     -0.284851
  O      -4.910016     -0.638268     -0.906995
  C      -4.253548     -0.152794     -1.726997
  O      -3.627774      0.319505     -2.576839
14
Coordinates from ORCA-job scan E -399.093300697561
  O       1.633244     -0.391828     -0.785003
  N      -1.920945      0.072017      0.151625
  C      -0.721896     -0.079826     -0.661050
  C       0.558619     -0.244669      0.136326
  H      -0.626471      0.793255     -1.307993
  H      -0.850645     -0.947509     -1.308684
  H       0.482079     -1.123927      0.783260
  H       0.713475      0.632846      0.770646
  H      -2.038982     -0.732742      0.753449
  H      -1.832628      0.875130      0.759333
  H       2.449184     -0.490104     -0.287872
  O      -4.911464     -0.631417     -0.913532
  C      -4.249253     -0.151709     -1.726920
  O      -3.631297      0.319171     -2.584266
14
Coordinates from ORCA-job scan E -399.093320450507
  O       1.634908     -0.390201     -0.783260
  N      -1.921666      0.071169      0.150242
  C      -0.721760     -0.080143     -0.663012
  C       0.558266     -0.245110      0.135827
  H      -0.626767      0.792610     -1.310114
  H      -0.849403     -0.947633     -1.311370
  H       0.482186     -1.125154      0.781379
  H       0.712598      0.631770      0.771444
  H      -2.038495     -0.733373      0.753222
  H      -1.832013      0.875236      0.758412
  H       2.449207     -0.488057     -0.283996
  O      -4.913804     -0.626989     -0.909570
  C      -4.249770     -0.153274     -1.728469
  O      -3.630469      0.317836     -2.581415
14
Coordinates from ORCA-job scan E -399.093325524685
  O       1.635860     -0.388500     -0.782551
  N      -1.921321      0.071538      0.149329
  C      -0.721391     -0.080901     -0.663652
  C       0.557927     -0.245565      0.135478
  H      -0.626096      0.791604     -1.310655
  H      -0.849343     -0.948808     -1.311360
  H       0.481223     -1.126407      0.779482
  H       0.710108      0.630231      0.773072
  H      -2.037461     -0.732133      0.753338
  H      -1.830060      0.875852      0.757162
  H       2.449654     -0.486246     -0.282744
  O      -4.914448     -0.627313     -0.908900
  C      -4.251156     -0.151955     -1.727350
  O      -3.630477      0.317290     -2.581330
14
Coordinates from ORCA-job scan E -399.093330756484
  O       1.636829     -0.386704     -0.781466
  N      -1.921051      0.071044      0.148703
  C      -0.721208     -0.081899     -0.664799
  C       0.557484     -0.245923      0.135190
  H      -0.626472      0.790459     -1.311963
  H      -0.849124     -0.950181     -1.311967
  H       0.480581     -1.127582      0.778081
  H       0.707810      0.629130      0.774315
  H      -2.035477     -0.731827      0.754182
  H      -1.827523      0.875406      0.756154
  H       2.450245     -0.483549     -0.280715
  O      -4.916030     -0.625132     -0.908130
  C      -4.252120     -0.150920     -1.726623
  O      -3.630925      0.316365     -2.581641
14
Coordinates from ORCA-job scan E -399.093332608491
  O       1.638607     -0.384049     -0.779241
  N      -1.920720      0.069718      0.147527
  C      -0.720942     -0.083555     -0.667026
  C       0.556791     -0.246183      0.134666
  H      -0.627465      0.788732     -1.314423
  H      -0.848483     -0.952338     -1.313503
  H       0.479722     -1.129121      0.776001
  H       0.704167      0.627942      0.775835
  H      -2.031284     -0.732106      0.755428
  H      -1.823674      0.874076      0.754695
  H       2.451006     -0.479409     -0.276513
  O      -4.918942     -0.620392     -0.906373
  C      -4.253762     -0.149391     -1.725681
  O      -3.632002      0.314761     -2.582070
14
Coordinates from ORCA-job scan E -399.093332836584
  O       1.639322     -0.383441     -0.778282
  N      -1.920670      0.068828      0.146935
  C      -0.720801     -0.084135     -0.667888
  C       0.556640     -0.246027      0.134552
  H      -0.627806      0.788222     -1.315325
  H      -0.847976     -0.953006     -1.314272
  H       0.479589     -1.129176      0.775736
  H       0.703063      0.628139      0.775870
  H      -2.029287     -0.732861      0.755542
  H      -1.822973      0.873075      0.754233
  H       2.451283     -0.478325     -0.274689
  O      -4.920121     -0.618058     -0.905441
  C      -4.254523     -0.148811     -1.725433
  O      -3.632723      0.314262     -2.582219
14
Coordinates from ORCA-job scan E -399.093334739943
  O       1.639940     -0.383397     -0.777444
  N      -1.920675      0.067611      0.146245
  C      -0.720549     -0.084536     -0.668528
  C       0.556685     -0.245600      0.134601
  H      -0.627864      0.787953     -1.315918
  H      -0.847149     -0.953392     -1.315008
  H       0.479661     -1.128495      0.776229
  H       0.702507      0.629074      0.775321
  H      -2.027405     -0.734210      0.755163
  H      -1.823426      0.871742      0.753835
  H       2.451483     -0.478153     -0.273139
  O      -4.921021     -0.615847     -0.904389
  C      -4.255405     -0.148157     -1.725246
  O      -3.633766      0.314093     -2.582402
14
Coordinates from ORCA-job scan E -399.093335725468
  O       1.640815     -0.383271     -0.776457
  N      -1.920679      0.065695      0.145171
  C      -0.720032     -0.085126     -0.669155
  C       0.556929     -0.244992      0.134808
  H      -0.627561      0.787484     -1.316477
  H      -0.845669     -0.953990     -1.315801
  H       0.480047     -1.127330      0.777229
  H       0.701945      0.630502      0.774526
  H      -2.025354     -0.736245      0.754383
  H      -1.824821      0.869879      0.752943
  H       2.451883     -0.478106     -0.271390
  O      -4.922236     -0.612815     -0.902831
  C      -4.256841     -0.146982     -1.724887
  O      -3.635406      0.313983     -2.582742
14
Coordinates from ORCA-job scan E -399.091042891996
  O       1.645893     -0.384510     -0.778420
  N      -1.957217      0.066020      0.126836
  C      -0.714837     -0.083866     -0.673688
  C       0.560974     -0.246161      0.131605
  H      -0.613519      0.791607     -1.321878
  H      -0.829942     -0.954692     -1.320060
  H       0.482202     -1.129232      0.772792
  H       0.705977      0.628209      0.772864
  H      -2.043665     -0.749132      0.761113
  H      -1.846179      0.889725      0.759073
  H       2.456188     -0.480954     -0.272414
  O      -4.933324     -0.615271     -0.899405
  C      -4.229082     -0.148637     -1.696650
  O      -3.630452      0.315580     -2.582449
14
Coordinates from ORCA-job scan E -399.092945067205
  O       1.634494     -0.384603     -0.771398
  N      -1.942892      0.065698      0.117689
  C      -0.719125     -0.081415     -0.677809
  C       0.549150     -0.245030      0.136493
  H      -0.620011      0.793389     -1.320734
  H      -0.835521     -0.951113     -1.324722
  H       0.466764     -1.128165      0.776915
  H       0.693749      0.629154      0.778120
  H      -2.020915     -0.731517      0.738627
  H      -1.829844      0.863147      0.733853
  H       2.443251     -0.482532     -0.263317
  O      -4.909709     -0.617595     -0.884695
  C      -4.226697     -0.146829     -1.691072
  O      -3.629678      0.316097     -2.568629
14
Coordinates from ORCA-job scan E -399.093126165997
  O       1.634004     -0.384410     -0.767749
  N      -1.938518      0.064933      0.114401
  C      -0.721551     -0.081624     -0.682712
  C       0.544439     -0.245075      0.135924
  H      -0.622128      0.793527     -1.324629
  H      -0.837419     -0.950209     -1.331537
  H       0.459934     -1.128274      0.776061
  H       0.686864      0.628762      0.778618
  H      -2.019093     -0.732456      0.734144
  H      -1.828726      0.863140      0.728209
  H       2.441069     -0.482464     -0.256844
  O      -4.895360     -0.617674     -0.873769
  C      -4.225947     -0.146722     -1.689877
  O      -3.624550      0.317231     -2.560920
14
Coordinates from ORCA-job scan E -399.093206349149
  O       1.636470     -0.384001     -0.764779
  N      -1.935602      0.063905      0.113649
  C      -0.723605     -0.082716     -0.687340
  C       0.541642     -0.245485      0.133708
  H      -0.623510      0.792747     -1.329162
  H      -0.838942     -0.949840     -1.338374
  H       0.455375     -1.128735      0.773589
  H       0.680963      0.628062      0.777412
  H      -2.023350     -0.734150      0.732070
  H      -1.832860      0.865818      0.724743
  H       2.441403     -0.481801     -0.250491
  O      -4.882191     -0.617762     -0.863334
  C      -4.224949     -0.146012     -1.688398
  O      -3.617825      0.318656     -2.553975
14
Coordinates from ORCA-job scan E -399.093238892375
  O       1.637985     -0.383339     -0.764618
  N      -1.934446      0.063253      0.114905
  C      -0.724000     -0.083753     -0.687952
  C       0.541892     -0.245799      0.132514
  H      -0.623973      0.791628     -1.330110
  H      -0.839661     -0.950440     -1.339413
  H       0.455777     -1.129171      0.772243
  H       0.679746      0.627837      0.776341
  H      -2.027916     -0.734950      0.732030
  H      -1.836895      0.867449      0.723580
  H       2.442280     -0.480822     -0.249335
  O      -4.879132     -0.617102     -0.860945
  C      -4.223553     -0.145571     -1.687575
  O      -3.615087      0.319466     -2.552344
14
Coordinates from ORCA-job scan E -399.093248795284
  O       1.639457     -0.381989     -0.765834
  N      -1.932607      0.062227      0.117575
  C      -0.724110     -0.085540     -0.686905
  C       0.543499     -0.246279      0.131402
  H      -0.624850      0.789458     -1.329872
  H      -0.840992     -0.952180     -1.338082
  H       0.458801     -1.129895      0.770989
  H       0.679789      0.627735      0.775024
  H      -2.035618     -0.736175      0.732122
  H      -1.843724      0.870080      0.722035
  H       2.443686     -0.479014     -0.250422
  O      -4.877559     -0.615925     -0.860604
  C      -4.220708     -0.144425     -1.686431
  O      -3.612045      0.320610     -2.551677
14
Coordinates from ORCA-job scan E -399.093260575733
  O       1.639364     -0.381144     -0.767247
  N      -1.931881      0.061722      0.118781
  C      -0.723868     -0.086421     -0.685193
  C       0.544839     -0.246387      0.131658
  H      -0.625404      0.788160     -1.328833
  H      -0.841600     -0.953565     -1.335578
  H       0.461615     -1.130095      0.771290
  H       0.681042      0.627880      0.774986
  H      -2.039111     -0.736809      0.731951
  H      -1.847007      0.871060      0.721312
  H       2.444325     -0.478112     -0.252956
  O      -4.878512     -0.615123     -0.862246
  C      -4.219267     -0.143707     -1.686271
  O      -3.611516      0.321227     -2.552337
14
Coordinates from ORCA-job scan E -399.093261771892
  O       1.638915     -0.380685     -0.768160
  N      -1.931859      0.061458      0.118938
  C      -0.723583     -0.086801     -0.683929
  C       0.545619     -0.246290      0.132275
  H      -0.625643      0.787372     -1.328159
  H      -0.841595     -0.954494     -1.333598
  H       0.463453     -1.129978      0.772047
  H       0.682223      0.628091      0.775387
  H      -2.040355     -0.737145      0.731590
  H      -1.848455      0.871144      0.720984
  H       2.444614     -0.477794     -0.255032
  O      -4.879494     -0.614690     -0.863542
  C      -4.218989     -0.143187     -1.686528
  O      -3.611833      0.321685     -2.552953
14
Coordinates from ORCA-job scan E -399.090964050410
  O       1.644134     -0.381911     -0.769698
  N      -1.968231      0.061702      0.100778
  C      -0.718250     -0.085591     -0.689017
  C       0.549453     -0.247421      0.129041
  H      -0.611599      0.791492     -1.334200
  H      -0.825868     -0.955239     -1.338528
  H       0.465212     -1.131818      0.767568
  H       0.685748      0.625899      0.773662
  H      -2.058380     -0.750109      0.738392
  H      -1.869580      0.890906      0.727034
  H       2.448849     -0.480566     -0.255318
  O      -4.890416     -0.617001     -0.859707
  C      -4.190979     -0.144873     -1.658279
  O      -3.607075      0.323215     -2.552408
14
Coordinates from ORCA-job scan E -399.092843388914
  O       1.632510     -0.381929     -0.762752
  N      -1.953669      0.061294      0.091508
  C      -0.722624     -0.083343     -0.693040
  C       0.537539     -0.246145      0.133958
  H      -0.618431      0.792877     -1.333152
  H      -0.831667     -0.951971     -1.342647
  H       0.450029     -1.130610      0.771828
  H       0.673514      0.627094      0.778737
  H      -2.035049     -0.732814      0.715757
  H      -1.852484      0.864070      0.702416
  H       2.435760     -0.481881     -0.246386
  O      -4.867303     -0.618919     -0.845456
  C      -4.188387     -0.142894     -1.652596
  O      -3.606721      0.323858     -2.538857
14
Coordinates from ORCA-job scan E -399.093010033571
  O       1.632017     -0.381750     -0.759201
  N      -1.949420      0.060480      0.088176
  C      -0.725017     -0.083646     -0.697648
  C       0.533011     -0.246072      0.133440
  H      -0.620673      0.792735     -1.337035
  H      -0.833549     -0.951379     -1.348828
  H       0.443648     -1.130540      0.771151
  H       0.666953      0.626925      0.779071
  H      -2.033058     -0.733978      0.711221
  H      -1.851269      0.863790      0.697242
  H       2.433660     -0.481650     -0.240169
  O      -4.853651     -0.618760     -0.835115
  C      -4.187721     -0.142579     -1.651462
  O      -3.601913      0.325111     -2.531523
14
Coordinates from ORCA-job scan E -399.093084204187
  O       1.634441     -0.381394     -0.756298
  N      -1.946759      0.059336      0.087260
  C      -0.726975     -0.084814     -0.701937
  C       0.530437     -0.246295      0.131354
  H      -0.622130      0.791598     -1.341644
  H      -0.834845     -0.951414     -1.354929
  H       0.439568     -1.130673      0.769020
  H       0.661477      0.626583      0.777675
  H      -2.037122     -0.735923      0.708881
  H      -1.855309      0.865726      0.694198
  H       2.434048     -0.480761     -0.234049
  O      -4.841266     -0.618416     -0.825201
  C      -4.187008     -0.141593     -1.650115
  O      -3.595538      0.326726     -2.524894
14
Coordinates from ORCA-job scan E -399.093113465360
  O       1.635929     -0.380806     -0.756093
  N      -1.945748      0.058537      0.088329
  C      -0.727288     -0.085891     -0.702501
  C       0.530747     -0.246476      0.130250
  H      -0.622583      0.790278     -1.342768
  H      -0.835276     -0.952222     -1.355763
  H       0.440070     -1.130842      0.767948
  H       0.660412      0.626626      0.776484
  H      -2.041607     -0.736981      0.708536
  H      -1.859250      0.866812      0.693224
  H       2.434924     -0.479631     -0.232865
  O      -4.838487     -0.617443     -0.822843
  C      -4.185896     -0.140928     -1.649346
  O      -3.592929      0.327655     -2.523271
14
Coordinates from ORCA-job scan E -399.093123303579
  O       1.637500     -0.379581     -0.757103
  N      -1.944047      0.057131      0.090649
  C      -0.727247     -0.087831     -0.701567
  C       0.532408     -0.246718      0.129239
  H      -0.623437      0.787737     -1.342970
  H      -0.836022     -0.954341     -1.354359
  H       0.443109     -1.131053      0.767171
  H       0.660518      0.627021      0.774904
  H      -2.049326     -0.738839      0.707973
  H      -1.865949      0.868495      0.691871
  H       2.436414     -0.477465     -0.233631
  O      -4.837285     -0.615551     -0.822227
  C      -4.183559     -0.139359     -1.648185
  O      -3.590058      0.329040     -2.522445
14
Coordinates from ORCA-job scan E -399.093134862419
  O       1.637599     -0.378748     -0.758366
  N      -1.943243      0.056290      0.091718
  C      -0.726902     -0.088927     -0.699969
  C       0.533831     -0.246690      0.129513
  H      -0.624017      0.786138     -1.342193
  H      -0.836300     -0.956044     -1.351874
  H       0.445998     -1.130944      0.767743
  H       0.661721      0.627486      0.774659
  H      -2.053110     -0.740004      0.707324
  H      -1.869327      0.869001      0.691123
  H       2.437220     -0.476229     -0.235890
  O      -4.838497     -0.614188     -0.823616
  C      -4.182332     -0.138282     -1.647875
  O      -3.589625      0.329828     -2.522978
14
Coordinates from ORCA-job scan E -399.093137344065
  O       1.637299     -0.378235     -0.759185
  N      -1.943115      0.055754      0.091770
  C      -0.726523     -0.089524     -0.698749
  C       0.534708     -0.246505      0.130180
  H      -0.624283      0.785102     -1.341629
  H      -0.836082     -0.957274     -1.349843
  H       0.447992     -1.130627      0.768725
  H       0.662864      0.627918      0.774962
  H      -2.054561     -0.740754      0.706593
  H      -1.870810      0.868775      0.690708
  H       2.437680     -0.475602     -0.237835
  O      -4.839824     -0.613263     -0.824802
  C      -4.182189     -0.137474     -1.647993
  O      -3.590138      0.330397     -2.523585
14
Coordinates from ORCA-job scan E -399.093142026399
  O       1.637132     -0.377823     -0.759540
  N      -1.943264      0.055184      0.091303
  C      -0.726109     -0.090045     -0.698007
  C       0.535278     -0.246223      0.130821
  H      -0.624310      0.784123     -1.341556
  H      -0.835427     -0.958385     -1.348399
  H       0.449412     -1.130152      0.769724
  H       0.663660      0.628417      0.775269
  H      -2.055261     -0.741493      0.705749
  H      -1.871692      0.868130      0.690364
  H       2.438078     -0.475103     -0.239032
  O      -4.840838     -0.612340     -0.825288
  C      -4.182688     -0.136683     -1.648159
  O      -3.590954      0.331080     -2.523929
14
Coordinates from ORCA-job scan E -399.093129322836
  O       1.637281     -0.377047     -0.759584
  N      -1.943582      0.053813      0.089949
  C      -0.725214     -0.091190     -0.697225
  C       0.536167     -0.245565      0.131849
  H      -0.624116      0.782044     -1.342141
  H      -0.833614     -0.960626     -1.346366
  H       0.451625     -1.129016      0.771552
  H       0.664612      0.629591      0.775580
  H      -2.056307     -0.743171      0.703848
  H      -1.873128      0.866436      0.689566
  H       2.438910     -0.474046     -0.240071
  O      -4.842443     -0.610350     -0.825231
  C      -4.184272     -0.134914     -1.648226
  O      -3.592902      0.332728     -2.524180
14
Coordinates from ORCA-job scan E -399.090793999000
  O       1.642675     -0.378236     -0.760536
  N      -1.979724      0.054009      0.071958
  C      -0.719695     -0.090056     -0.703074
  C       0.539701     -0.246629      0.128580
  H      -0.610054      0.786109     -1.349040
  H      -0.817880     -0.961426     -1.352182
  H       0.452828     -1.130759      0.767038
  H       0.667458      0.627565      0.773755
  H      -2.073882     -0.756329      0.710734
  H      -1.893843      0.886010      0.695587
  H       2.443037     -0.476683     -0.239337
  O      -4.853166     -0.612448     -0.820855
  C      -4.156007     -0.136675     -1.619927
  O      -3.588429      0.334235     -2.523381
14
Coordinates from ORCA-job scan E -399.092654702413
  O       1.631671     -0.378280     -0.752963
  N      -1.964576      0.053379      0.062439
  C      -0.724129     -0.088179     -0.707889
  C       0.527471     -0.245276      0.132860
  H      -0.616751      0.787108     -1.348660
  H      -0.823621     -0.958432     -1.356886
  H       0.436902     -1.129256      0.770875
  H       0.654111      0.629130      0.777921
  H      -2.050663     -0.739328      0.686794
  H      -1.875434      0.858902      0.671496
  H       2.429933     -0.477474     -0.228750
  O      -4.830546     -0.613928     -0.805858
  C      -4.153630     -0.134357     -1.613222
  O      -3.587722      0.334676     -2.508838
14
Coordinates from ORCA-job scan E -399.092816387825
  O       1.631693     -0.378028     -0.748908
  N      -1.959956      0.052288      0.058986
  C      -0.726508     -0.088777     -0.712998
  C       0.522877     -0.245153      0.131969
  H      -0.618870      0.786722     -1.352978
  H      -0.825388     -0.958140     -1.363511
  H       0.430216     -1.128990      0.770009
  H       0.646840      0.629238      0.777678
  H      -2.048590     -0.741193      0.682351
  H      -1.873360      0.858164      0.666338
  H       2.427916     -0.476596     -0.221329
  O      -4.817529     -0.613055     -0.795246
  C      -4.153075     -0.133710     -1.611545
  O      -3.583248      0.335918     -2.501496
14
Coordinates from ORCA-job scan E -399.092887977612
  O       1.634740     -0.377551     -0.745288
  N      -1.956910      0.050667      0.057821
  C      -0.728445     -0.090349     -0.717937
  C       0.520219     -0.245371      0.129528
  H      -0.620206      0.785279     -1.358114
  H      -0.826422     -0.958573     -1.370297
  H       0.425766     -1.128966      0.767717
  H       0.640429      0.629156      0.775723
  H      -2.052363     -0.743709      0.679780
  H      -1.876468      0.859347      0.663260
  H       2.428420     -0.474778     -0.213654
  O      -4.805684     -0.611675     -0.784706
  C      -4.152652     -0.132225     -1.609606
  O      -3.577406      0.337435     -2.494908
14
Coordinates from ORCA-job scan E -399.092916643293
  O       1.636443     -0.376842     -0.744808
  N      -1.955871      0.049579      0.058737
  C      -0.728689     -0.091632     -0.718714
  C       0.520546     -0.245575      0.128380
  H      -0.620571      0.783793     -1.359396
  H      -0.826586     -0.959608     -1.371355
  H       0.426237     -1.129122      0.766651
  H       0.639015      0.629258      0.774429
  H      -2.056597     -0.745033      0.679348
  H      -1.880036      0.859937      0.662257
  H       2.429379     -0.473072     -0.211940
  O      -4.803253     -0.609959     -0.782040
  C      -4.151784     -0.131249     -1.608689
  O      -3.575213      0.338211     -2.493540
14
Coordinates from ORCA-job scan E -399.092925963501
  O       1.638323     -0.375302     -0.745454
  N      -1.954197      0.047595      0.060803
  C      -0.728527     -0.093974     -0.718052
  C       0.522251     -0.245869      0.127387
  H      -0.621327      0.780889     -1.359821
  H      -0.826831     -0.962170     -1.370236
  H       0.429376     -1.129390      0.765903
  H       0.638599      0.629671      0.772852
  H      -2.064033     -0.747409      0.678577
  H      -1.886483      0.860834      0.660767
  H       2.431080     -0.469822     -0.212069
  O      -4.802423     -0.606541     -0.780715
  C      -4.149852     -0.129103     -1.607406
  O      -3.572938      0.339278     -2.493215
14
Coordinates from ORCA-job scan E -399.092936730611
  O       1.638572     -0.374178     -0.746616
  N      -1.953386      0.046304      0.061761
  C      -0.728098     -0.095378     -0.716486
  C       0.523745     -0.245850      0.127730
  H      -0.621925      0.778963     -1.359120
  H      -0.826811     -0.964234     -1.367743
  H       0.432514     -1.129327      0.766525
  H       0.639593      0.630139      0.772699
  H      -2.067881     -0.749040      0.677721
  H      -1.890116      0.860923      0.659818
  H       2.432085     -0.467877     -0.214203
  O      -4.803742     -0.604047     -0.781606
  C      -4.148796     -0.127578     -1.607065
  O      -3.572737      0.339869     -2.494095
14
Coordinates from ORCA-job scan E -399.092941349810
  O       1.638335     -0.373343     -0.747509
  N      -1.953210      0.045321      0.061758
  C      -0.727606     -0.096286     -0.715087
  C       0.524792     -0.245623      0.128544
  H      -0.622283      0.777537     -1.358514
  H      -0.826375     -0.965895     -1.365386
  H       0.435005     -1.128993      0.767665
  H       0.640787      0.630637      0.773138
  H      -2.069630     -0.750316      0.676710
  H      -1.892153      0.860391      0.659151
  H       2.432771     -0.466684     -0.216392
  O      -4.805292     -0.602064     -0.782544
  C      -4.148712     -0.126329     -1.607178
  O      -3.573411      0.340334     -2.495038
14
Coordinates from ORCA-job scan E -399.092948046477
  O       1.638230     -0.372564     -0.747920
  N      -1.953347      0.044229      0.061106
  C      -0.727022     -0.097145     -0.714133
  C       0.525561     -0.245240      0.129401
  H      -0.622390      0.776098     -1.358431
  H      -0.825392     -0.967518     -1.363520
  H       0.437014     -1.128419      0.768932
  H       0.641699      0.631275      0.773624
  H      -2.070542     -0.751675      0.675474
  H      -1.893596      0.859301      0.658520
  H       2.433415     -0.465640     -0.217871
  O      -4.806667     -0.599956     -0.782777
  C      -4.149409     -0.125000     -1.607341
  O      -3.574535      0.340940     -2.495743
14
Coordinates from ORCA-job scan E -399.092951262091
  O       1.638630     -0.371023     -0.747853
  N      -1.953691      0.041675      0.059158
  C      -0.725727     -0.099015     -0.713137
  C       0.526785     -0.244335      0.130823
  H      -0.622261      0.773046     -1.359208
  H      -0.822678     -0.970830     -1.360879
  H       0.440262     -1.126992      0.771307
  H       0.642690      0.632815      0.774212
  H      -2.071741     -0.754712      0.672699
  H      -1.895950      0.856447      0.657131
  H       2.434732     -0.463436     -0.219062
  O      -4.809059     -0.595347     -0.781898
  C      -4.151664     -0.122050     -1.607321
  O      -3.577310      0.342443     -2.496652
14
Coordinates from ORCA-job scan E -399.092961442627
  O       1.640400     -0.368332     -0.746413
  N      -1.954018      0.036619      0.055110
  C      -0.723308     -0.102622     -0.712800
  C       0.528554     -0.242661      0.132709
  H      -0.621589      0.767471     -1.361827
  H      -0.817047     -0.976739     -1.357987
  H       0.444773     -1.124225      0.775011
  H       0.642920      0.635876      0.774463
  H      -2.073160     -0.760520      0.667490
  H      -1.899274      0.850698      0.654354
  H       2.437098     -0.459199     -0.218271
  O      -4.812915     -0.586659     -0.778522
  C      -4.156466     -0.116469     -1.606465
  O      -3.582950      0.345448     -2.497534
14
Coordinates from ORCA-job scan E -399.092971465960
  O       1.644404     -0.364447     -0.742503
  N      -1.953898      0.028534      0.048419
  C      -0.719585     -0.108323     -0.714258
  C       0.530610     -0.240199      0.134640
  H      -0.620032      0.759189     -1.367154
  H      -0.807866     -0.985444     -1.356178
  H       0.449635     -1.119940      0.779751
  H       0.641046      0.640738      0.773772
  H      -2.074050     -0.769566      0.659466
  H      -1.902693      0.841513      0.649673
  H       2.440600     -0.452461     -0.213127
  O      -4.818339     -0.573308     -0.771363
  C      -4.164391     -0.107826     -1.603903
  O      -3.592423      0.350225     -2.497915
14
Coordinates from ORCA-job scan E -399.092977743668
  O       1.649410     -0.361313     -0.736989
  N      -1.952971      0.021128      0.041930
  C      -0.716289     -0.113483     -0.717928
  C       0.531608     -0.238243      0.135246
  H      -0.617982      0.752376     -1.373307
  H      -0.799295     -0.992598     -1.357769
  H       0.451354     -1.116278      0.782771
  H       0.636665      0.645060      0.772015
  H      -2.072958     -0.777530      0.652446
  H      -1.903388      0.833151      0.644866
  H       2.443461     -0.446207     -0.203907
  O      -4.822737     -0.561634     -0.762838
  C      -4.171986     -0.100239     -1.600107
  O      -3.601873      0.354498     -2.497108
14
Coordinates from ORCA-job scan E -399.092986369142
  O       1.656347     -0.358389     -0.728943
  N      -1.950708      0.013314      0.034935
  C      -0.712938     -0.118939     -0.724483
  C       0.531797     -0.236753      0.134470
  H      -0.615062      0.746200     -1.380983
  H      -0.790429     -0.999278     -1.363168
  H       0.450085     -1.113046      0.784225
  H       0.628716      0.649212      0.768860
  H      -2.069622     -0.785471      0.645627
  H      -1.901254      0.824846      0.638745
  H       2.446140     -0.439148     -0.188939
  O      -4.827216     -0.549934     -0.751917
  C      -4.180039     -0.092623     -1.594144
  O      -3.612797      0.358695     -2.494964
14
Coordinates from ORCA-job scan E -399.092997514822
  O       1.661887     -0.354818     -0.722996
  N      -1.949013      0.005548      0.028548
  C      -0.709502     -0.124721     -0.728581
  C       0.532972     -0.235292      0.134802
  H      -0.612698      0.739286     -1.386768
  H      -0.782124     -1.006912     -1.365222
  H       0.451743     -1.110003      0.786755
  H       0.623101      0.653078      0.766860
  H      -2.068334     -0.793537      0.638717
  H      -1.901589      0.817064      0.632650
  H       2.449169     -0.431517     -0.178729
  O      -4.832595     -0.537651     -0.743404
  C      -4.187170     -0.084681     -1.589339
  O      -3.622829      0.362844     -2.493974
14
Coordinates from ORCA-job scan E -399.093007214606
  O       1.666890     -0.350850     -0.717767
  N      -1.947437     -0.002253      0.022258
  C      -0.706000     -0.130665     -0.731834
  C       0.534489     -0.234079      0.135588
  H      -0.610286      0.732210     -1.391657
  H      -0.774045     -1.014914     -1.366065
  H       0.454456     -1.107398      0.789551
  H       0.618040      0.656465      0.765526
  H      -2.067458     -0.801498      0.631974
  H      -1.902732      0.809682      0.625859
  H       2.452349     -0.423210     -0.170260
  O      -4.838659     -0.524939     -0.735772
  C      -4.193971     -0.076655     -1.584787
  O      -3.632620      0.366791     -2.493294
14
Coordinates from ORCA-job scan E -399.093010422652
  O       1.671211     -0.346622     -0.713208
  N      -1.946237     -0.010017      0.015863
  C      -0.702453     -0.136593     -0.734333
  C       0.536129     -0.232968      0.136862
  H      -0.607774      0.724994     -1.395966
  H      -0.765994     -1.023036     -1.365928
  H       0.457999     -1.105085      0.792644
  H       0.613735      0.659442      0.764957
  H      -2.066854     -0.809238      0.625354
  H      -1.904861      0.802593      0.618694
  H       2.455540     -0.414651     -0.163513
  O      -4.844824     -0.512061     -0.728665
  C      -4.200708     -0.068626     -1.580686
  O      -3.641890      0.370556     -2.492754
14
Coordinates from ORCA-job scan E -399.093022973908
  O       1.677392     -0.340176     -0.706425
  N      -1.944798     -0.021665      0.005948
  C      -0.697099     -0.145491     -0.738036
  C       0.538345     -0.231230      0.138875
  H      -0.603770      0.713968     -1.402633
  H      -0.753683     -1.035101     -1.365792
  H       0.463294     -1.101645      0.797257
  H       0.607425      0.663743      0.764353
  H      -2.065908     -0.820656      0.615549
  H      -1.908651      0.791906      0.607823
  H       2.460106     -0.401866     -0.153670
  O      -4.853395     -0.492741     -0.717604
  C      -4.210940     -0.056596     -1.574691
  O      -3.655300      0.376235     -2.491635
14
Coordinates from ORCA-job scan E -399.093033946522
  O       1.681511     -0.335700     -0.701722
  N      -1.943839     -0.029520     -0.001036
  C      -0.693423     -0.151172     -0.740681
  C       0.539659     -0.230422      0.140232
  H      -0.600556      0.706913     -1.407114
  H      -0.745257     -1.042727     -1.366035
  H       0.466577     -1.100056      0.799862
  H       0.602985      0.665813      0.764512
  H      -2.064613     -0.827788      0.609606
  H      -1.911788      0.785253      0.599233
  H       2.463090     -0.392987     -0.146886
  O      -4.859295     -0.479609     -0.709793
  C      -4.217981     -0.048835     -1.570414
  O      -3.664052      0.379526     -2.490445
14
Coordinates from ORCA-job scan E -399.093044291435
  O       1.685624     -0.331270     -0.696811
  N      -1.942911     -0.037302     -0.008486
  C      -0.689607     -0.156049     -0.743548
  C       0.540765     -0.230171      0.141602
  H      -0.596638      0.700832     -1.411482
  H      -0.736521     -1.049162     -1.367076
  H       0.469278     -1.099686      0.801567
  H       0.598658      0.666548      0.765717
  H      -2.062045     -0.833813      0.604788
  H      -1.916232      0.779774      0.588744
  H       2.465959     -0.384240     -0.139811
  O      -4.865528     -0.466588     -0.701427
  C      -4.225410     -0.041799     -1.565797
  O      -3.672375      0.381611     -2.488660
14
Coordinates from ORCA-job scan E -399.093053299730
  O       1.689884     -0.327426     -0.691620
  N      -1.942063     -0.044829     -0.016199
  C      -0.685664     -0.159976     -0.746734
  C       0.541688     -0.230156      0.142781
  H      -0.592426      0.696136     -1.415566
  H      -0.727408     -1.053916     -1.369567
  H       0.470949     -1.100027      0.802353
  H       0.594806      0.666504      0.767414
  H      -2.058108     -0.838721      0.601141
  H      -1.921986      0.775405      0.577177
  H       2.468573     -0.376764     -0.131994
  O      -4.871811     -0.454273     -0.692538
  C      -4.233090     -0.035681     -1.560917
  O      -3.680327      0.382410     -2.486411
14
Coordinates from ORCA-job scan E -399.093060318005
  O       1.694475     -0.323836     -0.686128
  N      -1.941031     -0.052599     -0.023824
  C      -0.681668     -0.164435     -0.750158
  C       0.542697     -0.229689      0.143735
  H      -0.588820      0.691319     -1.419527
  H      -0.718143     -1.058931     -1.372614
  H       0.472374     -1.099458      0.803497
  H       0.590669      0.667496      0.768024
  H      -2.054297     -0.844311      0.596893
  H      -1.927134      0.770216      0.566404
  H       2.471059     -0.369775     -0.123294
  O      -4.877780     -0.441745     -0.683428
  C      -4.240476     -0.029182     -1.555832
  O      -3.688908      0.383618     -2.484428
14
Coordinates from ORCA-job scan E -399.093061703416
  O       1.701181     -0.318383     -0.678049
  N      -1.939359     -0.064553     -0.035061
  C      -0.675747     -0.171593     -0.755083
  C       0.544284     -0.228659      0.145188
  H      -0.584093      0.683788     -1.425165
  H      -0.704388     -1.066969     -1.376697
  H       0.474778     -1.097825      0.805867
  H       0.584268      0.669792      0.768163
  H      -2.049181     -0.853538      0.589845
  H      -1.934348      0.761531      0.550847
  H       2.474629     -0.359365     -0.110505
  O      -4.886053     -0.422486     -0.669898
  C      -4.250910     -0.018980     -1.548236
  O      -3.702043      0.385928     -2.481896
14
Coordinates from ORCA-job scan E -399.093058594070
  O       1.710323     -0.309559     -0.666891
  N      -1.937272     -0.082792     -0.051238
  C      -0.667306     -0.183567     -0.761528
  C       0.546690     -0.226404      0.147524
  H      -0.577978      0.670611     -1.433578
  H      -0.684392     -1.081037     -1.380506
  H       0.479767     -1.093713      0.810933
  H       0.574504      0.674801      0.767109
  H      -2.044132     -0.869115      0.577584
  H      -1.944025      0.746675      0.530213
  H       2.479673     -0.343012     -0.093277
  O      -4.896278     -0.393179     -0.650432
  C      -4.265199     -0.002352     -1.537618
  O      -3.721356      0.391330     -2.478975
14
Coordinates from ORCA-job scan E -399.093067189756
  O       1.711903     -0.309251     -0.664343
  N      -1.936255     -0.085919     -0.054473
  C      -0.665675     -0.182916     -0.763321
  C       0.546705     -0.226578      0.147889
  H      -0.576889      0.671876     -1.434602
  H      -0.680471     -1.079852     -1.383127
  H       0.478360     -1.094340      0.810594
  H       0.573469      0.674163      0.768160
  H      -2.040287     -0.870121      0.577593
  H      -1.947557      0.745546      0.523019
  H       2.480075     -0.343046     -0.089159
  O      -4.898047     -0.388564     -0.645888
  C      -4.267748     -0.001557     -1.535035
  O      -3.724566      0.389244     -2.477988
14
Coordinates from ORCA-job scan E -399.093073822446
  O       1.713936     -0.306486     -0.661944
  N      -1.935920     -0.092044     -0.058338
  C      -0.663680     -0.186686     -0.764382
  C       0.547523     -0.224870      0.148640
  H      -0.576609      0.667015     -1.437256
  H      -0.674798     -1.085132     -1.382069
  H       0.480620     -1.090973      0.813619
  H       0.571018      0.677608      0.766559
  H      -2.041465     -0.876912      0.572452
  H      -1.949403      0.738818      0.519892
  H       2.481440     -0.338870     -0.085783
  O      -4.898636     -0.379341     -0.640679
  C      -4.270754      0.004308     -1.532893
  O      -3.730254      0.392251     -2.478498
14
Coordinates from ORCA-job scan E -399.093075127256
  O       1.716068     -0.303811     -0.658867
  N      -1.935473     -0.099247     -0.062673
  C      -0.661543     -0.190497     -0.766037
  C       0.548065     -0.222512      0.149358
  H      -0.576594      0.661907     -1.440743
  H      -0.668136     -1.090617     -1.381369
  H       0.482093     -1.086345      0.817309
  H       0.568076      0.682172      0.764264
  H      -2.042137     -0.885374      0.566240
  H      -1.950549      0.730601      0.517357
  H       2.482565     -0.335157     -0.081302
  O      -4.898240     -0.368718     -0.634077
  C      -4.273950      0.010955     -1.530469
  O      -3.737227      0.395330     -2.479670
14
Coordinates from ORCA-job scan E -399.093075372970
  O       1.718328     -0.301810     -0.655496
  N      -1.934922     -0.105004     -0.067091
  C      -0.659358     -0.193211     -0.768087
  C       0.548368     -0.221203      0.149926
  H      -0.575581      0.658672     -1.443577
  H      -0.662027     -1.093994     -1.382539
  H       0.482409     -1.083910      0.819324
  H       0.565414      0.684596      0.763312
  H      -2.040423     -0.891141      0.562045
  H      -1.952767      0.724996      0.512791
  H       2.483534     -0.331907     -0.076153
  O      -4.899152     -0.359493     -0.627568
  C      -4.277426      0.015816     -1.527612
  O      -3.743381      0.396279     -2.479954
14
Coordinates from ORCA-job scan E -399.093073023639
  O       1.719522     -0.300967     -0.653541
  N      -1.934532     -0.107983     -0.069382
  C      -0.658222     -0.194271     -0.769345
  C       0.548398     -0.220630      0.150186
  H      -0.574965      0.657454     -1.445095
  H      -0.658776     -1.095201     -1.383627
  H       0.482057     -1.082911      0.820109
  H       0.564031      0.685550      0.763053
  H      -2.038891     -0.894167      0.559916
  H      -1.954192      0.722116      0.510316
  H       2.483982     -0.330204     -0.073167
  O      -4.899440     -0.353978     -0.623653
  C      -4.279177      0.018135     -1.526013
  O      -3.746776      0.395744     -2.480435
14
Coordinates from ORCA-job scan E -399.091398770395
  O       1.714488     -0.301012     -0.654004
  N      -1.957090     -0.107644     -0.082244
  C      -0.662989     -0.194723     -0.776384
  C       0.541166     -0.219700      0.146421
  H      -0.570176      0.656391     -1.451104
  H      -0.661930     -1.095884     -1.390327
  H       0.472992     -1.080940      0.817503
  H       0.555059      0.687385      0.757995
  H      -2.040292     -0.909440      0.568575
  H      -1.955969      0.735527      0.518386
  H       2.477373     -0.329309     -0.071509
  O      -4.892107     -0.356551     -0.619154
  C      -4.230389      0.016688     -1.504088
  O      -3.737117      0.397898     -2.480747
14
Coordinates from ORCA-job scan E -399.092446943071
  O       1.708038     -0.299353     -0.652784
  N      -1.951317     -0.107547     -0.082614
  C      -0.666029     -0.195610     -0.776102
  C       0.535817     -0.220327      0.148499
  H      -0.575954      0.656288     -1.450482
  H      -0.666552     -1.097164     -1.389020
  H       0.468853     -1.082350      0.818724
  H       0.548577      0.686347      0.760624
  H      -2.032866     -0.889989      0.554862
  H      -1.949009      0.716634      0.506782
  H       2.471159     -0.326670     -0.070556
  O      -4.878844     -0.354301     -0.614988
  C      -4.227538      0.016481     -1.499802
  O      -3.731317      0.396246     -2.473823
14
Coordinates from ORCA-job scan E -399.092577359140
  O       1.706799     -0.298374     -0.652665
  N      -1.949678     -0.106962     -0.081967
  C      -0.667639     -0.195645     -0.777466
  C       0.533810     -0.220932      0.147884
  H      -0.578601      0.656281     -1.452094
  H      -0.668199     -1.097199     -1.390412
  H       0.467158     -1.083728      0.817179
  H       0.545656      0.684985      0.761208
  H      -2.034954     -0.889574      0.554340
  H      -1.950320      0.717911      0.505343
  H       2.469699     -0.325356     -0.070066
  O      -4.870591     -0.353367     -0.611831
  C      -4.225900      0.016129     -1.499234
  O      -3.724221      0.394516     -2.470900
14
Coordinates from ORCA-job scan E -399.092743724524
  O       1.705854     -0.297193     -0.653180
  N      -1.947629     -0.105172     -0.079123
  C      -0.671473     -0.194509     -0.779883
  C       0.530659     -0.222222      0.145363
  H      -0.584954      0.657498     -1.454817
  H      -0.672146     -1.095560     -1.393697
  H       0.463772     -1.086835      0.812223
  H       0.541379      0.681765      0.761591
  H      -2.044376     -0.889623      0.554086
  H      -1.958221      0.723413      0.503380
  H       2.468074     -0.324073     -0.069666
  O      -4.851905     -0.352545     -0.603269
  C      -4.222054      0.014555     -1.499559
  O      -3.703962      0.389188     -2.464128
14
Coordinates from ORCA-job scan E -399.092760838722
  O       1.705918     -0.297971     -0.654372
  N      -1.948127     -0.104737     -0.077771
  C      -0.672094     -0.193405     -0.778979
  C       0.531205     -0.222176      0.144779
  H      -0.586274      0.658889     -1.453564
  H      -0.673229     -1.093992     -1.393526
  H       0.463836     -1.087010      0.811270
  H       0.543110      0.681661      0.761163
  H      -2.048283     -0.889861      0.554006
  H      -1.962199      0.724649      0.503477
  H       2.468351     -0.325269     -0.071209
  O      -4.849705     -0.353001     -0.602211
  C      -4.221058      0.013723     -1.500704
  O      -3.698431      0.387185     -2.463040
14
Coordinates from ORCA-job scan E -399.092766058137
  O       1.705658     -0.299039     -0.656027
  N      -1.948783     -0.104590     -0.076633
  C      -0.672261     -0.192352     -0.777253
  C       0.532308     -0.221916      0.144753
  H      -0.586960      0.660411     -1.451286
  H      -0.674032     -1.092416     -1.392627
  H       0.464658     -1.086704      0.811279
  H       0.545984      0.682078      0.760839
  H      -2.051232     -0.890360      0.553826
  H      -1.965460      0.725158      0.503992
  H       2.468742     -0.326701     -0.073769
  O      -4.850285     -0.353135     -0.603008
  C      -4.220309      0.012952     -1.501885
  O      -3.695011      0.385300     -2.462881
14
Coordinates from ORCA-job scan E -399.092768259307
  O       1.705224     -0.299679     -0.657433
  N      -1.949136     -0.104608     -0.075853
  C      -0.672325     -0.191751     -0.775772
  C       0.533155     -0.221741      0.144983
  H      -0.587346      0.661424     -1.449354
  H      -0.674535     -1.091398     -1.391799
  H       0.465630     -1.086452      0.811640
  H       0.548166      0.682363      0.760856
  H      -2.053034     -0.890867      0.553635
  H      -1.967469      0.725196      0.504542
  H       2.469046     -0.327401     -0.076145
  O      -4.851617     -0.352532     -0.604294
  C      -4.219754      0.012475     -1.502587
  O      -3.692988      0.383657     -2.463100
14
Coordinates from ORCA-job scan E -399.091074018957
  O       1.695963     -0.300642     -0.652816
  N      -1.963750     -0.104258     -0.089795
  C      -0.680485     -0.190082     -0.790876
  C       0.517399     -0.219820      0.139834
  H      -0.578105      0.661902     -1.463023
  H      -0.679366     -1.090502     -1.405786
  H       0.443363     -1.083223      0.807528
  H       0.528436      0.685400      0.754164
  H      -2.043090     -0.907698      0.559869
  H      -1.957859      0.737932      0.511327
  H       2.454978     -0.328209     -0.065204
  O      -4.837336     -0.356828     -0.591513
  C      -4.167148      0.009898     -1.475220
  O      -3.679980      0.384816     -2.459171
14
Coordinates from ORCA-job scan E -399.092089438090
  O       1.693289     -0.298905     -0.655005
  N      -1.963197     -0.102451     -0.086879
  C      -0.682672     -0.190088     -0.786206
  C       0.517399     -0.221889      0.141543
  H      -0.586978      0.663872     -1.457055
  H      -0.684688     -1.089198     -1.402674
  H       0.446425     -1.087170      0.807142
  H       0.529120      0.681680      0.758229
  H      -2.043155     -0.885206      0.550234
  H      -1.959259      0.721993      0.502234
  H       2.454185     -0.326652     -0.069836
  O      -4.829691     -0.353417     -0.593862
  C      -4.165545      0.007834     -1.474285
  O      -3.672215      0.378283     -2.454260
14
Coordinates from ORCA-job scan E -399.092205352927
  O       1.691628     -0.297822     -0.658167
  N      -1.963615     -0.101381     -0.084103
  C      -0.684142     -0.189736     -0.784065
  C       0.517684     -0.222888      0.141277
  H      -0.592327      0.665141     -1.454349
  H      -0.687508     -1.088029     -1.401692
  H       0.448778     -1.089387      0.805497
  H       0.530336      0.679571      0.759612
  H      -2.048534     -0.884183      0.552158
  H      -1.964033      0.724161      0.502539
  H       2.453961     -0.325892     -0.074882
  O      -4.824514     -0.351352     -0.595353
  C      -4.163122      0.006648     -1.476185
  O      -3.661576      0.373837     -2.452967
14
Coordinates from ORCA-job scan E -399.092336620322
  O       1.687618     -0.296380     -0.666388
  N      -1.964728     -0.099654     -0.076511
  C      -0.688300     -0.188039     -0.778775
  C       0.518162     -0.224189      0.139980
  H      -0.604952      0.668778     -1.447788
  H      -0.694551     -1.084540     -1.399071
  H       0.453204     -1.092916      0.801597
  H       0.534147      0.676089      0.761446
  H      -2.062974     -0.884233      0.556528
  H      -1.977109      0.729623      0.505114
  H       2.453399     -0.325763     -0.087725
  O      -4.812571     -0.347251     -0.597373
  C      -4.156018      0.003895     -1.481830
  O      -3.632308      0.363266     -2.449885
14
Coordinates from ORCA-job scan E -399.092354759277
  O       1.686644     -0.296795     -0.668440
  N      -1.964892     -0.100214     -0.074221
  C      -0.689656     -0.187288     -0.777571
  C       0.518132     -0.223514      0.139413
  H      -0.607296      0.669615     -1.446614
  H      -0.696066     -1.083646     -1.398177
  H       0.453418     -1.092056      0.801291
  H       0.535585      0.676881      0.760633
  H      -2.066661     -0.885945      0.556638
  H      -1.980591      0.729364      0.506763
  H       2.453138     -0.326585     -0.090767
  O      -4.810594     -0.346034     -0.597359
  C      -4.153721      0.003748     -1.483339
  O      -3.624422      0.361154     -2.448931
14
Coordinates from ORCA-job scan E -399.092359715683
  O       1.686164     -0.297262     -0.669460
  N      -1.964842     -0.101398     -0.072805
  C      -0.690546     -0.187043     -0.777029
  C       0.518096     -0.222508      0.139044
  H      -0.607969      0.669546     -1.446448
  H      -0.696481     -1.083588     -1.397439
  H       0.453281     -1.090377      0.801806
  H       0.536515      0.678495      0.759312
  H      -2.068366     -0.888423      0.555877
  H      -1.982266      0.727794      0.508588
  H       2.452949     -0.326976     -0.092190
  O      -4.810612     -0.344353     -0.597529
  C      -4.152290      0.004360     -1.483932
  O      -3.620616      0.360420     -2.448476
14
Coordinates from ORCA-job scan E -399.092356834653
  O       1.685891     -0.297222     -0.670086
  N      -1.964768     -0.102528     -0.071886
  C      -0.691085     -0.187299     -0.776654
  C       0.518160     -0.221817      0.138878
  H      -0.608381      0.668968     -1.446477
  H      -0.696499     -1.084062     -1.396776
  H       0.453574     -1.089147      0.802377
  H       0.536912      0.679703      0.758361
  H      -2.069198     -0.890623      0.555144
  H      -1.983020      0.726116      0.510155
  H       2.452897     -0.326481     -0.093087
  O      -4.811305     -0.342028     -0.597991
  C      -4.151408      0.005226     -1.484114
  O      -3.618751      0.359879     -2.448524
14
Coordinates from ORCA-job scan E -399.092360508424
  O       1.685376     -0.296455     -0.671350
  N      -1.964686     -0.104743     -0.070163
  C      -0.691979     -0.188226     -0.775808
  C       0.518400     -0.220818      0.138673
  H      -0.609624      0.667515     -1.446384
  H      -0.696493     -1.085370     -1.395397
  H       0.454859     -1.087384      0.803284
  H       0.537262      0.681482      0.757005
  H      -2.070687     -0.894763      0.553926
  H      -1.984206      0.722787      0.513210
  H       2.452918     -0.324480     -0.095010
  O      -4.812943     -0.336185     -0.599091
  C      -4.149798      0.007141     -1.484434
  O      -3.615380      0.358184     -2.449142
14
Coordinates from ORCA-job scan E -399.092362459418
  O       1.684903     -0.295018     -0.672561
  N      -1.964708     -0.106750     -0.068661
  C      -0.692623     -0.189374     -0.774946
  C       0.518669     -0.220286      0.138562
  H      -0.611286      0.666057     -1.446079
  H      -0.696546     -1.086774     -1.394148
  H       0.456648     -1.086556      0.803697
  H       0.537096      0.682374      0.756384
  H      -2.071987     -0.898293      0.553168
  H      -1.985047      0.719807      0.515931
  H       2.453042     -0.321692     -0.096951
  O      -4.814523     -0.329463     -0.600025
  C      -4.148395      0.009027     -1.484819
  O      -3.612223      0.355629     -2.450235
14
Coordinates from ORCA-job scan E -399.092364664418
  O       1.684366     -0.292508     -0.673989
  N      -1.964852     -0.109182     -0.066977
  C      -0.693233     -0.190894     -0.773930
  C       0.518956     -0.220018      0.138456
  H      -0.613767      0.664412     -1.445487
  H      -0.696731     -1.088452     -1.392867
  H       0.459212     -1.086455      0.803570
  H       0.536337      0.682608      0.756379
  H      -2.073363     -0.902242      0.552640
  H      -1.985757      0.716249      0.519077
  H       2.453248     -0.317482     -0.099297
  O      -4.816407     -0.319705     -0.600729
  C      -4.146797      0.011351     -1.485421
  O      -3.608193      0.351005     -2.452106
14
Coordinates from ORCA-job scan E -399.092366427762
  O       1.683957     -0.289777     -0.675061
  N      -1.965090     -0.111424     -0.065714
  C      -0.693621     -0.192139     -0.773216
  C       0.519076     -0.220002      0.138344
  H      -0.616240      0.663348     -1.444804
  H      -0.696943     -1.089640     -1.392199
  H       0.461485     -1.087005      0.802889
  H       0.535193      0.682208      0.756928
  H      -2.074076     -0.905598      0.552409
  H      -1.986019      0.712960      0.521793
  H       2.453407     -0.313354     -0.101070
  O      -4.817994     -0.309460     -0.600673
  C      -4.145559      0.013379     -1.486058
  O      -3.604559      0.345190     -2.454250
14
Coordinates from ORCA-job scan E -399.092366883469
  O       1.683372     -0.285067     -0.676481
  N      -1.965616     -0.115348     -0.063937
  C      -0.694204     -0.193741     -0.772405
  C       0.519017     -0.219995      0.138065
  H      -0.620346      0.662443     -1.443499
  H      -0.697249     -1.090817     -1.391943
  H       0.464680     -1.088257      0.801206
  H       0.532988      0.681205      0.758195
  H      -2.074320     -0.911294      0.552059
  H      -1.986097      0.707116      0.526361
  H       2.453511     -0.306713     -0.103344
  O      -4.820391     -0.290635     -0.599556
  C      -4.143771      0.016568     -1.487186
  O      -3.598556      0.333222     -2.458215
14
Coordinates from ORCA-job scan E -399.092372764067
  O       1.682587     -0.278692     -0.678119
  N      -1.966457     -0.121003     -0.061682
  C      -0.695195     -0.195185     -0.771662
  C       0.518622     -0.219829      0.137537
  H      -0.625665      0.662387     -1.441422
  H      -0.697558     -1.091234     -1.392632
  H       0.468093     -1.090020      0.798418
  H       0.529950      0.679751      0.760085
  H      -2.073542     -0.919518      0.551373
  H      -1.986117      0.698524      0.532871
  H       2.453362     -0.298313     -0.105767
  O      -4.823268     -0.262778     -0.597086
  C      -4.141485      0.020627     -1.488772
  O      -3.590310      0.313972     -2.463824
14
Coordinates from ORCA-job scan E -399.092380121248
  O       1.681876     -0.273325     -0.679210
  N      -1.967348     -0.126160     -0.059902
  C      -0.696321     -0.195386     -0.771424
  C       0.517929     -0.219530      0.136939
  H      -0.629690      0.664019     -1.439091
  H      -0.697592     -1.089874     -1.394632
  H       0.469839     -1.091687      0.795407
  H       0.527414      0.678329      0.761985
  H      -2.071336     -0.927142      0.550579
  H      -1.986158      0.690453      0.538848
  H       2.452853     -0.292056     -0.107104
  O      -4.825397     -0.235953     -0.593945
  C      -4.139742      0.023615     -1.490170
  O      -3.583310      0.293383     -2.468962
14
Coordinates from ORCA-job scan E -399.092384260925
  O       1.681165     -0.269506     -0.679891
  N      -1.968221     -0.130411     -0.058498
  C      -0.697644     -0.194069     -0.771537
  C       0.517059     -0.219100      0.136348
  H      -0.631964      0.667655     -1.436263
  H      -0.697277     -1.086367     -1.397901
  H       0.469773     -1.093128      0.792426
  H       0.525876      0.677068      0.763793
  H      -2.067799     -0.933744      0.549712
  H      -1.986643      0.683525      0.544019
  H       2.452007     -0.288768     -0.107622
  O      -4.826915     -0.211754     -0.590587
  C      -4.138550      0.025091     -1.491287
  O      -3.577849      0.272197     -2.473392
14
Coordinates from ORCA-job scan E -399.092384800793
  O       1.680010     -0.265771     -0.681384
  N      -1.969016     -0.134765     -0.056291
  C      -0.699342     -0.192618     -0.770931
  C       0.516463     -0.218628      0.135848
  H      -0.634683      0.671593     -1.432522
  H      -0.697075     -1.082491     -1.400756
  H       0.470315     -1.094435      0.789672
  H       0.525048      0.675924      0.765575
  H      -2.064958     -0.940882      0.548786
  H      -1.988272      0.676524      0.549789
  H       2.451167     -0.285638     -0.109557
  O      -4.828510     -0.186580     -0.588535
  C      -4.136606      0.026471     -1.492589
  O      -3.571523      0.249984     -2.477785
14
Coordinates from ORCA-job scan E -399.092388672125
  O       1.679204     -0.264197     -0.682465
  N      -1.969438     -0.136502     -0.054852
  C      -0.700315     -0.190863     -0.770339
  C       0.516298     -0.218613      0.135690
  H      -0.635625      0.675324     -1.429347
  H      -0.696893     -1.078776     -1.402946
  H       0.470379     -1.095698      0.787841
  H       0.525364      0.674719      0.767134
  H      -2.063139     -0.944047      0.548689
  H      -1.990096      0.673680      0.552559
  H       2.450708     -0.285330     -0.111149
  O      -4.829526     -0.173088     -0.587902
  C      -4.135493      0.026145     -1.493304
  O      -3.568411      0.235932     -2.480289
14
Coordinates from ORCA-job scan E -399.092388238732
  O       1.678293     -0.262389     -0.683888
  N      -1.969757     -0.137691     -0.053167
  C      -0.701146     -0.188790     -0.769369
  C       0.516359     -0.219053      0.135652
  H      -0.636944      0.679778     -1.425287
  H      -0.697025     -1.074404     -1.405195
  H       0.471002     -1.097900      0.785477
  H       0.525970      0.672549      0.769535
  H      -2.061793     -0.946311      0.549166
  H      -1.992558      0.671893      0.554861
  H       2.450438     -0.285221     -0.113503
  O      -4.830587     -0.159619     -0.587795
  C      -4.134113      0.025192     -1.494147
  O      -3.565120      0.220653     -2.483023
14
Coordinates from ORCA-job scan E -399.092389185938
  O       1.677747     -0.261182     -0.684813
  N      -1.969886     -0.137448     -0.052106
  C      -0.701441     -0.186036     -0.768674
  C       0.516491     -0.220002      0.135715
  H      -0.637451      0.685154     -1.421100
  H      -0.697327     -1.069167     -1.407961
  H       0.471102     -1.100997      0.782623
  H       0.526859      0.669425      0.772642
  H      -2.060388     -0.946190      0.550336
  H      -1.994985      0.672406      0.555361
  H       2.450365     -0.286623     -0.115182
  O      -4.831339     -0.150271     -0.587466
  C      -4.133331      0.022925     -1.494735
  O      -3.563398      0.206692     -2.485320
14
Coordinates from ORCA-job scan E -399.092387184894
  O       1.677348     -0.259222     -0.685590
  N      -1.969961     -0.137355     -0.051117
  C      -0.701637     -0.183054     -0.768096
  C       0.516532     -0.221174      0.135695
  H      -0.638438      0.691116     -1.416550
  H      -0.697851     -1.063385     -1.411245
  H       0.471277     -1.104893      0.778882
  H       0.527376      0.665493      0.776454
  H      -2.058777     -0.946095      0.551570
  H      -1.997353      0.672759      0.555875
  H       2.450332     -0.287581     -0.116599
  O      -4.831916     -0.138374     -0.586577
  C      -4.132490      0.020549     -1.495392
  O      -3.561425      0.189903     -2.487991
14
Coordinates from ORCA-job scan E -399.092390118590
  O       1.677499     -0.258046     -0.685463
  N      -1.969875     -0.136669     -0.051062
  C      -0.701416     -0.180310     -0.768204
  C       0.516460     -0.222187      0.135653
  H      -0.638247      0.696209     -1.413423
  H      -0.698058     -1.058410     -1.414418
  H       0.470609     -1.108164      0.775681
  H       0.527684      0.662164      0.779587
  H      -2.057125     -0.945042      0.552403
  H      -1.998826      0.673878      0.555259
  H       2.450345     -0.289241     -0.116439
  O      -4.832116     -0.131006     -0.585076
  C      -4.132521      0.018099     -1.495502
  O      -3.561397      0.177411     -2.489677
14
Coordinates from ORCA-job scan E -399.092391158261
  O       1.677678     -0.256055     -0.685344
  N      -1.969796     -0.137165     -0.050924
  C      -0.701357     -0.178569     -0.768333
  C       0.516322     -0.222811      0.135513
  H      -0.638812      0.699794     -1.411055
  H      -0.698121     -1.054901     -1.416947
  H       0.470505     -1.110728      0.772848
  H       0.527301      0.659594      0.782101
  H      -2.055910     -0.945826      0.552294
  H      -1.999833      0.673103      0.555754
  H       2.450334     -0.289072     -0.116166
  O      -4.832192     -0.120640     -0.583426
  C      -4.132313      0.017069     -1.495613
  O      -3.560789      0.164894     -2.491381
14
Coordinates from ORCA-job scan E -399.092385933203
  O       1.678295     -0.251774     -0.684692
  N      -1.969578     -0.138380     -0.051064
  C      -0.701081     -0.174951     -0.768859
  C       0.516034     -0.223981      0.135248
  H      -0.639444      0.707186     -1.406400
  H      -0.697767     -1.047574     -1.422465
  H       0.470092     -1.115881      0.766986
  H       0.526284      0.654410      0.787259
  H      -2.053301     -0.947970      0.551241
  H      -2.001790      0.670964      0.556767
  H       2.450334     -0.288633     -0.114910
  O      -4.832110     -0.097956     -0.579622
  C      -4.132293      0.015107     -1.495538
  O      -3.560657      0.138120     -2.494632
14
Coordinates from ORCA-job scan E -399.092389363067
  O       1.679282     -0.248102     -0.683428
  N      -1.969239     -0.139580     -0.052029
  C      -0.700462     -0.172474     -0.769743
  C       0.515842     -0.224711      0.135119
  H      -0.639146      0.712300     -1.403606
  H      -0.696745     -1.042433     -1.426891
  H       0.469682     -1.119586      0.762618
  H       0.524951      0.650689      0.791128
  H      -2.051573     -0.950315      0.548931
  H      -2.002886      0.668586      0.557291
  H       2.450472     -0.287781     -0.112681
  O      -4.831720     -0.079263     -0.575740
  C      -4.133017      0.014076     -1.494891
  O      -3.562424      0.117279     -2.496759
14
Coordinates from ORCA-job scan E -399.092385373242
  O       1.683312     -0.243076     -0.677649
  N      -1.967795     -0.140996     -0.058021
  C      -0.697226     -0.170497     -0.773625
  C       0.515745     -0.224978      0.135416
  H      -0.633799      0.716206     -1.404581
  H      -0.691865     -1.038375     -1.433490
  H       0.467869     -1.122938      0.758356
  H       0.521037      0.647485      0.795316
  H      -2.050711     -0.954364      0.539399
  H      -2.001960      0.664289      0.554918
  H       2.451411     -0.286008     -0.102958
  O      -4.830493     -0.056791     -0.564952
  C      -4.138157      0.014042     -1.490811
  O      -3.574350      0.094688     -2.497998
14
Coordinates from ORCA-job scan E -399.092394665464
  O       1.684563     -0.237878     -0.675956
  N      -1.967311     -0.144291     -0.060148
  C      -0.696214     -0.170030     -0.774356
  C       0.515996     -0.224969      0.135767
  H      -0.633810      0.718440     -1.402972
  H      -0.688999     -1.036032     -1.436625
  H       0.469316     -1.125038      0.755732
  H       0.518597      0.645451      0.798374
  H      -2.051231     -0.960969      0.532432
  H      -2.002730      0.657786      0.557009
  H       2.451955     -0.281614     -0.100364
  O      -4.829297     -0.030947     -0.560057
  C      -4.139572      0.015925     -1.489487
  O      -3.578243      0.072853     -2.500029
14
Coordinates from ORCA-job scan E -399.092405621592
  O       1.688436     -0.235642     -0.670010
  N      -1.965853     -0.146820     -0.069561
  C      -0.691582     -0.173538     -0.777007
  C       0.517677     -0.223205      0.138123
  H      -0.626120      0.712920     -1.408468
  H      -0.679379     -1.041427     -1.436646
  H       0.471189     -1.121101      0.761205
  H       0.515282      0.649723      0.797511
  H      -2.057825     -0.969184      0.513841
  H      -2.001010      0.649707      0.554599
  H       2.454201     -0.276446     -0.092005
  O      -4.828555     -0.018942     -0.548480
  C      -4.147479      0.021043     -1.483679
  O      -3.595965      0.071597     -2.500102
14
Coordinates from ORCA-job scan E -399.092393055734
  O       1.688914     -0.233335     -0.669198
  N      -1.965718     -0.145555     -0.070843
  C      -0.690661     -0.167323     -0.777041
  C       0.517860     -0.225094      0.138505
  H      -0.624765      0.724192     -1.401208
  H      -0.678004     -1.029989     -1.443552
  H       0.469883     -1.127396      0.755085
  H       0.516260      0.642947      0.804327
  H      -2.055024     -0.968433      0.512350
  H      -2.004621      0.650551      0.553694
  H       2.454511     -0.280218     -0.091440
  O      -4.827427      0.000909     -0.545581
  C      -4.148743      0.016079     -1.483524
  O      -3.599448      0.041350     -2.502256
14
Coordinates from ORCA-job scan E -399.092400768966
  O       1.690183     -0.233558     -0.667008
  N      -1.965262     -0.142628     -0.074410
  C      -0.688504     -0.161538     -0.777848
  C       0.518328     -0.226620      0.139404
  H      -0.620272      0.733816     -1.396203
  H      -0.675039     -1.020172     -1.449606
  H       0.467514     -1.131865      0.751445
  H       0.517800      0.637914      0.809798
  H      -2.053741     -0.965631      0.508859
  H      -2.007277      0.653285      0.550124
  H       2.455260     -0.285791     -0.089034
  O      -4.826820      0.009866     -0.541051
  C      -4.152151      0.010642     -1.482040
  O      -3.607001      0.020968     -2.503112
14
Coordinates from ORCA-job scan E -399.092405804284
  O       1.691943     -0.232875     -0.664144
  N      -1.964550     -0.141295     -0.078664
  C      -0.686143     -0.157946     -0.779156
  C       0.518771     -0.227392      0.140282
  H      -0.616081      0.739853     -1.393748
  H      -0.671387     -1.013940     -1.454276
  H       0.465893     -1.134639      0.749190
  H       0.517976      0.634761      0.813743
  H      -2.053920     -0.965580      0.502683
  H      -2.008491      0.653156      0.547611
  H       2.456132     -0.288117     -0.085278
  O      -4.825841      0.020680     -0.535585
  C      -4.155847      0.007817     -1.479870
  O      -3.615440      0.004203     -2.503468
14
Coordinates from ORCA-job scan E -399.092407022057
  O       1.692932     -0.233600     -0.662571
  N      -1.964108     -0.140216     -0.080952
  C      -0.684873     -0.156818     -0.780010
  C       0.518968     -0.227591      0.140693
  H      -0.613617      0.741428     -1.393814
  H      -0.669716     -1.012327     -1.455743
  H       0.464748     -1.135101      0.749103
  H       0.518239      0.634158      0.814663
  H      -2.054620     -0.964902      0.499646
  H      -2.008259      0.653668      0.545990
  H       2.456602     -0.289083     -0.083046
  O      -4.825830      0.021039     -0.532893
  C      -4.157852      0.006654     -1.478561
  O      -3.619596      0.001377     -2.503185
14
Coordinates from ORCA-job scan E -399.092407584298
  O       1.695055     -0.234025     -0.659268
  N      -1.963110     -0.138335     -0.085584
  C      -0.682330     -0.153727     -0.781748
  C       0.519323     -0.228355      0.141436
  H      -0.609125      0.746301     -1.392695
  H      -0.666325     -1.007263     -1.459963
  H       0.462422     -1.137348      0.747415
  H       0.518523      0.631568      0.817708
  H      -2.055695     -0.964486      0.492548
  H      -2.008082      0.653760      0.543578
  H       2.457531     -0.290237     -0.078247
  O      -4.825231      0.028670     -0.527150
  C      -4.161790      0.004012     -1.475886
  O      -3.628150     -0.011848     -2.502823
14
Coordinates from ORCA-job scan E -399.092405006265
  O       1.694704     -0.235651     -0.659885
  N      -1.963186     -0.137656     -0.084693
  C      -0.682793     -0.154557     -0.781558
  C       0.519219     -0.228308      0.141209
  H      -0.609594      0.744560     -1.393842
  H      -0.667521     -1.009076     -1.458545
  H       0.462120     -1.136408      0.748516
  H       0.519094      0.632603      0.816207
  H      -2.056162     -0.963302      0.494082
  H      -2.007065      0.654951      0.543885
  H       2.457364     -0.289761     -0.078904
  O      -4.826105      0.021550     -0.528461
  C      -4.161112      0.004167     -1.476241
  O      -3.625946     -0.004424     -2.502450
14
Coordinates from ORCA-job scan E -399.090549415460
  O       1.686340     -0.236475     -0.652936
  N      -1.977245     -0.136798     -0.101384
  C      -0.689792     -0.152589     -0.799424
  C       0.502541     -0.226557      0.135934
  H      -0.602285      0.746243     -1.411119
  H      -0.660722     -1.011297     -1.471161
  H       0.438001     -1.133744      0.743907
  H       0.496475      0.635291      0.809737
  H      -2.045329     -0.980844      0.496442
  H      -1.995403      0.668012      0.550141
  H       2.442896     -0.290729     -0.063956
  O      -4.812523      0.019463     -0.510661
  C      -4.111009      0.001401     -1.446828
  O      -3.618929     -0.002691     -2.499373
14
Coordinates from ORCA-job scan E -399.091624897374
  O       1.684383     -0.235707     -0.654048
  N      -1.976467     -0.136403     -0.099529
  C      -0.691399     -0.153475     -0.795134
  C       0.503016     -0.227402      0.137891
  H      -0.609597      0.745697     -1.405720
  H      -0.668050     -1.010387     -1.468552
  H       0.440576     -1.135208      0.745058
  H       0.498074      0.633948      0.812358
  H      -2.045315     -0.959240      0.486629
  H      -1.996238      0.649942      0.538256
  H       2.442411     -0.289444     -0.066936
  O      -4.804836      0.019960     -0.513818
  C      -4.110266      0.001040     -1.444997
  O      -3.613275     -0.004635     -2.492138
14
Coordinates from ORCA-job scan E -399.091738212403
  O       1.683367     -0.235244     -0.656360
  N      -1.976712     -0.136095     -0.097594
  C      -0.692311     -0.153802     -0.793315
  C       0.503574     -0.227892      0.137736
  H      -0.613463      0.745609     -1.403902
  H      -0.672179     -1.009696     -1.468007
  H       0.442579     -1.136099      0.744476
  H       0.499463      0.633088      0.812659
  H      -2.050442     -0.959188      0.487547
  H      -2.000814      0.651493      0.538406
  H       2.442491     -0.288583     -0.070621
  O      -4.799519      0.020244     -0.515492
  C      -4.108459      0.000845     -1.446361
  O      -3.604557     -0.005993     -2.489852
14
Coordinates from ORCA-job scan E -399.091861538079
  O       1.681040     -0.234592     -0.662450
  N      -1.977307     -0.135399     -0.092148
  C      -0.694999     -0.154078     -0.788816
  C       0.504591     -0.228822      0.136672
  H      -0.622392      0.745774     -1.399800
  H      -0.681970     -1.008016     -1.466163
  H       0.446642     -1.137738      0.742649
  H       0.502614      0.631387      0.812490
  H      -2.064290     -0.960131      0.489822
  H      -2.013323      0.655787      0.539547
  H       2.442737     -0.287041     -0.079985
  O      -4.787075      0.020430     -0.517316
  C      -4.103014      0.000251     -1.450545
  O      -3.580239     -0.009126     -2.484638
14
Coordinates from ORCA-job scan E -399.091879324284
  O       1.680406     -0.234867     -0.664097
  N      -1.977286     -0.135280     -0.090351
  C      -0.696046     -0.153762     -0.787765
  C       0.504579     -0.228793      0.136133
  H      -0.623967      0.745987     -1.399063
  H      -0.683857     -1.007632     -1.465347
  H       0.447064     -1.137654      0.742212
  H       0.503415      0.631433      0.811929
  H      -2.067936     -0.960589      0.489958
  H      -2.016740      0.656486      0.540181
  H       2.442640     -0.287154     -0.082343
  O      -4.784637      0.020042     -0.517030
  C      -4.101082      0.000035     -1.451766
  O      -3.573537     -0.009565     -2.483333
14
Coordinates from ORCA-job scan E -399.091879387224
  O       1.680031     -0.235314     -0.664947
  N      -1.977125     -0.135227     -0.089222
  C      -0.696800     -0.153385     -0.787319
  C       0.504480     -0.228593      0.135812
  H      -0.624163      0.746163     -1.398865
  H      -0.684203     -1.007490     -1.464690
  H       0.446984     -1.137263      0.742166
  H       0.503996      0.631810      0.811404
  H      -2.069542     -0.961073      0.489756
  H      -2.018265      0.656614      0.540872
  H       2.442485     -0.287547     -0.083495
  O      -4.784194      0.019563     -0.517055
  C      -4.099893     -0.000107     -1.452259
  O      -3.570773     -0.009463     -2.482838
14
Coordinates from ORCA-job scan E -399.091881400577
  O       1.679769     -0.235655     -0.665484
  N      -1.977013     -0.135151     -0.088504
  C      -0.697246     -0.153156     -0.786994
  C       0.504509     -0.228448      0.135727
  H      -0.624155      0.746278     -1.398645
  H      -0.684237     -1.007404     -1.464205
  H       0.447022     -1.136979      0.742285
  H       0.504563      0.632097      0.811144
  H      -2.070283     -0.961381      0.489632
  H      -2.018906      0.656649      0.541462
  H       2.442416     -0.287843     -0.084286
  O      -4.784377      0.019220     -0.517598
  C      -4.099223     -0.000216     -1.452429
  O      -3.569820     -0.009324     -2.482786
14
Coordinates from ORCA-job scan E -399.089916937245
  O       1.671488     -0.236460     -0.658614
  N      -1.990981     -0.134331     -0.105262
  C      -0.704167     -0.151222     -0.804862
  C       0.487937     -0.226708      0.130412
  H      -0.616847      0.747968     -1.415944
  H      -0.677429     -1.009653     -1.476893
  H       0.423055     -1.134330      0.737631
  H       0.482047      0.634771      0.804640
  H      -2.059763     -0.979162      0.492101
  H      -2.007514      0.669934      0.547865
  H       2.428051     -0.288778     -0.069444
  O      -4.770809      0.017172     -0.499816
  C      -4.049219     -0.002909     -1.422834
  O      -3.562832     -0.007605     -2.479660
14
Coordinates from ORCA-job scan E -399.091009759835
  O       1.669187     -0.235767     -0.660076
  N      -1.989968     -0.134030     -0.102976
  C      -0.705727     -0.152033     -0.800326
  C       0.488522     -0.227412      0.132564
  H      -0.624218      0.747484     -1.410225
  H      -0.684677     -1.008671     -1.473954
  H       0.425838     -1.135591      0.739074
  H       0.484147      0.633609      0.807389
  H      -2.059962     -0.957509      0.482311
  H      -2.008603      0.651542      0.535949
  H       2.427522     -0.287786     -0.073189
  O      -4.763692      0.017589     -0.503830
  C      -4.048040     -0.003308     -1.420876
  O      -3.557309     -0.009431     -2.472516
14
Coordinates from ORCA-job scan E -399.091113824044
  O       1.668109     -0.235335     -0.662628
  N      -1.990112     -0.133806     -0.100749
  C      -0.706614     -0.152339     -0.798305
  C       0.489234     -0.227796      0.132491
  H      -0.628093      0.747413     -1.408200
  H      -0.688676     -1.007999     -1.473127
  H       0.428065     -1.136313      0.738674
  H       0.485918      0.632883      0.807726
  H      -2.065360     -0.957748      0.483362
  H      -2.013433      0.653196      0.536330
  H       2.427742     -0.287147     -0.077395
  O      -4.759106      0.017827     -0.506214
  C      -4.045938     -0.003507     -1.422194
  O      -3.548719     -0.010642     -2.470452
14
Coordinates from ORCA-job scan E -399.091223056619
  O       1.665694     -0.234669     -0.669233
  N      -1.990435     -0.133350     -0.094601
  C      -0.709243     -0.152682     -0.793264
  C       0.490659     -0.228471      0.131642
  H      -0.637071      0.747466     -1.403606
  H      -0.698136     -1.006544     -1.470488
  H       0.432786     -1.137526      0.737340
  H       0.489941      0.631548      0.807619
  H      -2.079706     -0.959105      0.485762
  H      -2.026382      0.657373      0.537871
  H       2.428352     -0.286048     -0.087919
  O      -4.748689      0.017914     -0.509813
  C      -4.039790     -0.004018     -1.426154
  O      -3.524963     -0.013200     -2.465837
14
Coordinates from ORCA-job scan E -399.091241063873
  O       1.664975     -0.234880     -0.671217
  N      -1.990349     -0.133307     -0.092412
  C      -0.710382     -0.152485     -0.791889
  C       0.490803     -0.228393      0.131105
  H      -0.639046      0.747514     -1.402661
  H      -0.700316     -1.006291     -1.469321
  H       0.433604     -1.137333      0.737015
  H       0.491030      0.631713      0.806968
  H      -2.083978     -0.959702      0.485945
  H      -2.030332      0.658078      0.538647
  H       2.428338     -0.286171     -0.090851
  O      -4.746344      0.017448     -0.510032
  C      -4.037443     -0.004148     -1.427455
  O      -3.517541     -0.013357     -2.464523
14
Coordinates from ORCA-job scan E -399.091241531332
  O       1.664585     -0.235287     -0.672182
  N      -1.990158     -0.133325     -0.091112
  C      -0.711199     -0.152233     -0.791327
  C       0.490751     -0.228139      0.130755
  H      -0.639428      0.747473     -1.402515
  H      -0.700794     -1.006353     -1.468460
  H       0.433702     -1.136813      0.737061
  H       0.491643      0.632248      0.806282
  H      -2.085864     -0.960291      0.485712
  H      -2.032060      0.658121      0.539429
  H       2.428189     -0.286533     -0.092147
  O      -4.745853      0.016819     -0.510153
  C      -4.036050     -0.004164     -1.427994
  O      -3.514448     -0.012837     -2.464031
14
Coordinates from ORCA-job scan E -399.091243774658
  O       1.664357     -0.235571     -0.672658
  N      -1.990041     -0.133319     -0.090431
  C      -0.711628     -0.152139     -0.791039
  C       0.490773     -0.227952      0.130668
  H      -0.639423      0.747365     -1.402465
  H      -0.700791     -1.006492     -1.467897
  H       0.433787     -1.136425      0.737272
  H       0.492088      0.632662      0.805915
  H      -2.086562     -0.960668      0.485544
  H      -2.032586      0.658043      0.540035
  H       2.428107     -0.286755     -0.092815
  O      -4.746012      0.016356     -0.510637
  C      -4.035394     -0.004135     -1.428137
  O      -3.513657     -0.012284     -2.464033
14
Coordinates from ORCA-job scan E -399.089211061522
  O       1.656194     -0.236362     -0.665886
  N      -2.003905     -0.132531     -0.107254
  C      -0.718468     -0.150237     -0.808917
  C       0.474324     -0.226222      0.125311
  H      -0.632104      0.749060     -1.419797
  H      -0.693972     -1.008771     -1.480656
  H       0.409982     -1.133789      0.732582
  H       0.469701      0.635323      0.799383
  H      -2.076424     -0.978703      0.488129
  H      -2.021516      0.671560      0.546606
  H       2.413895     -0.287664     -0.078085
  O      -4.732489      0.014355     -0.492915
  C      -3.985498     -0.006760     -1.398334
  O      -3.506703     -0.010572     -2.460847
14
Coordinates from ORCA-job scan E -399.090312248492
  O       1.653713     -0.235661     -0.667287
  N      -2.002581     -0.132234     -0.104848
  C      -0.719860     -0.151046     -0.804521
  C       0.474862     -0.226902      0.127569
  H      -0.639381      0.748538     -1.414176
  H      -0.701092     -1.007826     -1.477729
  H       0.412693     -1.135023      0.734117
  H       0.471723      0.634211      0.802187
  H      -2.076312     -0.956885      0.478288
  H      -2.022386      0.652965      0.534473
  H       2.413180     -0.286721     -0.081774
  O      -4.725679      0.014669     -0.497125
  C      -3.984113     -0.007166     -1.396091
  O      -3.501748     -0.012233     -2.453762
14
Coordinates from ORCA-job scan E -399.090407173809
  O       1.652743     -0.235198     -0.669744
  N      -2.002597     -0.132010     -0.102607
  C      -0.720616     -0.151373     -0.802574
  C       0.475635     -0.227276      0.127524
  H      -0.643111      0.748422     -1.412237
  H      -0.704936     -1.007231     -1.476879
  H       0.414939     -1.135736      0.733730
  H       0.473474      0.633489      0.802554
  H      -2.081610     -0.957221      0.479381
  H      -2.027131      0.654774      0.534850
  H       2.413481     -0.286125     -0.085857
  O      -4.721582      0.014811     -0.499737
  C      -3.981955     -0.007367     -1.397220
  O      -3.493716     -0.013272     -2.451866
14
Coordinates from ORCA-job scan E -399.090501929414
  O       1.650692     -0.234470     -0.675946
  N      -2.002623     -0.131567     -0.096571
  C      -0.722878     -0.151784     -0.797725
  C       0.477231     -0.227914      0.126796
  H      -0.651581      0.748336     -1.407872
  H      -0.713857     -1.006010     -1.474161
  H       0.419702     -1.136899      0.732510
  H       0.477450      0.632204      0.802544
  H      -2.095300     -0.958467      0.481710
  H      -2.039527      0.658976      0.536163
  H       2.414325     -0.285178     -0.095838
  O      -4.712737      0.014586     -0.503863
  C      -3.975864     -0.007867     -1.400580
  O      -3.472016     -0.015259     -2.447847
14
Coordinates from ORCA-job scan E -399.090519548594
  O       1.649975     -0.234646     -0.678066
  N      -2.002463     -0.131493     -0.094192
  C      -0.723997     -0.151612     -0.796164
  C       0.477496     -0.227852      0.126281
  H      -0.653746      0.748359     -1.406762
  H      -0.716263     -1.005741     -1.472858
  H       0.420740     -1.136745      0.732185
  H       0.478727      0.632335      0.801933
  H      -2.099874     -0.958994      0.482004
  H      -2.043791      0.659859      0.536870
  H       2.414394     -0.285377     -0.099028
  O      -4.710488      0.013916     -0.504407
  C      -3.973296     -0.008041     -1.401860
  O      -3.464397     -0.015281     -2.446616
14
Coordinates from ORCA-job scan E -399.090526411477
  O       1.649549     -0.235084     -0.679158
  N      -2.002253     -0.131482     -0.092742
  C      -0.724847     -0.151342     -0.795446
  C       0.477502     -0.227596      0.125931
  H      -0.654262      0.748340     -1.406475
  H      -0.716912     -1.005741     -1.471906
  H       0.420954     -1.136216      0.732248
  H       0.479498      0.632884      0.801231
  H      -2.101997     -0.959492      0.481863
  H      -2.045797      0.660010      0.537608
  H       2.414264     -0.285879     -0.100540
  O      -4.709920      0.013037     -0.504652
  C      -3.971726     -0.008114     -1.402465
  O      -3.461035     -0.014636     -2.446178
14
Coordinates from ORCA-job scan E -399.090529685060
  O       1.649335     -0.235347     -0.679597
  N      -2.002141     -0.131447     -0.092099
  C      -0.725251     -0.151238     -0.795168
  C       0.477523     -0.227427      0.125854
  H      -0.654211      0.748250     -1.406423
  H      -0.716889     -1.005851     -1.471377
  H       0.421032     -1.135868      0.732436
  H       0.479922      0.633254      0.800906
  H      -2.102634     -0.959768      0.481766
  H      -2.046305      0.660006      0.538123
  H       2.414179     -0.286170     -0.101153
  O      -4.710045      0.012448     -0.505089
  C      -3.971095     -0.008121     -1.402606
  O      -3.460404     -0.014035     -2.446255
14
Coordinates from ORCA-job scan E -399.088495275475
  O       1.638590     -0.234679     -0.677092
  N      -2.015767     -0.131641     -0.104994
  C      -0.735149     -0.150914     -0.810313
  C       0.460822     -0.225980      0.119686
  H      -0.660649      0.747587     -1.422619
  H      -0.707241     -1.012581     -1.478065
  H       0.399928     -1.133758      0.726850
  H       0.458150      0.635444      0.793809
  H      -2.094658     -0.978155      0.488117
  H      -2.036870      0.673001      0.548811
  H       2.399161     -0.284796     -0.092937
  O      -4.694821      0.012535     -0.492727
  C      -3.916301     -0.008233     -1.375597
  O      -3.442177     -0.009143     -2.443609
14
Coordinates from ORCA-job scan E -399.089608946842
  O       1.636267     -0.235400     -0.678580
  N      -2.015044     -0.133007     -0.101763
  C      -0.736078     -0.151940     -0.806128
  C       0.461804     -0.224921      0.122105
  H      -0.664869      0.746293     -1.418310
  H      -0.716164     -1.011506     -1.475495
  H       0.402151     -1.131869      0.730440
  H       0.461734      0.637611      0.794905
  H      -2.095451     -0.959280      0.478204
  H      -2.038121      0.651807      0.537722
  H       2.398655     -0.285032     -0.096755
  O      -4.689261      0.011608     -0.498167
  C      -3.915029     -0.007951     -1.373025
  O      -3.437573     -0.007729     -2.435833
14
Coordinates from ORCA-job scan E -399.089693782159
  O       1.635335     -0.235410     -0.680929
  N      -2.015088     -0.133772     -0.099250
  C      -0.736645     -0.152862     -0.804346
  C       0.462608     -0.224549      0.122136
  H      -0.666931      0.745136     -1.417084
  H      -0.721329     -1.011439     -1.474813
  H       0.404220     -1.131001      0.731386
  H       0.463579      0.638526      0.794128
  H      -2.100626     -0.961154      0.478788
  H      -2.042492      0.652456      0.538799
  H       2.398969     -0.284327     -0.100658
  O      -4.685974      0.011088     -0.501312
  C      -3.912785     -0.007511     -1.373806
  O      -3.429825     -0.006493     -2.433719
14
Coordinates from ORCA-job scan E -399.089760682577
  O       1.633722     -0.234777     -0.685936
  N      -2.014948     -0.134875     -0.093620
  C      -0.738350     -0.154888     -0.800487
  C       0.463928     -0.224388      0.121553
  H      -0.671480      0.742523     -1.414690
  H      -0.731562     -1.012170     -1.472563
  H       0.408696     -1.130041      0.732348
  H       0.466097      0.639462      0.792325
  H      -2.111771     -0.964404      0.480079
  H      -2.051983      0.654372      0.540788
  H       2.399743     -0.281911     -0.108670
  O      -4.679996      0.010152     -0.505756
  C      -3.907260     -0.006470     -1.375945
  O      -3.411819     -0.003900     -2.430105
14
Coordinates from ORCA-job scan E -399.089776188226
  O       1.633110     -0.234220     -0.687975
  N      -2.014653     -0.134765     -0.091092
  C      -0.739429     -0.155490     -0.798934
  C       0.464225     -0.224783      0.120993
  H      -0.673296      0.741638     -1.413748
  H      -0.734892     -1.012699     -1.471233
  H       0.410591     -1.130405      0.731951
  H       0.466511      0.639085      0.791749
  H      -2.116268     -0.964753      0.480692
  H      -2.056005      0.655619      0.541249
  H       2.399912     -0.280713     -0.111720
  O      -4.677982      0.009557     -0.506688
  C      -3.904520     -0.006255     -1.377008
  O      -3.404288     -0.003130     -2.428918
14
Coordinates from ORCA-job scan E -399.089777568196
  O       1.632776     -0.233882     -0.689049
  N      -2.014313     -0.134106     -0.089611
  C      -0.740259     -0.155349     -0.798156
  C       0.464279     -0.225301      0.120568
  H      -0.674008      0.741692     -1.413109
  H      -0.735780     -1.012733     -1.470364
  H       0.411532     -1.131236      0.731091
  H       0.466641      0.638256      0.791800
  H      -2.118540     -0.964075      0.481270
  H      -2.058283      0.656997      0.541196
  H       2.399863     -0.280440     -0.113206
  O      -4.677153      0.008710     -0.506917
  C      -3.902835     -0.006615     -1.377602
  O      -3.400902     -0.003230     -2.428592
14
Coordinates from ORCA-job scan E -399.089786266714
  O       1.632643     -0.233938     -0.689390
  N      -2.014139     -0.133455     -0.089134
  C      -0.740574     -0.154830     -0.797901
  C       0.464325     -0.225567      0.120493
  H      -0.673912      0.742317     -1.412625
  H      -0.735526     -1.012237     -1.470114
  H       0.411655     -1.131828      0.730513
  H       0.466994      0.637664      0.792178
  H      -2.119109     -0.963265      0.481669
  H      -2.059075      0.658033      0.540949
  H       2.399806     -0.281023     -0.113695
  O      -4.677069      0.007794     -0.507085
  C      -3.902327     -0.007247     -1.377740
  O      -3.400674     -0.003730     -2.428798
14
Coordinates from ORCA-job scan E -399.087865712748
  O       1.617549     -0.233113     -0.696515
  N      -2.028663     -0.132698     -0.092796
  C      -0.755771     -0.154008     -0.802772
  C       0.449998     -0.224818      0.114474
  H      -0.689690      0.743195     -1.417478
  H      -0.751356     -1.011357     -1.475066
  H       0.397911     -1.131132      0.724466
  H       0.453299      0.638355      0.786231
  H      -2.117202     -0.979486      0.498562
  H      -2.055858      0.672717      0.559028
  H       2.385258     -0.280243     -0.121551
  O      -4.659091      0.007341     -0.509832
  C      -3.836727     -0.010625     -1.358668
  O      -3.356638     -0.005441     -2.428763
14
Coordinates from ORCA-job scan E -399.088991026390
  O       1.615636     -0.233417     -0.696268
  N      -2.027979     -0.132633     -0.089688
  C      -0.755078     -0.153707     -0.802150
  C       0.449670     -0.224792      0.115905
  H      -0.689946      0.743785     -1.416186
  H      -0.751533     -1.011040     -1.474172
  H       0.397443     -1.131191      0.725691
  H       0.453478      0.638500      0.787442
  H      -2.116474     -0.959180      0.488574
  H      -2.056779      0.653766      0.547655
  H       2.383734     -0.280914     -0.121844
  O      -4.654697      0.006574     -0.513388
  C      -3.837498     -0.011118     -1.353533
  O      -3.356960     -0.005947     -2.418719
14
Coordinates from ORCA-job scan E -399.089053342842
  O       1.615200     -0.233448     -0.697092
  N      -2.027593     -0.132358     -0.088162
  C      -0.755015     -0.153372     -0.802488
  C       0.449707     -0.224851      0.115669
  H      -0.690515      0.744276     -1.416065
  H      -0.752247     -1.010547     -1.474450
  H       0.397511     -1.131413      0.725198
  H       0.453895      0.638205      0.787486
  H      -2.119628     -0.960167      0.488475
  H      -2.059906      0.655984      0.547292
  H       2.383639     -0.281381     -0.123118
  O      -4.652275      0.005943     -0.514716
  C      -3.836665     -0.011581     -1.352716
  O      -3.353090     -0.006603     -2.415993
14
Coordinates from ORCA-job scan E -399.089086197328
  O       1.614958     -0.233521     -0.698537
  N      -2.026788     -0.131705     -0.085769
  C      -0.755416     -0.152670     -0.802240
  C       0.449946     -0.225029      0.115162
  H      -0.692168      0.745422     -1.415036
  H      -0.754355     -1.009572     -1.474322
  H       0.397844     -1.131920      0.724155
  H       0.454903      0.637486      0.787604
  H      -2.124965     -0.961139      0.487901
  H      -2.065304      0.659571      0.546016
  H       2.383976     -0.282361     -0.125395
  O      -4.649171      0.004661     -0.515248
  C      -3.834746     -0.012570     -1.352071
  O      -3.345697     -0.007965     -2.412899
14
Coordinates from ORCA-job scan E -399.089100420100
  O       1.614990     -0.233727     -0.699586
  N      -2.026085     -0.131049     -0.084288
  C      -0.755844     -0.151982     -0.801488
  C       0.450338     -0.225199      0.114829
  H      -0.693316      0.746517     -1.413743
  H      -0.755989     -1.008586     -1.473940
  H       0.398289     -1.132365      0.723387
  H       0.456069      0.636938      0.787716
  H      -2.128939     -0.961151      0.487175
  H      -2.069476      0.661919      0.544661
  H       2.384387     -0.283409     -0.127049
  O      -4.647344      0.003375     -0.514775
  C      -3.833131     -0.013516     -1.352041
  O      -3.340929     -0.009077     -2.411539
14
Coordinates from ORCA-job scan E -399.089102600763
  O       1.615202     -0.234046     -0.700154
  N      -2.025517     -0.130383     -0.083746
  C      -0.756001     -0.151313     -0.800645
  C       0.450856     -0.225356      0.114758
  H      -0.693495      0.747485     -1.412568
  H      -0.756665     -1.007570     -1.473640
  H       0.398737     -1.132749      0.722967
  H       0.457268      0.636550      0.787928
  H      -2.131740     -0.960581      0.486415
  H      -2.072545      0.663419      0.543380
  H       2.384790     -0.284518     -0.127971
  O      -4.646295      0.002064     -0.513803
  C      -3.832179     -0.014406     -1.352190
  O      -3.339396     -0.009909     -2.411409
14
Coordinates from ORCA-job scan E -399.089109782447
  O       1.615510     -0.234377     -0.700098
  N      -2.025153     -0.129862     -0.084123
  C      -0.755740     -0.150817     -0.800235
  C       0.451291     -0.225456      0.114946
  H      -0.692717      0.748118     -1.411993
  H      -0.756257     -1.006788     -1.473680
  H       0.398928     -1.132974      0.722952
  H       0.458065      0.636360      0.788233
  H      -2.133034     -0.959906      0.485684
  H      -2.074043      0.664138      0.542362
  H       2.385088     -0.285409     -0.127961
  O      -4.645877      0.001021     -0.512692
  C      -3.832196     -0.015039     -1.352129
  O      -3.340847     -0.010322     -2.411948
14
Coordinates from ORCA-job scan E -399.089110194543
  O       1.616145     -0.234816     -0.699476
  N      -2.024647     -0.129101     -0.085363
  C      -0.754948     -0.150178     -0.800111
  C       0.451867     -0.225613      0.115390
  H      -0.690848      0.748891     -1.411639
  H      -0.754918     -1.005790     -1.474093
  H       0.398957     -1.133290      0.723110
  H       0.458854      0.636068      0.788855
  H      -2.134226     -0.958888      0.484346
  H      -2.075406      0.665026      0.540671
  H       2.385549     -0.286570     -0.127171
  O      -4.645511     -0.000425     -0.510662
  C      -3.832999     -0.015867     -1.351644
  O      -3.344849     -0.010760     -2.412892
14
Coordinates from ORCA-job scan E -399.089113687566
  O       1.617117     -0.235282     -0.698192
  N      -2.024032     -0.128201     -0.087392
  C      -0.753670     -0.149492     -0.800554
  C       0.452401     -0.225793      0.115982
  H      -0.688224      0.749729     -1.411752
  H      -0.752912     -1.004798     -1.474964
  H       0.398616     -1.133648      0.723356
  H       0.459304      0.635687      0.789704
  H      -2.135002     -0.957759      0.482363
  H      -2.076259      0.666070      0.538315
  H       2.386127     -0.287820     -0.125423
  O      -4.645229     -0.002084     -0.507767
  C      -3.834639     -0.016761     -1.350606
  O      -3.350580     -0.011163     -2.413751
14
Coordinates from ORCA-job scan E -399.089114151080
  O       1.618264     -0.235640     -0.696463
  N      -2.023434     -0.127378     -0.089759
  C      -0.752222     -0.148950     -0.801552
  C       0.452709     -0.225960      0.116495
  H      -0.685586      0.750425     -1.412374
  H      -0.750842     -1.004111     -1.476130
  H       0.397888     -1.133968      0.723538
  H       0.459174      0.635296      0.790500
  H      -2.135125     -0.956821      0.480109
  H      -2.076303      0.667066      0.535753
  H       2.386686     -0.288807     -0.122951
  O      -4.645111     -0.003558     -0.504518
  C      -3.836745     -0.017487     -1.349226
  O      -3.356336     -0.011419     -2.414102
14
Coordinates from ORCA-job scan E -399.089115548734
  O       1.619311     -0.235809     -0.694789
  N      -2.022999     -0.126787     -0.091858
  C      -0.751000     -0.148665     -0.802721
  C       0.452775     -0.226105      0.116792
  H      -0.683603      0.750835     -1.413233
  H      -0.749290     -1.003845     -1.477235
  H       0.397053     -1.134232      0.723569
  H       0.458606      0.634956      0.791044
  H      -2.134790     -0.956213      0.478118
  H      -2.075730      0.667815      0.533555
  H       2.387108     -0.289291     -0.120461
  O      -4.645155     -0.004548     -0.501659
  C      -3.838723     -0.017910     -1.347930
  O      -3.360544     -0.011514     -2.413872
14
Coordinates from ORCA-job scan E -399.087390499753
  O       1.604410     -0.235039     -0.701712
  N      -2.037418     -0.126112     -0.095847
  C      -0.765990     -0.147939     -0.807733
  C       0.438526     -0.225387      0.110809
  H      -0.699103      0.751583     -1.418268
  H      -0.764805     -1.003096     -1.482279
  H       0.383311     -1.133537      0.717598
  H       0.444882      0.635651      0.785086
  H      -2.133234     -0.972569      0.494792
  H      -2.073005      0.682844      0.551332
  H       2.372669     -0.288525     -0.128003
  O      -4.627264     -0.005029     -0.504625
  C      -3.773409     -0.020998     -1.328289
  O      -3.316552     -0.013160     -2.413540
14
Coordinates from ORCA-job scan E -399.088516647568
  O       1.602559     -0.235147     -0.700855
  N      -2.036426     -0.126414     -0.093359
  C      -0.764868     -0.148104     -0.807821
  C       0.437949     -0.225301      0.112261
  H      -0.699155      0.751537     -1.417891
  H      -0.764661     -1.003522     -1.481654
  H       0.382560     -1.133340      0.719121
  H       0.444194      0.636097      0.786014
  H      -2.131994     -0.952762      0.483940
  H      -2.072990      0.663085      0.539578
  H       2.370937     -0.288415     -0.127278
  O      -4.622860     -0.005174     -0.507193
  C      -3.774626     -0.020910     -1.322650
  O      -3.317602     -0.012944     -2.402892
14
Coordinates from ORCA-job scan E -399.088580069160
  O       1.602484     -0.234915     -0.701149
  N      -2.035937     -0.126520     -0.092406
  C      -0.764484     -0.148303     -0.808621
  C       0.437945     -0.225330      0.112007
  H      -0.699577      0.751308     -1.418505
  H      -0.765081     -1.003845     -1.482001
  H       0.382646     -1.133382      0.718832
  H       0.443947      0.635995      0.785839
  H      -2.135005     -0.954233      0.483151
  H      -2.075568      0.664721      0.538930
  H       2.370982     -0.288010     -0.127667
  O      -4.620536     -0.005076     -0.507805
  C      -3.774306     -0.020776     -1.321438
  O      -3.314490     -0.012948     -2.399847
14
Coordinates from ORCA-job scan E -399.088610028265
  O       1.602885     -0.234521     -0.701622
  N      -2.035022     -0.126660     -0.091127
  C      -0.764344     -0.148651     -0.809108
  C       0.438138     -0.225401      0.111512
  H      -0.700888      0.750999     -1.418828
  H      -0.766460     -1.004479     -1.481878
  H       0.383094     -1.133467      0.718285
  H       0.443793      0.635755      0.785512
  H      -2.139920     -0.956116      0.481337
  H      -2.079788      0.666967      0.537279
  H       2.371558     -0.287326     -0.128325
  O      -4.617760     -0.004936     -0.506994
  C      -3.773371     -0.020556     -1.320156
  O      -3.308896     -0.012923     -2.396567
14
Coordinates from ORCA-job scan E -399.088624258908
  O       1.603361     -0.234361     -0.701925
  N      -2.034262     -0.126773     -0.090529
  C      -0.764354     -0.148904     -0.808908
  C       0.438500     -0.225421      0.111235
  H      -0.701723      0.750752     -1.418694
  H      -0.767327     -1.004938     -1.481395
  H       0.383692     -1.133451      0.718051
  H       0.444060      0.635736      0.785206
  H      -2.143613     -0.957046      0.479570
  H      -2.083027      0.668064      0.535729
  H       2.372116     -0.286927     -0.128737
  O      -4.616097     -0.004972     -0.505445
  C      -3.772535     -0.020381     -1.319641
  O      -3.305772     -0.012692     -2.395197
14
Coordinates from ORCA-job scan E -399.088626884833
  O       1.603897     -0.234389     -0.701993
  N      -2.033594     -0.126891     -0.090598
  C      -0.764209     -0.149125     -0.808427
  C       0.439043     -0.225387      0.111228
  H      -0.701757      0.750427     -1.418487
  H      -0.767327     -1.005298     -1.480824
  H       0.384403     -1.133317      0.718200
  H       0.444623      0.635938      0.784975
  H      -2.146669     -0.957526      0.477732
  H      -2.085747      0.668482      0.534232
  H       2.372662     -0.286713     -0.128822
  O      -4.614881     -0.005171     -0.503467
  C      -3.772060     -0.020189     -1.319411
  O      -3.305366     -0.012154     -2.395019
14
Coordinates from ORCA-job scan E -399.088631100282
  O       1.604415     -0.234528     -0.701693
  N      -2.033133     -0.126982     -0.091333
  C      -0.763774     -0.149298     -0.808125
  C       0.439572     -0.225328      0.111492
  H      -0.700909      0.750069     -1.418521
  H      -0.766398     -1.005542     -1.480526
  H       0.384925     -1.133126      0.718667
  H       0.445121      0.636226      0.784955
  H      -2.148499     -0.957677      0.476140
  H      -2.087358      0.668423      0.533001
  H       2.373105     -0.286641     -0.128414
  O      -4.614169     -0.005433     -0.501574
  C      -3.772276     -0.020005     -1.319163
  O      -3.307605     -0.011472     -2.395585
14
Coordinates from ORCA-job scan E -399.088634892262
  O       1.605221     -0.234759     -0.700832
  N      -2.032580     -0.127082     -0.092966
  C      -0.762812     -0.149524     -0.808120
  C       0.440233     -0.225237      0.112047
  H      -0.699046      0.749548     -1.418950
  H      -0.764403     -1.005875     -1.480475
  H       0.385350     -1.132826      0.719518
  H       0.445552      0.636629      0.785119
  H      -2.150134     -0.957779      0.473882
  H      -2.088717      0.668177      0.531232
  H       2.373698     -0.286590     -0.127241
  O      -4.613512     -0.005837     -0.498802
  C      -3.773301     -0.019737     -1.318526
  O      -3.312533     -0.010422     -2.396567
14
Coordinates from ORCA-job scan E -399.088637707504
  O       1.606108     -0.234930     -0.699585
  N      -2.032105     -0.127132     -0.094942
  C      -0.761635     -0.149745     -0.808641
  C       0.440681     -0.225179      0.112609
  H      -0.696971      0.749090     -1.419751
  H      -0.762232     -1.006243     -1.480833
  H       0.385362     -1.132583      0.720306
  H       0.445517      0.636900      0.785411
  H      -2.150826     -0.957834      0.471693
  H      -2.089134      0.667983      0.529399
  H       2.374244     -0.286497     -0.125500
  O      -4.613208     -0.006190     -0.496029
  C      -3.774867     -0.019486     -1.317572
  O      -3.317918     -0.009467     -2.397245
14
Coordinates from ORCA-job scan E -399.088638309698
  O       1.607070     -0.235032     -0.698053
  N      -2.031669     -0.127140     -0.097048
  C      -0.760399     -0.149958     -0.809607
  C       0.440884     -0.225158      0.113045
  H      -0.695021      0.748725     -1.420843
  H      -0.760247     -1.006668     -1.481510
  H       0.384971     -1.132419      0.720892
  H       0.445006      0.637039      0.785691
  H      -2.150764     -0.957866      0.469584
  H      -2.088785      0.667896      0.527493
  H       2.374715     -0.286335     -0.123275
  O      -4.613167     -0.006505     -0.493231
  C      -3.776716     -0.019256     -1.316392
  O      -3.322860     -0.008637     -2.397427
14
Coordinates from ORCA-job scan E -399.088636117569
  O       1.607755     -0.235031     -0.696911
  N      -2.031429     -0.127089     -0.098456
  C      -0.759611     -0.150086     -0.810467
  C       0.440868     -0.225195      0.113202
  H      -0.693926      0.748572     -1.421677
  H      -0.759210     -1.006956     -1.482135
  H       0.384492     -1.132424      0.721052
  H       0.444385      0.636997      0.785853
  H      -2.150306     -0.957816      0.468305
  H      -2.088134      0.667968      0.526175
  H       2.374973     -0.286167     -0.121545
  O      -4.613308     -0.006697     -0.491382
  C      -3.778049     -0.019146     -1.315541
  O      -3.325480     -0.008243     -2.397152
14
Coordinates from ORCA-job scan E -399.087253655495
  O       1.593155     -0.234277     -0.703355
  N      -2.045740     -0.126378     -0.103129
  C      -0.774267     -0.149347     -0.815757
  C       0.426662     -0.224469      0.107326
  H      -0.708890      0.749324     -1.426983
  H      -0.774185     -1.006202     -1.487445
  H       0.370588     -1.131712      0.715183
  H       0.430500      0.637708      0.779995
  H      -2.150212     -0.974023      0.484049
  H      -2.086894      0.682969      0.543067
  H       2.360653     -0.285421     -0.128363
  O      -4.592873     -0.007353     -0.492484
  C      -3.713104     -0.022270     -1.295754
  O      -3.282374     -0.009861     -2.397030
14
Coordinates from ORCA-job scan E -399.088359421380
  O       1.591409     -0.234486     -0.702083
  N      -2.044426     -0.126684     -0.101215
  C      -0.772660     -0.149504     -0.816271
  C       0.426100     -0.224355      0.108951
  H      -0.708242      0.749285     -1.426923
  H      -0.773293     -1.006666     -1.487105
  H       0.369635     -1.131444      0.716916
  H       0.429679      0.638259      0.780995
  H      -2.148961     -0.954289      0.472634
  H      -2.086968      0.663298      0.530714
  H       2.358888     -0.285429     -0.127040
  O      -4.588238     -0.007648     -0.494000
  C      -3.714670     -0.022198     -1.289769
  O      -3.285236     -0.009453     -2.386485
14
Coordinates from ORCA-job scan E -399.088423594953
  O       1.591607     -0.234290     -0.702067
  N      -2.043778     -0.126764     -0.100723
  C      -0.771957     -0.149694     -0.817253
  C       0.426218     -0.224391      0.108806
  H      -0.708225      0.749098     -1.427639
  H      -0.773275     -1.007019     -1.487572
  H       0.369692     -1.131490      0.716723
  H       0.429421      0.638148      0.780925
  H      -2.151678     -0.955832      0.471460
  H      -2.089291      0.665099      0.529626
  H       2.359121     -0.285098     -0.127003
  O      -4.586758     -0.007607     -0.494502
  C      -3.714820     -0.022093     -1.288138
  O      -3.283260     -0.009380     -2.383323
14
Coordinates from ORCA-job scan E -399.088444407880
  O       1.592394     -0.233973     -0.701989
  N      -2.042663     -0.126832     -0.100200
  C      -0.771315     -0.149987     -0.818018
  C       0.426564     -0.224482      0.108510
  H      -0.708717      0.748904     -1.428134
  H      -0.773865     -1.007633     -1.487694
  H       0.370022     -1.131609      0.716326
  H       0.429238      0.637881      0.780803
  H      -2.155785     -0.957508      0.469158
  H      -2.092851      0.667359      0.527324
  H       2.359911     -0.284598     -0.126891
  O      -4.585382     -0.007629     -0.493467
  C      -3.714673     -0.021961     -1.286235
  O      -3.279859     -0.009246     -2.380172
14
Coordinates from ORCA-job scan E -399.088456946845
  O       1.593146     -0.233857     -0.701854
  N      -2.041707     -0.126868     -0.100087
  C      -0.770929     -0.150184     -0.818125
  C       0.426998     -0.224533      0.108350
  H      -0.708958      0.748761     -1.428198
  H      -0.774200     -1.008047     -1.487485
  H       0.370462     -1.131653      0.716143
  H       0.429408      0.637798      0.780652
  H      -2.158997     -0.958286      0.467043
  H      -2.095731      0.668596      0.525224
  H       2.360596     -0.284346     -0.126671
  O      -4.584455     -0.007857     -0.491636
  C      -3.714362     -0.021886     -1.285203
  O      -3.278255     -0.008952     -2.378834
14
Coordinates from ORCA-job scan E -399.088459016931
  O       1.593910     -0.233930     -0.701582
  N      -2.040841     -0.126879     -0.100450
  C      -0.770490     -0.150320     -0.817902
  C       0.427580     -0.224544      0.108396
  H      -0.708590      0.748580     -1.428132
  H      -0.773899     -1.008304     -1.487180
  H       0.371002     -1.131608      0.716256
  H       0.429883      0.637898      0.780544
  H      -2.161854     -0.958591      0.464943
  H      -2.098392      0.669273      0.523193
  H       2.361236     -0.284309     -0.126249
  O      -4.583486     -0.008342     -0.489245
  C      -3.714170     -0.021838     -1.284609
  O      -3.278870     -0.008398     -2.378663
14
Coordinates from ORCA-job scan E -399.088464174763
  O       1.594492     -0.234113     -0.701151
  N      -2.040325     -0.126854     -0.101258
  C      -0.769967     -0.150385     -0.817708
  C       0.428090     -0.224528      0.108660
  H      -0.707610      0.748377     -1.428187
  H      -0.772941     -1.008387     -1.487051
  H       0.371368     -1.131510      0.716631
  H       0.430338      0.638078      0.780604
  H      -2.163482     -0.958524      0.463428
  H      -2.099958      0.669424      0.521751
  H       2.361678     -0.284422     -0.125632
  O      -4.582724     -0.008896     -0.487159
  C      -3.714426     -0.021811     -1.284325
  O      -3.281516     -0.007762     -2.379284
14
Coordinates from ORCA-job scan E -399.088466598798
  O       1.595110     -0.234334     -0.700429
  N      -2.039945     -0.126797     -0.102569
  C      -0.769206     -0.150448     -0.817739
  C       0.428568     -0.224512      0.109094
  H      -0.706070      0.748123     -1.428489
  H      -0.771408     -1.008452     -1.487152
  H       0.371569     -1.131391      0.717195
  H       0.430656      0.638263      0.780826
  H      -2.164455     -0.958314      0.461956
  H      -2.100884      0.669407      0.520329
  H       2.362100     -0.284567     -0.124638
  O      -4.582113     -0.009524     -0.484941
  C      -3.715231     -0.021769     -1.283959
  O      -3.285674     -0.007000     -2.380164
14
Coordinates from ORCA-job scan E -399.087440842946
  O       1.580742     -0.233592     -0.706628
  N      -2.054125     -0.126071     -0.107617
  C      -0.783611     -0.149706     -0.823188
  C       0.414456     -0.223785      0.103265
  H      -0.720674      0.748875     -1.433945
  H      -0.786024     -1.007698     -1.492614
  H       0.357650     -1.130675      0.711368
  H       0.416756      0.638978      0.775012
  H      -2.164841     -0.974726      0.477350
  H      -2.100075      0.684666      0.536899
  H       2.347914     -0.283834     -0.131080
  O      -4.561690     -0.010195     -0.486135
  C      -3.650639     -0.024923     -1.263620
  O      -3.242821     -0.008627     -2.379748
14
Coordinates from ORCA-job scan E -399.088568338781
  O       1.579135     -0.234016     -0.704662
  N      -2.052613     -0.126136     -0.106638
  C      -0.781297     -0.149567     -0.824455
  C       0.413827     -0.223646      0.105153
  H      -0.718807      0.749165     -1.434410
  H      -0.783969     -1.007789     -1.493009
  H       0.356107     -1.130432      0.713256
  H       0.415725      0.639492      0.776353
  H      -2.162830     -0.954577      0.465328
  H      -2.099823      0.665122      0.523742
  H       2.346047     -0.284428     -0.128763
  O      -4.556988     -0.010996     -0.486480
  C      -3.653153     -0.025126     -1.257073
  O      -3.248344     -0.008379     -2.369022
14
Coordinates from ORCA-job scan E -399.088633104474
  O       1.579682     -0.233937     -0.704041
  N      -2.051849     -0.125940     -0.106996
  C      -0.780080     -0.149479     -0.825866
  C       0.413995     -0.223729      0.105197
  H      -0.717931      0.749373     -1.435319
  H      -0.783230     -1.007796     -1.493972
  H       0.355789     -1.130620      0.713064
  H       0.415379      0.639190      0.776650
  H      -2.165011     -0.955651      0.463683
  H      -2.101949      0.667202      0.521827
  H       2.346438     -0.284593     -0.127889
  O      -4.555584     -0.011412     -0.486004
  C      -3.654124     -0.025322     -1.255047
  O      -3.248507     -0.008598     -2.365968
14
Coordinates from ORCA-job scan E -399.088649836819
  O       1.581008     -0.233846     -0.702992
  N      -2.050580     -0.125507     -0.107832
  C      -0.778704     -0.149243     -0.827216
  C       0.414394     -0.223915      0.105169
  H      -0.717089      0.749942     -1.435993
  H      -0.782769     -1.007703     -1.494913
  H       0.355464     -1.131016      0.712594
  H       0.415090      0.638583      0.777101
  H      -2.168010     -0.956435      0.460823
  H      -2.105023      0.669919      0.518275
  H       2.347422     -0.285004     -0.126401
  O      -4.554429     -0.012254     -0.483333
  C      -3.655208     -0.025765     -1.252668
  O      -3.248549     -0.009072     -2.363296
14
Coordinates from ORCA-job scan E -399.088662009108
  O       1.582366     -0.233893     -0.701902
  N      -2.049323     -0.124987     -0.108934
  C      -0.777555     -0.148886     -0.827958
  C       0.414902     -0.224119      0.105198
  H      -0.716097      0.750632     -1.436218
  H      -0.782241     -1.007362     -1.495592
  H       0.355270     -1.131456      0.712162
  H       0.415137      0.638035      0.777530
  H      -2.170638     -0.956409      0.457984
  H      -2.107913      0.672017      0.514595
  H       2.348344     -0.285647     -0.124797
  O      -4.553469     -0.013366     -0.479712
  C      -3.655996     -0.026335     -1.250992
  O      -3.249769     -0.009540     -2.362044
14
Coordinates from ORCA-job scan E -399.088674753165
  O       1.583891     -0.234130     -0.700543
  N      -2.048001     -0.124267     -0.110579
  C      -0.776298     -0.148315     -0.828420
  C       0.415589     -0.224359      0.105370
  H      -0.714398      0.751512     -1.436264
  H      -0.781148     -1.006617     -1.496360
  H       0.355078     -1.131987      0.711798
  H       0.415486      0.637488      0.778080
  H      -2.173151     -0.955685      0.455022
  H      -2.110948      0.673952      0.510508
  H       2.349261     -0.286717     -0.122729
  O      -4.552207     -0.015024     -0.475001
  C      -3.656854     -0.027142     -1.249696
  O      -3.253282     -0.010023     -2.361866
14
Coordinates from ORCA-job scan E -399.088675904628
  O       1.584684     -0.234420     -0.699728
  N      -2.047429     -0.123766     -0.111896
  C      -0.775511     -0.147887     -0.828415
  C       0.416105     -0.224513      0.105692
  H      -0.712798      0.752036     -1.436137
  H      -0.779926     -1.005915     -1.496814
  H       0.355053     -1.132306      0.711824
  H       0.415963      0.637226      0.778546
  H      -2.174270     -0.954815      0.453571
  H      -2.112492      0.674762      0.508295
  H       2.349727     -0.287532     -0.121536
  O      -4.551398     -0.016247     -0.472136
  C      -3.657525     -0.027704     -1.249345
  O      -3.257166     -0.010231     -2.362602
14
Coordinates from ORCA-job scan E -399.088678107471
  O       1.585221     -0.234750     -0.698995
  N      -2.047158     -0.123316     -0.113267
  C      -0.774784     -0.147502     -0.828431
  C       0.416508     -0.224638      0.106121
  H      -0.711070      0.752444     -1.436102
  H      -0.778494     -1.005237     -1.497293
  H       0.354961     -1.132535      0.712054
  H       0.416380      0.637045      0.779058
  H      -2.174644     -0.953905      0.452645
  H      -2.113249      0.675226      0.506716
  H       2.350023     -0.288275     -0.120521
  O      -4.550833     -0.017389     -0.469950
  C      -3.658393     -0.028185     -1.249181
  O      -3.261450     -0.010296     -2.363533
14
Coordinates from ORCA-job scan E -399.088045493451
  O       1.571050     -0.234036     -0.704955
  N      -2.061225     -0.122632     -0.118577
  C      -0.788979     -0.146807     -0.833968
  C       0.402481     -0.223932      0.100370
  H      -0.725384      0.753137     -1.441655
  H      -0.792801     -1.004544     -1.502828
  H       0.341050     -1.131830      0.706315
  H       0.402467      0.637751      0.773306
  H      -2.175346     -0.970446      0.467780
  H      -2.112794      0.690752      0.522928
  H       2.335957     -0.287555     -0.126618
  O      -4.530438     -0.018084     -0.471212
  C      -3.594066     -0.031202     -1.228563
  O      -3.218953     -0.011885     -2.363004
14
Coordinates from ORCA-job scan E -399.089181899463
  O       1.569409     -0.234500     -0.702852
  N      -2.059831     -0.122723     -0.117892
  C      -0.786440     -0.146638     -0.835530
  C       0.401788     -0.223777      0.102285
  H      -0.723228      0.753452     -1.442350
  H      -0.790418     -1.004565     -1.503508
  H       0.339330     -1.131559      0.708245
  H       0.401317      0.638328      0.774633
  H      -2.173242     -0.950264      0.455557
  H      -2.112463      0.671011      0.509684
  H       2.333990     -0.288180     -0.124080
  O      -4.525552     -0.018852     -0.471013
  C      -3.596900     -0.031379     -1.222022
  O      -3.224743     -0.011668     -2.351837
14
Coordinates from ORCA-job scan E -399.089246675453
  O       1.570011     -0.234447     -0.702084
  N      -2.059145     -0.122477     -0.118542
  C      -0.785093     -0.146466     -0.837069
  C       0.401935     -0.223880      0.102374
  H      -0.722215      0.753811     -1.443278
  H      -0.789558     -1.004448     -1.504641
  H       0.338881     -1.131802      0.708026
  H       0.400908      0.637959      0.775028
  H      -2.175202     -0.951155      0.453852
  H      -2.114485      0.673060      0.507560
  H       2.334393     -0.288447     -0.123007
  O      -4.524004     -0.019295     -0.470167
  C      -3.598151     -0.031640     -1.220012
  O      -3.225258     -0.012086     -2.348721
14
Coordinates from ORCA-job scan E -399.089260630765
  O       1.571358     -0.234421     -0.700860
  N      -2.058021     -0.121978     -0.119740
  C      -0.783636     -0.146091     -0.838511
  C       0.402265     -0.224086      0.102395
  H      -0.721231      0.754612     -1.443919
  H      -0.788966     -1.004150     -1.505781
  H       0.338347     -1.132259      0.707520
  H       0.400548      0.637284      0.775586
  H      -2.177619     -0.951664      0.451115
  H      -2.117185      0.675648      0.503931
  H       2.335331     -0.289017     -0.121275
  O      -4.522761     -0.020157     -0.467070
  C      -3.599535     -0.032175     -1.217783
  O      -3.225876     -0.012859     -2.346291
14
Coordinates from ORCA-job scan E -399.089271950204
  O       1.572646     -0.234537     -0.699673
  N      -2.056923     -0.121410     -0.121059
  C      -0.782475     -0.145604     -0.839311
  C       0.402673     -0.224306      0.102456
  H      -0.720151      0.755512     -1.444086
  H      -0.788349     -1.003596     -1.506636
  H       0.337945     -1.132748      0.707056
  H       0.400526      0.636686      0.776087
  H      -2.179578     -0.951410      0.448555
  H      -2.119615      0.677592      0.500367
  H       2.336145     -0.289790     -0.119538
  O      -4.521780     -0.021239     -0.463307
  C      -3.600505     -0.032825     -1.216292
  O      -3.227541     -0.013637     -2.345299
14
Coordinates from ORCA-job scan E -399.089283257229
  O       1.574062     -0.234811     -0.698281
  N      -2.055758     -0.120626     -0.122790
  C      -0.781243     -0.144878     -0.839837
  C       0.403239     -0.224585      0.102632
  H      -0.718422      0.756647     -1.444031
  H      -0.787251     -1.002584     -1.507609
  H       0.337545     -1.133385      0.706580
  H       0.400803      0.636020      0.776742
  H      -2.181428     -0.950491      0.445985
  H      -2.122225      0.679481      0.496454
  H       2.336941     -0.290962     -0.117436
  O      -4.520556     -0.022783     -0.458669
  C      -3.601455     -0.033743     -1.215171
  O      -3.231234     -0.014613     -2.345249
14
Coordinates from ORCA-job scan E -399.089284489098
  O       1.574782     -0.235111     -0.697487
  N      -2.055218     -0.120059     -0.124012
  C      -0.780516     -0.144324     -0.839892
  C       0.403663     -0.224774      0.102903
  H      -0.716893      0.757376     -1.443841
  H      -0.786152     -1.001687     -1.508204
  H       0.337365     -1.133799      0.706451
  H       0.401226      0.635639      0.777263
  H      -2.182209     -0.949521      0.444802
  H      -2.123611      0.680384      0.494344
  H       2.337318     -0.291858     -0.116255
  O      -4.519778     -0.023951     -0.455973
  C      -3.602051     -0.034413     -1.214884
  O      -3.234906     -0.015216     -2.345896
14
Coordinates from ORCA-job scan E -399.089284981339
  O       1.575112     -0.235380     -0.697017
  N      -2.055048     -0.119634     -0.124921
  C      -0.780038     -0.143910     -0.839861
  C       0.403939     -0.224911      0.103201
  H      -0.715597      0.757853     -1.443692
  H      -0.785152     -1.000968     -1.508636
  H       0.337239     -1.134075      0.706501
  H       0.401588      0.635385      0.777717
  H      -2.182337     -0.948691      0.444374
  H      -2.124182      0.680854      0.493250
  H       2.337487     -0.292510     -0.115606
  O      -4.519389     -0.024839     -0.454546
  C      -3.602586     -0.034900     -1.214863
  O      -3.238019     -0.015587     -2.346581
14
Coordinates from ORCA-job scan E -399.089660315666
  O       1.562077     -0.234837     -0.698482
  N      -2.069863     -0.118772     -0.137743
  C      -0.792621     -0.143219     -0.848696
  C       0.388404     -0.224194      0.098075
  H      -0.726229      0.758471     -1.452428
  H      -0.795704     -1.000352     -1.517389
  H       0.319755     -1.133285      0.701270
  H       0.384005      0.636179      0.772486
  H      -2.198989     -0.947755      0.431249
  H      -2.140873      0.681791      0.480121
  H       2.322631     -0.291953     -0.114682
  O      -4.468679     -0.027374     -0.429660
  C      -3.549500     -0.037586     -1.187110
  O      -3.181395     -0.018427     -2.317691
14
Coordinates from ORCA-job scan E -399.090076427680
  O       1.563839     -0.235113     -0.695055
  N      -2.067234     -0.118589     -0.141022
  C      -0.788000     -0.143005     -0.850823
  C       0.389620     -0.224345      0.099843
  H      -0.720935      0.758770     -1.453637
  H      -0.790492     -0.999926     -1.519111
  H       0.319620     -1.133520      0.702700
  H       0.384183      0.636070      0.774154
  H      -2.194171     -0.947292      0.429909
  H      -2.135948      0.681113      0.479209
  H       2.323463     -0.292328     -0.110059
  O      -4.477143     -0.027196     -0.428267
  C      -3.551396     -0.036996     -1.183949
  O      -3.202387     -0.018957     -2.324570
14
Coordinates from ORCA-job scan E -399.089947254634
  O       1.565680     -0.233326     -0.692088
  N      -2.064269     -0.125553     -0.142637
  C      -0.783453     -0.148653     -0.853239
  C       0.391047     -0.223431      0.101560
  H      -0.719393      0.751705     -1.458225
  H      -0.783835     -1.008288     -1.517783
  H       0.322448     -1.130827      0.707153
  H       0.381776      0.639220      0.772884
  H      -2.186906     -0.952201      0.432991
  H      -2.133068      0.675738      0.476327
  H       2.324978     -0.286111     -0.106149
  O      -4.486541     -0.012370     -0.431417
  C      -3.552209     -0.051978     -1.180767
  O      -3.223236      0.004762     -2.329289
14
Coordinates from ORCA-job scan E -399.089099331125
  O       1.569599     -0.237212     -0.686535
  N      -2.056614     -0.110809     -0.144073
  C      -0.773100     -0.136738     -0.857438
  C       0.394041     -0.226548      0.104592
  H      -0.704506      0.768893     -1.453627
  H      -0.780220     -0.992411     -1.526763
  H       0.317064     -1.138329      0.702313
  H       0.387199      0.630747      0.782592
  H      -2.180928     -0.939931      0.429077
  H      -2.117840      0.684620      0.484545
  H       2.327612     -0.298762     -0.099535
  O      -4.508972     -0.039240     -0.443002
  C      -3.550532     -0.020907     -1.172284
  O      -3.269784     -0.044685     -2.340544
14
Coordinates from ORCA-job scan E -399.090201637563
  O       1.565213     -0.235350     -0.693658
  N      -2.064251     -0.117349     -0.139884
  C      -0.784649     -0.142121     -0.852227
  C       0.390896     -0.224986      0.100755
  H      -0.718458      0.760610     -1.453456
  H      -0.789281     -0.999147     -1.520169
  H       0.319640     -1.134763      0.702442
  H       0.384905      0.634696      0.775904
  H      -2.190720     -0.945965      0.431770
  H      -2.131670      0.682015      0.481399
  H       2.324810     -0.293041     -0.108595
  O      -4.486326     -0.028252     -0.435040
  C      -3.549672     -0.035059     -1.180963
  O      -3.217419     -0.022602     -2.328960
14
Coordinates from ORCA-job scan E -399.090212398376
  O       1.565246     -0.234919     -0.693649
  N      -2.063853     -0.119015     -0.139383
  C      -0.784316     -0.143472     -0.852356
  C       0.391095     -0.224768      0.100868
  H      -0.719143      0.758919     -1.454141
  H      -0.788777     -1.001107     -1.519443
  H       0.320441     -1.134136      0.703232
  H       0.384480      0.635450      0.775314
  H      -2.189583     -0.947208      0.433137
  H      -2.131678      0.680966      0.481155
  H       2.324973     -0.291501     -0.108637
  O      -4.487740     -0.024802     -0.436526
  C      -3.549224     -0.038826     -1.180697
  O      -3.218903     -0.016894     -2.329554
14
Coordinates from ORCA-job scan E -399.090221865524
  O       1.565094     -0.235042     -0.693962
  N      -2.063921     -0.118554     -0.138890
  C      -0.784590     -0.143090     -0.852178
  C       0.391052     -0.224863      0.100731
  H      -0.719443      0.759454     -1.453726
  H      -0.789456     -1.000561     -1.519466
  H       0.320313     -1.134374      0.702870
  H       0.384712      0.635181      0.775402
  H      -2.189921     -0.946865      0.433355
  H      -2.131804      0.681405      0.481626
  H       2.324911     -0.291870     -0.109095
  O      -4.487559     -0.025705     -0.437093
  C      -3.548817     -0.038008     -1.180854
  O      -3.217553     -0.018421     -2.329399
14
Coordinates from ORCA-job scan E -399.090710955322
  O       1.552038     -0.234498     -0.695374
  N      -2.078716     -0.117701     -0.151739
  C      -0.797142     -0.142406     -0.860997
  C       0.375495     -0.224148      0.095622
  H      -0.730040      0.760065     -1.462444
  H      -0.799965     -0.999953     -1.528201
  H       0.302799     -1.133585      0.697643
  H       0.367090      0.635973      0.770174
  H      -2.206574     -0.945938      0.420205
  H      -2.148499      0.682334      0.468472
  H       2.310011     -0.291310     -0.108108
  O      -4.436841     -0.028226     -0.412273
  C      -3.495759     -0.040677     -1.153077
  O      -3.160879     -0.021245     -2.300582
14
Coordinates from ORCA-job scan E -399.091119206222
  O       1.553792     -0.234291     -0.692122
  N      -2.076306     -0.118012     -0.154609
  C      -0.792618     -0.142791     -0.863118
  C       0.376723     -0.224343      0.097229
  H      -0.725295      0.759658     -1.463764
  H      -0.795195     -1.000225     -1.529726
  H       0.303148     -1.133830      0.699027
  H       0.366931      0.635913      0.771582
  H      -2.201746     -0.946052      0.419318
  H      -2.142850      0.680804      0.468583
  H       2.310889     -0.290504     -0.103685
  O      -4.445838     -0.026507     -0.411698
  C      -3.497291     -0.039488     -1.150228
  O      -3.181325     -0.021648     -2.307470
14
Coordinates from ORCA-job scan E -399.091036219438
  O       1.555130     -0.231766     -0.689892
  N      -2.074007     -0.125428     -0.155233
  C      -0.788900     -0.148936     -0.865251
  C       0.377830     -0.223527      0.098522
  H      -0.725164      0.752128     -1.468164
  H      -0.789914     -1.009113     -1.528094
  H       0.306397     -1.131371      0.702971
  H       0.363942      0.638871      0.770002
  H      -2.195158     -0.951835      0.422786
  H      -2.139420      0.674350      0.467690
  H       2.312102     -0.282804     -0.100730
  O      -4.454301     -0.009801     -0.415955
  C      -3.497392     -0.052375     -1.147835
  O      -3.198126      0.000293     -2.311498
14
Coordinates from ORCA-job scan E -399.090278762091
  O       1.557979     -0.233778     -0.685712
  N      -2.067800     -0.113223     -0.154825
  C      -0.780245     -0.139563     -0.869056
  C       0.380110     -0.226463      0.100743
  H      -0.713855      0.766219     -1.464328
  H      -0.788494     -0.996597     -1.535659
  H       0.302514     -1.138349      0.698112
  H       0.367379      0.631169      0.778184
  H      -2.189826     -0.942545      0.420410
  H      -2.123308      0.679848      0.479081
  H       2.314119     -0.290762     -0.095796
  O      -4.474706     -0.029079     -0.429307
  C      -3.494422     -0.021757     -1.141235
  O      -3.236426     -0.046433     -2.321292
14
Coordinates from ORCA-job scan E -399.091254135228
  O       1.554732     -0.233350     -0.691236
  N      -2.074009     -0.118118     -0.152793
  C      -0.789943     -0.143157     -0.864426
  C       0.377669     -0.224912      0.097810
  H      -0.724391      0.760000     -1.464001
  H      -0.794791     -1.001073     -1.530202
  H       0.303973     -1.134945      0.698669
  H       0.366522      0.634772      0.772800
  H      -2.198609     -0.946553      0.421298
  H      -2.137805      0.679562      0.472688
  H       2.311984     -0.288534     -0.102821
  O      -4.454178     -0.023120     -0.419306
  C      -3.495135     -0.036646     -1.147974
  O      -3.193001     -0.025238     -2.311186
14
Coordinates from ORCA-job scan E -399.091262782518
  O       1.554770     -0.232712     -0.691199
  N      -2.073714     -0.119857     -0.152313
  C      -0.789647     -0.144540     -0.864608
  C       0.377811     -0.224729      0.097877
  H      -0.725169      0.758327     -1.464677
  H      -0.794393     -1.003020     -1.529580
  H       0.304805     -1.134433      0.699307
  H       0.365904      0.635411      0.772263
  H      -2.197554     -0.948092      0.422344
  H      -2.137503      0.678105      0.472920
  H       2.312125     -0.286605     -0.102790
  O      -4.455427     -0.018884     -0.420753
  C      -3.494724     -0.039541     -1.147751
  O      -3.194266     -0.020744     -2.311720
14
Coordinates from ORCA-job scan E -399.091272862959
  O       1.554668     -0.232735     -0.691424
  N      -2.073784     -0.119580     -0.151933
  C      -0.789868     -0.144276     -0.864487
  C       0.377770     -0.224801      0.097757
  H      -0.725465      0.758722     -1.464358
  H      -0.794934     -1.002623     -1.529621
  H       0.304734     -1.134630      0.698996
  H       0.366018      0.635192      0.772334
  H      -2.197823     -0.948003      0.422375
  H      -2.137548      0.678258      0.473422
  H       2.312087     -0.286708     -0.103107
  O      -4.455254     -0.019082     -0.421184
  C      -3.494420     -0.038776     -1.147867
  O      -3.193163     -0.022274     -2.311582
14
Coordinates from ORCA-job scan E -399.091452306833
  O       1.541608     -0.232198     -0.692778
  N      -2.088550     -0.118673     -0.164838
  C      -0.802370     -0.143562     -0.873307
  C       0.362201     -0.224072      0.092660
  H      -0.735984      0.759360     -1.473078
  H      -0.805394     -1.001986     -1.538356
  H       0.287176     -1.133824      0.693774
  H       0.348377      0.636002      0.767098
  H      -2.214485     -0.947019      0.409173
  H      -2.154236      0.679243      0.460221
  H       2.297151     -0.286165     -0.102047
  O      -4.404574     -0.021680     -0.396398
  C      -3.441430     -0.041540     -1.120023
  O      -3.136472     -0.025200     -2.282782
14
Coordinates from ORCA-job scan E -399.091892539622
  O       1.543713     -0.232256     -0.689068
  N      -2.086418     -0.119001     -0.168410
  C      -0.797441     -0.144113     -0.875745
  C       0.363511     -0.224181      0.094338
  H      -0.730674      0.758591     -1.474906
  H      -0.800103     -1.002516     -1.540029
  H       0.287400     -1.133762      0.695561
  H       0.348175      0.636290      0.768263
  H      -2.208983     -0.947119      0.408099
  H      -2.147759      0.677312      0.460473
  H       2.298197     -0.285337     -0.096925
  O      -4.414089     -0.020399     -0.395293
  C      -3.443658     -0.040315     -1.117263
  O      -3.158854     -0.024506     -2.289776
14
Coordinates from ORCA-job scan E -399.091865984792
  O       1.544797     -0.230215     -0.686980
  N      -2.084684     -0.125184     -0.169132
  C      -0.794072     -0.149364     -0.877855
  C       0.364299     -0.223513      0.095440
  H      -0.730357      0.752219     -1.478963
  H      -0.795655     -1.010175     -1.538918
  H       0.289842     -1.131635      0.698996
  H       0.345344      0.638845      0.766809
  H      -2.202667     -0.951996      0.411057
  H      -2.143455      0.671267      0.460687
  H       2.299097     -0.278576     -0.094106
  O      -4.421724     -0.006615     -0.399232
  C      -3.444022     -0.050068     -1.115268
  O      -3.173724     -0.006302     -2.293216
14
Coordinates from ORCA-job scan E -399.090924163601
  O       1.547300     -0.232496     -0.682388
  N      -2.079349     -0.113073     -0.169473
  C      -0.785312     -0.140622     -0.882392
  C       0.365948     -0.226284      0.097556
  H      -0.719059      0.765417     -1.476462
  H      -0.794401     -0.998794     -1.546773
  H       0.285200     -1.137954      0.694720
  H       0.347633      0.631889      0.774156
  H      -2.195749     -0.942764      0.408836
  H      -2.124629      0.675220      0.473399
  H       2.300583     -0.285539     -0.088372
  O      -4.441787     -0.025804     -0.412163
  C      -3.441854     -0.019265     -1.109365
  O      -3.211506     -0.051245     -2.301961
14
Coordinates from ORCA-job scan E -399.092013773828
  O       1.544604     -0.231224     -0.687804
  N      -2.084542     -0.119712     -0.167215
  C      -0.794604     -0.145187     -0.877499
  C       0.364189     -0.224609      0.094923
  H      -0.729761      0.757967     -1.476073
  H      -0.799328     -1.004432     -1.540548
  H       0.288069     -1.134417      0.695713
  H       0.346980      0.635676      0.768985
  H      -2.204948     -0.948185      0.409951
  H      -2.141316      0.674819      0.465041
  H       2.299091     -0.282284     -0.095398
  O      -4.422357     -0.015941     -0.402367
  C      -3.442205     -0.037716     -1.115184
  O      -3.170855     -0.026070     -2.293208
14
Coordinates from ORCA-job scan E -399.092024549010
  O       1.544541     -0.230736     -0.687923
  N      -2.084521     -0.120941     -0.166715
  C      -0.794651     -0.146169     -0.877564
  C       0.364191     -0.224494      0.094845
  H      -0.730662      0.756793     -1.476479
  H      -0.799421     -1.005788     -1.540081
  H       0.288623     -1.134082      0.696031
  H       0.346460      0.636088      0.768510
  H      -2.204450     -0.949428      0.410585
  H      -2.141144      0.673651      0.465524
  H       2.299122     -0.280731     -0.095546
  O      -4.422755     -0.012742     -0.403408
  C      -3.441852     -0.039313     -1.115189
  O      -3.170464     -0.023424     -2.293271
14
Coordinates from ORCA-job scan E -399.092026273355
  O       1.544491     -0.230616     -0.688064
  N      -2.084575     -0.121043     -0.166397
  C      -0.794805     -0.146225     -0.877521
  C       0.364159     -0.224525      0.094739
  H      -0.731057      0.756788     -1.476367
  H      -0.799796     -1.005829     -1.540038
  H       0.288699     -1.134153      0.695881
  H       0.346376      0.636020      0.768453
  H      -2.204585     -0.949743      0.410552
  H      -2.141050      0.673363      0.466058
  H       2.299117     -0.280323     -0.095720
  O      -4.422689     -0.011966     -0.403828
  C      -3.441608     -0.038845     -1.115247
  O      -3.169661     -0.024217     -2.293181
14
Coordinates from ORCA-job scan E -399.091166274779
  O       1.531415     -0.230087     -0.689361
  N      -2.099312     -0.120061     -0.179344
  C      -0.807264     -0.145468     -0.886330
  C       0.348574     -0.223774      0.089656
  H      -0.741499      0.757465     -1.485081
  H      -0.810223     -1.005151     -1.548758
  H       0.271088     -1.133321      0.690666
  H       0.328723      0.636854      0.763208
  H      -2.221261     -0.948678      0.397320
  H      -2.157730      0.674428      0.452832
  H       2.284137     -0.279804     -0.094591
  O      -4.372024     -0.014677     -0.379098
  C      -3.388666     -0.041747     -1.087368
  O      -3.112939     -0.027292     -2.264432
14
Coordinates from ORCA-job scan E -399.091614311031
  O       1.534052     -0.230700     -0.684984
  N      -2.097494     -0.119861     -0.183939
  C      -0.801779     -0.145567     -0.889197
  C       0.349993     -0.223802      0.091405
  H      -0.735155      0.757116     -1.487270
  H      -0.804053     -1.005148     -1.550904
  H       0.270783     -1.133106      0.692585
  H       0.328727      0.637290      0.764374
  H      -2.214901     -0.948197      0.395844
  H      -2.150516      0.672554      0.452963
  H       2.285403     -0.279882     -0.088468
  O      -4.382055     -0.014869     -0.376957
  C      -3.391891     -0.040156     -1.084637
  O      -3.138098     -0.026983     -2.271495
14
Coordinates from ORCA-job scan E -399.091242359308
  O       1.534965     -0.227909     -0.682659
  N      -2.096451     -0.130483     -0.185442
  C      -0.798459     -0.154180     -0.891632
  C       0.350551     -0.222317      0.092590
  H      -0.736464      0.746207     -1.493597
  H      -0.797865     -1.017542     -1.548336
  H       0.274309     -1.128845      0.698264
  H       0.324289      0.642239      0.760889
  H      -2.206255     -0.956258      0.400530
  H      -2.147064      0.663171      0.451214
  H       2.286104     -0.269820     -0.085241
  O      -4.388846      0.006637     -0.379998
  C      -3.393345     -0.059059     -1.083239
  O      -3.152450      0.006846     -2.274025
14
Coordinates from ORCA-job scan E -399.091587859744
  O       1.535662     -0.230972     -0.681196
  N      -2.094329     -0.119525     -0.184916
  C      -0.794958     -0.145932     -0.893165
  C       0.351093     -0.224243      0.093339
  H      -0.729979      0.757803     -1.490014
  H      -0.799795     -1.006671     -1.553558
  H       0.269927     -1.133490      0.694185
  H       0.327517      0.637047      0.765880
  H      -2.204237     -0.947459      0.398746
  H      -2.137019      0.668846      0.459512
  H       2.286453     -0.278246     -0.083622
  O      -4.398401     -0.013520     -0.386697
  C      -3.391865     -0.036047     -1.080744
  O      -3.167051     -0.028905     -2.278430
14
Coordinates from ORCA-job scan E -399.091690778708
  O       1.534133     -0.230563     -0.685020
  N      -2.097020     -0.119622     -0.182133
  C      -0.801042     -0.145636     -0.889926
  C       0.350058     -0.224133      0.091288
  H      -0.735954      0.757495     -1.487391
  H      -0.805392     -1.005541     -1.551111
  H       0.270642     -1.133636      0.692100
  H       0.328235      0.636695      0.764549
  H      -2.212737     -0.948159      0.397993
  H      -2.147010      0.671729      0.456595
  H       2.285709     -0.278835     -0.088669
  O      -4.385924     -0.013902     -0.382475
  C      -3.390463     -0.038184     -1.084048
  O      -3.140219     -0.029021     -2.272431
14
Coordinates from ORCA-job scan E -399.091746155517
  O       1.534628     -0.230125     -0.683838
  N      -2.096246     -0.121403     -0.182696
  C      -0.799199     -0.147180     -0.891060
  C       0.350378     -0.223961      0.091855
  H      -0.735179      0.755758     -1.488960
  H      -0.803495     -1.007918     -1.551189
  H       0.271119     -1.132991      0.693366
  H       0.327280      0.637506      0.764235
  H      -2.209304     -0.949503      0.399093
  H      -2.143889      0.669400      0.457405
  H       2.286010     -0.276690     -0.087062
  O      -4.390092     -0.009808     -0.384403
  C      -3.390815     -0.040567     -1.083047
  O      -3.148178     -0.023831     -2.274380
14
Coordinates from ORCA-job scan E -399.091729290269
  O       1.534597     -0.230106     -0.683892
  N      -2.096268     -0.121286     -0.182445
  C      -0.799259     -0.147098     -0.891099
  C       0.350332     -0.224038      0.091765
  H      -0.735413      0.755941     -1.488853
  H      -0.803885     -1.007793     -1.551272
  H       0.271047     -1.133149      0.693151
  H       0.327217      0.637338      0.764261
  H      -2.209295     -0.949552      0.399113
  H      -2.143564      0.669327      0.457913
  H       2.285985     -0.276459     -0.087109
  O      -4.390150     -0.009612     -0.384822
  C      -3.390624     -0.039928     -1.083055
  O      -3.147701     -0.024899     -2.274336
14
Coordinates from ORCA-job scan E -399.088542836444
  O       1.521490     -0.229583     -0.685134
  N      -2.110979     -0.120256     -0.195419
  C      -0.811687     -0.146314     -0.899884
  C       0.334723     -0.223274      0.086700
  H      -0.745800      0.756643     -1.497544
  H      -0.814288     -1.007091     -1.559964
  H       0.253385     -1.132301      0.687943
  H       0.309543      0.638189      0.759015
  H      -2.225985     -0.948435      0.385877
  H      -2.160245      0.670443      0.444688
  H       2.270947     -0.275954     -0.085920
  O      -4.339470     -0.012394     -0.360178
  C      -3.337694     -0.042919     -1.055181
  O      -3.090924     -0.028067     -2.245680
14
Coordinates from ORCA-job scan E -399.089007898920
  O       1.524878     -0.230091     -0.679754
  N      -2.109464     -0.120175     -0.201315
  C      -0.805587     -0.146251     -0.903496
  C       0.336177     -0.223332      0.088409
  H      -0.738501      0.756505     -1.500357
  H      -0.806782     -1.006831     -1.562920
  H       0.252657     -1.132306      0.689510
  H       0.309094      0.638353      0.760438
  H      -2.217840     -0.947429      0.384663
  H      -2.152547      0.668455      0.443654
  H       2.272434     -0.276308     -0.078186
  O      -4.349840     -0.011437     -0.356428
  C      -3.342247     -0.043140     -1.052379
  O      -3.119415     -0.027327     -2.252520
14
Coordinates from ORCA-job scan E -399.089094496619
  O       1.525315     -0.230425     -0.678162
  N      -2.108445     -0.119021     -0.201960
  C      -0.802793     -0.145356     -0.905199
  C       0.336416     -0.223722      0.089181
  H      -0.736004      0.758263     -1.500961
  H      -0.805284     -1.005991     -1.564740
  H       0.251575     -1.133123      0.689387
  H       0.308774      0.637538      0.761694
  H      -2.212330     -0.945655      0.386640
  H      -2.146543      0.667899      0.446269
  H       2.272573     -0.276852     -0.076163
  O      -4.356720     -0.012446     -0.360350
  C      -3.342572     -0.041293     -1.051012
  O      -3.130944     -0.031131     -2.255305
14
Coordinates from ORCA-job scan E -399.088739843951
  O       1.525169     -0.227620     -0.677742
  N      -2.108550     -0.128178     -0.201276
  C      -0.801903     -0.152326     -0.906379
  C       0.336335     -0.222673      0.089457
  H      -0.739841      0.749702     -1.505124
  H      -0.802725     -1.015872     -1.562142
  H       0.254526     -1.130197      0.692874
  H       0.304909      0.640943      0.758745
  H      -2.205536     -0.952089      0.392799
  H      -2.145456      0.660848      0.445018
  H       2.272742     -0.268296     -0.075658
  O      -4.359987      0.006582     -0.364857
  C      -3.342823     -0.059016     -1.050856
  O      -3.133843     -0.003122     -2.255540
14
Coordinates from ORCA-job scan E -399.089110173132
  O       1.525151     -0.229951     -0.678575
  N      -2.108649     -0.119939     -0.200740
  C      -0.803048     -0.146005     -0.905272
  C       0.336318     -0.223796      0.088935
  H      -0.737501      0.757659     -1.501008
  H      -0.806306     -1.006889     -1.564385
  H       0.251905     -1.133218      0.689167
  H       0.308238      0.637434      0.761464
  H      -2.211069     -0.946099      0.388777
  H      -2.146124      0.667307      0.447132
  H       2.272658     -0.275591     -0.076812
  O      -4.357556     -0.009805     -0.363046
  C      -3.341922     -0.043535     -1.051152
  O      -3.129079     -0.028887     -2.255164
14
Coordinates from ORCA-job scan E -399.089109139575
  O       1.525094     -0.229938     -0.678728
  N      -2.108761     -0.119686     -0.200246
  C      -0.803221     -0.145721     -0.905281
  C       0.336242     -0.223954      0.088764
  H      -0.737968      0.758165     -1.500674
  H      -0.807066     -1.006449     -1.564544
  H       0.251752     -1.133591      0.688666
  H       0.308229      0.637017      0.761629
  H      -2.210773     -0.945779      0.389408
  H      -2.145984      0.667673      0.447478
  H       2.272637     -0.275608     -0.077019
  O      -4.357598     -0.009710     -0.363833
  C      -3.341645     -0.043583     -1.051247
  O      -3.127919     -0.030150     -2.255054
