14
Coordinates from ORCA-job scan E -399.089115548734
  O           1.61931144209568     -0.23580939471350     -0.69478939150866
  N          -2.02299882209321     -0.12678662356102     -0.09185767753920
  C          -0.75100033066966     -0.14866513229126     -0.80272060715640
  C           0.45277509153169     -0.22610537386540      0.11679229397642
  H          -0.68360314184548      0.75083480348117     -1.41323250604748
  H          -0.74928994779146     -1.00384505962362     -1.47723537596862
  H           0.39705259547499     -1.13423215512520      0.72356867737790
  H           0.45860559425407      0.63495633858386      0.79104405494129
  H          -2.13478988116800     -0.95621277940280      0.47811793332467
  H          -2.07573029822748      0.66781496802011      0.53355490110181
  H           2.38710765942858     -0.28929076753458     -0.12046119230281
  O          -4.64515473531699     -0.00454803808103     -0.50165881432060
  C          -3.83872286456040     -0.01790990679586     -1.34793045504272
  O          -3.36054441141222     -0.01151420659087     -2.41387218173556
