14
Coordinates from ORCA-job scan E -399.092768259307
  O           1.70522441148893     -0.29967878515883     -0.65743323910797
  N          -1.94913630270781     -0.10460781998297     -0.07585273744523
  C          -0.67232465501222     -0.19175128906244     -0.77577224212618
  C           0.53315540443564     -0.22174066647040      0.14498344750540
  H          -0.58734619387490      0.66142412523006     -1.44935353799480
  H          -0.67453464287856     -1.09139817743017     -1.39179856355272
  H           0.46563013895441     -1.08645220731780      0.81163961623522
  H           0.54816582378293      0.68236287538653      0.76085609252238
  H          -2.05303378218462     -0.89086701375956      0.55363458676479
  H          -1.96746889402412      0.72519583706731      0.50454201118481
  H           2.46904570699947     -0.32740136127067     -0.07614475462767
  O          -4.85161675476722     -0.35253155479284     -0.60429386801672
  C          -4.21975413923265      0.01247538589367     -1.50258748318172
  O          -3.69298817127919      0.38365732416810     -2.46309966905957
