14
Coordinates from ORCA-job scan E -399.093261771892
  O           1.63891545931587     -0.38068471817521     -0.76816036013658
  N          -1.93185932182285      0.06145804424731      0.11893757472246
  C          -0.72358293263696     -0.08680089264481     -0.68392858757775
  C           0.54561891650205     -0.24629004614916      0.13227499901011
  H          -0.62564253854591      0.78737240894636     -1.32815945460827
  H          -0.84159534664412     -0.95449407934769     -1.33359827620363
  H           0.46345313633205     -1.12997834543257      0.77204709271748
  H           0.68222313741319      0.62809091258406      0.77538713475892
  H          -2.04035541408349     -0.73714467159888      0.73159044243550
  H          -1.84845462068560      0.87114381821691      0.72098417151105
  H           2.44461369658805     -0.47779414722515     -0.25503227743187
  O          -4.87949367633342     -0.61468979405992     -0.86354217677919
  C          -4.21898942054787     -0.14318688631331     -1.68652776159210
  O          -3.61183312515095      0.32168506945206     -2.55295286172614
