14
Coordinates from ORCA-job scan E -399.092026273355
  O           1.54449077274039     -0.23061600385638     -0.68806359563251
  N          -2.08457462060651     -0.12104274537294     -0.16639658635800
  C          -0.79480487970560     -0.14622523330505     -0.87752086037417
  C           0.36415937714869     -0.22452471584975      0.09473899160142
  H          -0.73105734725458      0.75678772710105     -1.47636688825331
  H          -0.79979574697625     -1.00582858887372     -1.54003779931997
  H           0.28869915591896     -1.13415298703322      0.69588063525249
  H           0.34637613675031      0.63602027880873      0.76845257533985
  H          -2.20458467293863     -0.94974289074376      0.41055224880007
  H          -2.14104991836363      0.67336348120005      0.46605765260191
  H           2.29911742707964     -0.28032301515952     -0.09571999339646
  O          -4.42268854869412     -0.01196632405833     -0.40382818247437
  C          -3.44160835099738     -0.03884494040670     -1.11524743409708
  O          -3.16966083440112     -0.02421736995044     -2.29318110458983
