14
Coordinates from ORCA-job scan E -399.092405006265
  O           1.69470388794742     -0.23565094052310     -0.65988466936969
  N          -1.96318594879283     -0.13765570178216     -0.08469349080118
  C          -0.68279340894921     -0.15455746485216     -0.78155821128254
  C           0.51921941141672     -0.22830825981285      0.14120897237246
  H          -0.60959416229511      0.74456047484242     -1.39384200865298
  H          -0.66752111087244     -1.00907648832058     -1.45854477582296
  H           0.46212023418344     -1.13640834358576      0.74851594511995
  H           0.51909407637134      0.63260319762692      0.81620710574101
  H          -2.05616175433668     -0.96330245884844      0.49408165049146
  H          -2.00706545133515      0.65495141869173      0.54388522971501
  H           2.45736403288187     -0.28976114782100     -0.07890442310153
  O          -4.82610452675356      0.02154994841956     -0.52846080353875
  C          -4.16111171628291      0.00416683377813     -1.47624120637848
  O          -3.62594561348282     -0.00442439531269     -2.50244965539174
